ITEM: TIMESTEP
399800
ITEM: NUMBER OF ATOMS
5600
ITEM: BOX BOUNDS pp pp pp
-3.6085000000000015e+01 3.6085000000000015e+01
-3.5714887652070217e+01 3.5714887652070217e+01
-6.1860000000000028e+01 6.1860000000000028e+01
ITEM: ATOMS id type xs ys zs
855 1 0.00643022 0.233577 0.429983
997 1 0.0200277 0.238391 0.431075
921 1 0.008291 0.247298 0.427665
930 1 0.0235414 0.253645 0.431144
632 1 0.00131526 0.270443 0.426639
3430 1 0.0139714 0.262159 0.42907
3779 1 0.0176203 0.279957 0.427699
853 1 0.0274916 0.270192 0.430631
843 1 0.0169006 0.292913 0.425207
1051 1 0.00257025 0.295542 0.422323
841 1 0.00170965 0.281965 0.423797
987 1 0.0326251 0.283932 0.429201
1004 1 0.0267717 0.295785 0.427068
1055 1 0.0399252 0.296795 0.430469
994 1 0.0159277 0.308988 0.424524
918 1 0.00435528 0.307028 0.424985
846 1 0.0320614 0.310851 0.428349
1009 1 0.0459216 0.315016 0.431676
990 1 0.0167113 0.322954 0.425471
1091 1 0.0184658 0.334785 0.425006
844 1 0.0034017 0.333672 0.423944
915 1 0.00439024 0.321889 0.425034
919 1 0.0283979 0.321507 0.427261
1152 1 0.0295566 0.336545 0.428473
1015 1 0.0402169 0.326147 0.430951
1082 1 0.00945967 0.346545 0.424176
1014 1 0.0232549 0.348898 0.427129
1147 1 0.0353273 0.351265 0.429027
932 1 0.0417313 0.342341 0.429707
4055 1 0.00368854 0.360649 0.424473
993 1 0.014832 0.362123 0.425715
1054 1 0.0134674 0.374826 0.428235
3911 1 0.00109863 0.37204 0.426295
914 1 0.0271306 0.37559 0.429739
3848 1 0.0271003 0.361567 0.428809
1077 1 0.0387645 0.36851 0.431344
1071 1 7.95645e-05 0.396932 0.431525
1061 1 0.0123985 0.385887 0.429405
1204 1 0.0144719 0.399282 0.431054
912 1 0.0259824 0.387061 0.430144
790 1 0.0101725 0.193861 0.441065
926 1 0.000181008 0.20383 0.439368
581 1 0.0140229 0.208076 0.436023
856 1 0.00168531 0.218649 0.434462
927 1 0.0253889 0.200088 0.441123
850 1 0.0285052 0.214485 0.437014
647 1 0.0405648 0.20576 0.440319
502 1 0.0521131 0.203692 0.442106
851 1 0.055967 0.214653 0.438576
1001 1 0.0442598 0.219194 0.436913
1013 1 0.0672609 0.215248 0.441461
857 1 0.0667473 0.203 0.442964
798 1 0.0913257 0.217553 0.442824
725 1 0.0168842 0.220866 0.433171
580 1 0.0296267 0.228691 0.434244
797 1 0.0448351 0.232575 0.433768
849 1 0.0587103 0.228188 0.4358
871 1 0.0709253 0.22939 0.43867
783 1 0.0622009 0.23929 0.435865
1003 1 0.0828649 0.231727 0.440399
728 1 0.0949271 0.232279 0.441843
867 1 0.0381935 0.258746 0.432369
924 1 0.033028 0.244004 0.432117
780 1 0.0495272 0.246589 0.43384
939 1 0.0656493 0.254205 0.435447
800 1 0.0762309 0.245052 0.437129
1005 1 0.077538 0.259414 0.436927
787 1 0.0872251 0.244183 0.439089
642 1 0.0986975 0.243013 0.441157
729 1 0.0902947 0.257605 0.437525
863 1 0.103615 0.253122 0.440508
775 1 0.0386546 0.272212 0.433199
771 1 0.0541155 0.279913 0.434777
1007 1 0.0514354 0.261367 0.434841
865 1 0.0643421 0.267715 0.435341
3709 1 0.068416 0.279991 0.435785
847 1 0.0810497 0.273457 0.435737
931 1 0.0932566 0.270109 0.436521
727 1 0.105011 0.267142 0.440952
733 1 0.117051 0.264751 0.442999
868 1 0.0435454 0.286555 0.433656
854 1 0.0521619 0.299507 0.432898
848 1 0.0646448 0.293512 0.434802
726 1 0.0795389 0.290806 0.437484
1008 1 0.0906053 0.285175 0.439036
1000 1 0.0977681 0.295094 0.439195
1154 1 0.105577 0.280571 0.43967
862 1 0.11271 0.293994 0.442861
1011 1 0.0572837 0.314136 0.434737
3920 1 0.0686437 0.304683 0.435774
773 1 0.074624 0.316551 0.438813
872 1 0.084231 0.303999 0.438698
1081 1 0.0900782 0.318432 0.440998
916 1 0.102343 0.306431 0.442505
938 1 0.0547955 0.330909 0.432934
917 1 0.0665156 0.325461 0.43641
929 1 0.0670041 0.338904 0.435832
923 1 0.0808672 0.332998 0.439013
1006 1 0.0958333 0.332482 0.442737
714 1 0.0537976 0.34416 0.433068
1143 1 0.0504095 0.357249 0.432715
928 1 0.0631127 0.353805 0.437463
1217 1 0.0781697 0.349058 0.438398
1354 1 0.090437 0.343843 0.440976
1073 1 0.0883486 0.35946 0.43937
1219 1 0.098704 0.356986 0.442221
922 1 0.0507635 0.376102 0.433275
1497 1 0.061097 0.369719 0.435923
1150 1 0.0729922 0.363255 0.438406
1140 1 0.0735846 0.377137 0.439135
1084 1 0.0874039 0.371442 0.44153
1067 1 0.0366022 0.38673 0.434168
991 1 0.0250305 0.398554 0.434961
1064 1 0.048023 0.388818 0.435188
934 1 0.0606726 0.396827 0.440763
1141 1 0.0610305 0.383107 0.438218
1062 1 0.00583859 0.411239 0.433433
1132 1 0.0170844 0.414432 0.436209
1125 1 0.0389333 0.400856 0.436823
1068 1 0.0311606 0.411144 0.438025
985 1 0.0398731 0.419014 0.440443
1491 1 0.0496702 0.407675 0.441511
1202 1 0.0137937 0.426682 0.437144
1056 1 0.000761233 0.437491 0.439637
1197 1 0.0277073 0.42739 0.439977
435 1 0.0162247 0.15897 0.453621
503 1 0.00859915 0.166686 0.451644
713 1 0.010409 0.179434 0.446849
504 1 0.0257416 0.172988 0.451361
568 1 0.0420953 0.171449 0.452226
864 1 0.0538452 0.168548 0.453961
721 1 0.0483166 0.179184 0.447803
648 1 0.0632413 0.179825 0.448769
576 1 0.0827027 0.178325 0.454232
935 1 0.0237517 0.18617 0.445575
866 1 0.0388432 0.193003 0.444973
500 1 0.0352151 0.180863 0.448376
940 1 0.0510723 0.192497 0.443532
719 1 0.0632099 0.191856 0.445206
942 1 0.0737455 0.189562 0.447578
724 1 0.0878801 0.190783 0.45027
651 1 0.0964961 0.183793 0.454058
439 1 0.101947 0.197401 0.450142
859 1 0.0794484 0.216255 0.443546
795 1 0.0789298 0.202332 0.444979
650 1 0.0921693 0.204217 0.447002
516 1 0.107839 0.209592 0.448747
593 1 0.115936 0.20369 0.453246
589 1 0.118155 0.215293 0.449477
586 1 0.126146 0.215164 0.453715
723 1 0.105799 0.226836 0.446176
522 1 0.11993 0.227059 0.446872
657 1 0.131212 0.225726 0.450434
739 1 0.135401 0.238631 0.448631
999 1 0.122711 0.239029 0.445899
730 1 0.147379 0.238776 0.452327
512 1 0.142781 0.226794 0.453023
597 1 0.108753 0.240554 0.444491
873 1 0.115292 0.25235 0.443856
588 1 0.12975 0.252868 0.444874
579 1 0.141784 0.253794 0.44658
735 1 0.15588 0.248747 0.451373
574 1 0.119288 0.278971 0.44372
591 1 0.127774 0.266701 0.446138
664 1 0.13959 0.267162 0.445665
1016 1 0.151527 0.266654 0.449395
937 1 0.159387 0.276898 0.452374
799 1 0.161765 0.261345 0.452748
1078 1 0.124643 0.290937 0.445365
1017 1 0.133584 0.283322 0.447964
659 1 0.147398 0.282537 0.449315
662 1 0.141817 0.294852 0.450264
858 1 0.155338 0.290693 0.452605
802 1 0.117356 0.30506 0.44654
947 1 0.109636 0.3189 0.44391
793 1 0.131236 0.300349 0.448076
941 1 0.123302 0.317575 0.4481
1155 1 0.134841 0.311225 0.45057
1010 1 0.144969 0.307802 0.453252
869 1 0.111669 0.330937 0.445914
1072 1 0.125509 0.329665 0.448476
1220 1 0.136808 0.326508 0.451303
1022 1 0.140718 0.338585 0.453568
1285 1 0.148339 0.320807 0.454145
1213 1 0.106346 0.340879 0.445016
936 1 0.119243 0.342418 0.448978
1362 1 0.111223 0.354906 0.446149
1066 1 0.130932 0.342743 0.450594
1499 1 0.124402 0.355478 0.448979
933 1 0.134016 0.355141 0.453074
1069 1 0.101166 0.369619 0.443742
1205 1 0.111241 0.36777 0.446595
998 1 0.124569 0.367166 0.450644
1429 1 0.134996 0.378294 0.454161
1145 1 0.141287 0.365294 0.454175
1126 1 0.0725689 0.391957 0.443917
1080 1 0.0876274 0.384378 0.443867
1137 1 0.0871869 0.396475 0.448889
1423 1 0.0993122 0.384347 0.446516
1571 1 0.110987 0.381199 0.448871
1288 1 0.101963 0.397993 0.449672
1488 1 0.114192 0.391897 0.452633
943 1 0.124086 0.38045 0.450822
1431 1 0.128794 0.391749 0.453652
1134 1 0.0619907 0.409044 0.445
1063 1 0.0745971 0.403401 0.445075
1215 1 0.083883 0.412566 0.449687
1283 1 0.094178 0.409477 0.44943
1495 1 0.105548 0.408936 0.452715
1191 1 0.0192558 0.439717 0.443725
1060 1 0.0337618 0.436392 0.443355
1136 1 0.0444022 0.426717 0.444844
1345 1 0.0548322 0.420793 0.443877
1144 1 0.0593672 0.43263 0.44678
1486 1 0.0724863 0.420375 0.447049
1417 1 0.0720811 0.438137 0.448857
1492 1 0.0937675 0.421308 0.452442
1139 1 0.0821212 0.427116 0.450141
989 1 0.00412539 0.448256 0.444734
1284 1 0.0170765 0.454944 0.446549
992 1 0.00298866 0.4585 0.447916
1271 1 0.0335649 0.452139 0.447016
1075 1 0.0471964 0.440187 0.44476
1272 1 0.0454662 0.452277 0.44825
1076 1 0.0594893 0.447333 0.448967
1349 1 0.073884 0.451665 0.452402
1142 1 0.0845409 0.442585 0.453036
1192 1 0.00392387 0.473297 0.45031
1123 1 0.0149312 0.468779 0.451452
1199 1 0.0299313 0.463008 0.451389
1195 1 0.0442559 0.468172 0.450626
1206 1 0.0574898 0.461079 0.451783
1278 1 0.0192488 0.481758 0.453884
1265 1 0.00446102 0.482488 0.454416
72 1 0.01025 0.131696 0.464117
75 1 0.0267802 0.137175 0.462657
426 1 0.0393481 0.134394 0.463092
143 1 0.0522025 0.133127 0.465379
440 1 0.067114 0.13783 0.463618
645 1 0.0019535 0.154005 0.455318
575 1 0.0138562 0.146369 0.46069
3288 1 0.00202689 0.140002 0.461717
636 1 0.0280865 0.149932 0.45892
501 1 0.0425825 0.146626 0.460122
711 1 0.0554081 0.145395 0.460264
788 1 0.0461892 0.156804 0.455734
520 1 0.0598827 0.157811 0.45643
582 1 0.0740332 0.148893 0.458782
438 1 0.0793392 0.159275 0.456809
577 1 0.084638 0.145031 0.462907
646 1 0.0947025 0.157162 0.461215
507 1 0.107648 0.153992 0.465467
444 1 0.100732 0.143168 0.46548
572 1 0.0326878 0.16387 0.454981
860 1 0.0718526 0.168912 0.455197
432 1 0.0884308 0.168262 0.457284
649 1 0.101045 0.172463 0.456789
595 1 0.105279 0.164646 0.46193
794 1 0.11793 0.167608 0.462815
652 1 0.111826 0.17845 0.458544
658 1 0.132793 0.166551 0.46549
519 1 0.125375 0.178308 0.46318
316 1 0.140196 0.175979 0.464457
585 1 0.109326 0.189925 0.454717
583 1 0.122859 0.190483 0.459565
456 1 0.136447 0.188508 0.462137
578 1 0.135969 0.2 0.460455
592 1 0.14896 0.18332 0.463479
305 1 0.147267 0.199871 0.46224
450 1 0.161423 0.189785 0.464918
445 1 0.173442 0.199344 0.465775
372 1 0.127082 0.203204 0.455281
378 1 0.139042 0.214869 0.458004
518 1 0.151653 0.215585 0.459226
656 1 0.161806 0.206965 0.461837
814 1 0.1748 0.217025 0.462122
394 1 0.179209 0.207409 0.464085
809 1 0.15845 0.229365 0.454807
446 1 0.174613 0.230132 0.459621
517 1 0.164301 0.220465 0.458898
806 1 0.188095 0.220806 0.463169
524 1 0.188573 0.233579 0.462084
526 1 0.201775 0.22649 0.465134
796 1 0.164298 0.241314 0.455443
598 1 0.174172 0.255849 0.456804
1029 1 0.196998 0.240423 0.464087
736 1 0.180988 0.244575 0.458265
594 1 0.19065 0.252111 0.46247
944 1 0.201805 0.252398 0.465175
801 1 0.173495 0.272455 0.456972
737 1 0.185872 0.264128 0.459272
878 1 0.196649 0.26901 0.463461
1083 1 0.16814 0.288173 0.456451
604 1 0.185692 0.281118 0.460447
1012 1 0.180684 0.293689 0.458683
732 1 0.194173 0.294834 0.462782
808 1 0.201408 0.280352 0.464806
946 1 0.156821 0.305231 0.455418
660 1 0.158368 0.318196 0.456973
1086 1 0.167655 0.300505 0.458329
590 1 0.169297 0.315303 0.460343
803 1 0.179151 0.306911 0.460821
1090 1 0.192477 0.305756 0.463574
945 1 0.186724 0.316853 0.464374
1223 1 0.151648 0.333124 0.45676
870 1 0.176629 0.324463 0.463525
1156 1 0.164243 0.329894 0.458889
1221 1 0.146121 0.348364 0.45599
1289 1 0.158262 0.344523 0.46027
1087 1 0.15292 0.359615 0.459207
1146 1 0.170909 0.340136 0.463458
1360 1 0.165989 0.354268 0.463696
1148 1 0.14719 0.376462 0.45795
1363 1 0.162008 0.370307 0.462889
1085 1 0.140955 0.392502 0.456232
1297 1 0.155187 0.387439 0.460897
1361 1 0.118669 0.405153 0.455438
1436 1 0.130714 0.403821 0.458925
1074 1 0.128139 0.417289 0.460101
1357 1 0.149456 0.40081 0.461363
1359 1 0.140586 0.411226 0.462272
1209 1 0.0950569 0.434302 0.454731
1352 1 0.118098 0.420869 0.458679
1561 1 0.107352 0.420197 0.455067
1149 1 0.108824 0.435999 0.45808
1282 1 0.12177 0.434753 0.461878
1225 1 0.13202 0.426447 0.464182
1484 1 0.0981688 0.44855 0.457848
1135 1 0.084308 0.456365 0.457195
1410 1 0.112997 0.448634 0.462521
4541 1 0.030963 0.476513 0.45492
1203 1 0.057678 0.474173 0.45553
1133 1 0.0449105 0.479676 0.454836
1270 1 0.0696306 0.465723 0.456187
1489 1 0.0804097 0.47349 0.46001
1494 1 0.0905784 0.46543 0.461739
1274 1 0.100908 0.460561 0.463578
4399 1 0.00860541 0.49353 0.458277
1266 1 0.0215558 0.492485 0.458443
1210 1 0.0358016 0.489218 0.45672
1343 1 0.0467181 0.498751 0.463427
1408 1 0.0523143 0.488603 0.460049
1281 1 0.0599714 0.493864 0.464982
1418 1 0.0678649 0.482368 0.459696
1340 1 0.0725408 0.489489 0.463987
643 1 0.000605426 0.0950026 0.47324
641 1 0.0167995 0.091814 0.474593
78 1 0.0305289 0.0877068 0.476858
493 1 0.0302908 0.0992753 0.473784
144 1 0.0573762 0.0877654 0.475977
2938 1 0.0446666 0.0890643 0.475671
499 1 0.0715403 0.0868448 0.475858
570 1 0.0683948 0.0980476 0.471796
228 1 0.0835264 0.0929411 0.474453
564 1 0.00416526 0.117502 0.46677
638 1 0.0145018 0.105545 0.470978
281 1 0.000568587 0.106648 0.470036
573 1 0.0297309 0.109517 0.468915
360 1 0.0207743 0.119222 0.466089
359 1 0.043995 0.100503 0.472586
514 1 0.0561996 0.101127 0.47287
506 1 0.0571372 0.113349 0.469038
635 1 0.0412054 0.111905 0.47034
433 1 0.0696686 0.112102 0.47081
442 1 0.0824141 0.106088 0.472335
361 1 0.0952092 0.105958 0.476056
653 1 0.0983555 0.11704 0.473266
225 1 0.10947 0.107373 0.475466
571 1 0.0352743 0.123697 0.465973
436 1 0.0469806 0.121589 0.467496
654 1 0.0786473 0.134995 0.466105
368 1 0.0612544 0.124037 0.466528
294 1 0.0737525 0.121989 0.467233
302 1 0.0858831 0.120592 0.470137
437 1 0.0910886 0.131406 0.466701
292 1 0.11426 0.120876 0.473195
584 1 0.104811 0.129641 0.470043
716 1 0.119011 0.133946 0.470884
377 1 0.126785 0.122647 0.475393
509 1 0.137057 0.134294 0.473915
655 1 0.115777 0.144601 0.467306
285 1 0.122498 0.155826 0.466408
232 1 0.132616 0.142416 0.469335
430 1 0.139077 0.156518 0.467875
161 1 0.146241 0.147754 0.471821
248 1 0.155808 0.157823 0.470415
510 1 0.155348 0.141421 0.475576
362 1 0.166483 0.152577 0.474399
301 1 0.193638 0.157419 0.475134
449 1 0.1591 0.173075 0.466637
596 1 0.149834 0.165896 0.465966
385 1 0.167173 0.164616 0.470383
234 1 0.178402 0.173754 0.46879
380 1 0.16788 0.179498 0.468768
252 1 0.18123 0.163426 0.473757
371 1 0.194808 0.171345 0.47212
820 1 0.207545 0.164735 0.477266
452 1 0.209448 0.179057 0.473547
451 1 0.22114 0.175447 0.475407
304 1 0.177227 0.188751 0.467173
384 1 0.187208 0.18442 0.469964
807 1 0.189481 0.196147 0.467796
454 1 0.216791 0.188137 0.473605
527 1 0.20081 0.186905 0.470438
812 1 0.206518 0.19774 0.470034
603 1 0.229889 0.184378 0.475668
745 1 0.193813 0.209356 0.466136
888 1 0.209489 0.213389 0.468878
525 1 0.216859 0.203804 0.472637
668 1 0.228969 0.201602 0.474293
1105 1 0.220628 0.215406 0.47135
889 1 0.23394 0.215367 0.473178
1157 1 0.243675 0.204073 0.477058
879 1 0.21695 0.227003 0.468672
876 1 0.229938 0.229461 0.473087
1304 1 0.244263 0.221665 0.475347
881 1 0.243991 0.236828 0.477048
805 1 0.210137 0.241017 0.467165
1025 1 0.217039 0.254933 0.470293
886 1 0.222223 0.242441 0.471119
804 1 0.228689 0.256199 0.473796
742 1 0.234971 0.243654 0.474847
661 1 0.208118 0.265833 0.467498
875 1 0.211539 0.27942 0.468005
1160 1 0.220516 0.269477 0.470966
1096 1 0.231779 0.269285 0.476179
665 1 0.204499 0.294832 0.467196
587 1 0.215265 0.291069 0.47081
952 1 0.225924 0.28183 0.472614
948 1 0.228048 0.29785 0.475767
1088 1 0.201849 0.310146 0.468313
1027 1 0.214864 0.307123 0.471637
1019 1 0.224766 0.312778 0.476193
1151 1 0.193957 0.323808 0.469515
1159 1 0.183317 0.332185 0.467411
731 1 0.193949 0.333498 0.47314
1020 1 0.209547 0.320212 0.473183
1018 1 0.204093 0.333661 0.474776
880 1 0.220386 0.325603 0.477213
1358 1 0.177028 0.357478 0.46876
1292 1 0.180272 0.344834 0.469882
1287 1 0.191029 0.346317 0.473035
1364 1 0.186982 0.357945 0.473842
1293 1 0.172204 0.36845 0.467858
1224 1 0.174007 0.379591 0.472772
1290 1 0.183471 0.36968 0.474422
1435 1 0.167345 0.384558 0.468012
1575 1 0.162902 0.398167 0.466063
1355 1 0.172978 0.397765 0.47171
1366 1 0.184734 0.388108 0.475147
1216 1 0.154901 0.41103 0.467025
1291 1 0.166964 0.41185 0.473352
1346 1 0.13771 0.435585 0.468879
1426 1 0.14847 0.422275 0.466607
1079 1 0.150134 0.43544 0.473937
1218 1 0.160457 0.423328 0.473652
1350 1 0.128284 0.444387 0.467246
1428 1 0.137865 0.449084 0.475025
1351 1 0.132361 0.459969 0.471665
1425 1 0.0969692 0.477279 0.467621
1413 1 0.0843878 0.479905 0.466131
1138 1 0.116741 0.461225 0.466513
1419 1 0.109454 0.470939 0.467871
1153 1 0.121401 0.473282 0.471472
1564 1 0.131329 0.474264 0.476177
1131 1 0.0755507 0.499796 0.468284
1332 1 0.0886707 0.494032 0.46861
4338 1 0.101721 0.488106 0.470433
1280 1 0.114424 0.484271 0.472272
1412 1 0.101389 0.499921 0.474908
2750 1 0.100729 0.0569935 0.488383
77 1 0.119848 0.0589749 0.487342
3148 1 0.00169668 0.0618561 0.486325
365 1 0.0198197 0.0628166 0.48518
295 1 0.0125337 0.0733702 0.482779
427 1 0.0356426 0.062998 0.486696
497 1 0.0262837 0.0728629 0.481802
366 1 0.0491443 0.0634418 0.486945
291 1 0.0406067 0.0749515 0.481209
357 1 0.0528359 0.0759812 0.480333
157 1 0.0706248 0.0617752 0.48777
505 1 0.0677807 0.075639 0.480528
284 1 0.0607928 0.0655037 0.483837
26 1 0.0780141 0.0693928 0.483236
11 1 0.0925762 0.0629911 0.483356
3150 1 0.0860244 0.0789246 0.480242
293 1 0.100822 0.0741763 0.483353
367 1 0.110235 0.0650356 0.485625
569 1 0.117814 0.0752303 0.483473
155 1 0.12944 0.0702998 0.485527
95 1 0.137072 0.0625264 0.486893
158 1 0.145339 0.0713357 0.486572
246 1 0.158303 0.0667386 0.488042
92 1 0.166626 0.0757858 0.486476
235 1 0.182303 0.0718915 0.488063
282 1 0.00131365 0.0833422 0.47747
356 1 0.0138172 0.0830536 0.478428
287 1 0.0992272 0.0928456 0.478879
17 1 0.116529 0.0964728 0.479686
448 1 0.108905 0.0837834 0.481386
172 1 0.136266 0.0803719 0.484004
373 1 0.133911 0.0983633 0.481126
10 1 0.123989 0.0870438 0.482266
148 1 0.145368 0.0896802 0.48424
87 1 0.153554 0.0817188 0.484106
300 1 0.163496 0.0905218 0.483373
94 1 0.178698 0.0875804 0.484652
14 1 0.191539 0.0840157 0.485625
102 1 0.195761 0.0979717 0.485291
166 1 0.207434 0.0878834 0.48805
224 1 0.126573 0.110995 0.478611
82 1 0.155857 0.100549 0.481832
374 1 0.143773 0.105749 0.480872
2747 1 0.141418 0.11866 0.478747
223 1 0.155572 0.116068 0.48133
230 1 0.169067 0.103955 0.481815
434 1 0.173546 0.116691 0.48129
229 1 0.181907 0.101261 0.482571
370 1 0.189076 0.114352 0.48259
156 1 0.212362 0.101026 0.486633
233 1 0.200684 0.109812 0.485849
226 1 0.212718 0.117572 0.484515
180 1 0.223619 0.109685 0.487276
299 1 0.151486 0.130699 0.479351
443 1 0.168776 0.138991 0.478261
154 1 0.166167 0.127576 0.480957
89 1 0.183172 0.131566 0.48025
508 1 0.198086 0.125576 0.481727
240 1 0.213694 0.133264 0.482185
236 1 0.224012 0.124052 0.484696
744 1 0.234882 0.13411 0.486499
375 1 0.182444 0.146274 0.477966
376 1 0.198664 0.140002 0.479564
317 1 0.210078 0.150333 0.481564
389 1 0.225438 0.142069 0.482717
90 1 0.223796 0.158423 0.480372
521 1 0.238458 0.150878 0.483925
379 1 0.248095 0.142334 0.488566
601 1 0.251959 0.157346 0.484843
388 1 0.260883 0.148512 0.488575
667 1 0.239627 0.162692 0.480946
453 1 0.233368 0.172098 0.477961
1030 1 0.244874 0.178522 0.478501
670 1 0.25302 0.170265 0.482299
671 1 0.267067 0.160277 0.48681
815 1 0.264138 0.1719 0.484545
513 1 0.241686 0.192712 0.477648
747 1 0.254716 0.185941 0.48073
1093 1 0.256151 0.199201 0.481262
734 1 0.266959 0.191285 0.486076
750 1 0.254508 0.214919 0.47878
672 1 0.262721 0.21285 0.483899
1031 1 0.270863 0.206533 0.487001
950 1 0.256959 0.231566 0.481398
608 1 0.267397 0.223011 0.485509
756 1 0.271863 0.234902 0.487568
746 1 0.253131 0.249019 0.479537
1158 1 0.241745 0.259474 0.478252
960 1 0.26491 0.244391 0.484074
1026 1 0.267736 0.255425 0.487528
810 1 0.257758 0.260879 0.483747
1227 1 0.24483 0.273558 0.480383
534 1 0.253568 0.273689 0.485585
822 1 0.266811 0.270589 0.487925
953 1 0.235458 0.284372 0.478588
1167 1 0.247711 0.288126 0.482977
955 1 0.252649 0.298537 0.485766
1095 1 0.263249 0.287118 0.488031
663 1 0.239257 0.301046 0.480223
1299 1 0.233781 0.316319 0.481028
874 1 0.24795 0.311371 0.484768
1021 1 0.263402 0.309551 0.488596
1230 1 0.212801 0.337015 0.479258
949 1 0.229429 0.326757 0.481744
1226 1 0.243448 0.325862 0.486034
1447 1 0.255928 0.323429 0.487826
1305 1 0.202137 0.348194 0.477469
877 1 0.212468 0.348875 0.479807
1092 1 0.235549 0.341758 0.487578
954 1 0.223726 0.340639 0.483834
957 1 0.223539 0.354976 0.485432
1023 1 0.196729 0.361486 0.478233
1222 1 0.194706 0.374352 0.48007
1089 1 0.209064 0.362993 0.48169
1024 1 0.205538 0.378025 0.484159
1237 1 0.217813 0.36927 0.486991
1303 1 0.19902 0.392321 0.483055
1301 1 0.210884 0.390641 0.488478
1372 1 0.177642 0.403376 0.478046
1300 1 0.181532 0.413312 0.481604
1505 1 0.190174 0.401092 0.481484
1440 1 0.194842 0.410904 0.486503
1365 1 0.204922 0.403564 0.487725
1503 1 0.162066 0.436224 0.478299
1424 1 0.170771 0.422302 0.477389
1581 1 0.177035 0.43063 0.483818
1507 1 0.187411 0.424798 0.487585
1214 1 0.150086 0.449099 0.478436
1570 1 0.158594 0.456403 0.480767
1356 1 0.167007 0.448065 0.483434
1504 1 0.17089 0.457226 0.487515
1498 1 0.180393 0.443774 0.488561
1344 1 0.14479 0.464781 0.478617
1353 1 0.156589 0.469715 0.482565
1407 1 0.142389 0.47803 0.480756
1557 1 0.165466 0.468092 0.486182
1339 1 0.113274 0.49731 0.478066
1421 1 0.125373 0.487537 0.47758
1477 1 0.138103 0.493962 0.482761
1415 1 0.15318 0.480999 0.48528
1639 1 0.147356 0.494809 0.486167
1541 1 0.163493 0.482486 0.488531
3077 1 0.00588866 0.0164576 0.497253
150 1 0.0181872 0.0222061 0.496754
71 1 0.00793166 0.0303961 0.494347
216 1 0.0166154 0.039827 0.491235
561 1 0.0263051 0.0315703 0.493985
218 1 0.0375652 0.0280079 0.49596
2661 1 0.0497309 0.0348092 0.494612
298 1 0.0514383 0.0231688 0.499761
2735 1 0.0641454 0.0270789 0.498935
363 1 0.065533 0.0397325 0.495568
3080 1 0.0794595 0.0327343 0.499381
2752 1 0.0974993 0.0332107 0.4979
220 1 0.0872733 0.0393595 0.494864
219 1 0.108322 0.0379308 0.495929
8 1 0.122423 0.0331663 0.498501
491 1 0.00900318 0.0500956 0.488769
2933 1 0.0018814 0.0427238 0.491905
222 1 0.0380944 0.0410913 0.491006
227 1 0.0276252 0.0495864 0.488696
423 1 0.0404713 0.0528261 0.489753
2673 1 0.0527693 0.0477933 0.492246
428 1 0.0620779 0.0531691 0.489333
289 1 0.0766701 0.0472861 0.492194
429 1 0.0855776 0.0536891 0.488684
364 1 0.0980072 0.0455848 0.492231
74 1 0.116082 0.0499534 0.491173
2687 1 0.138258 0.0405472 0.497694
18 1 0.125089 0.0444117 0.495788
2749 1 0.134147 0.0531147 0.490717
231 1 0.156915 0.0438815 0.497334
447 1 0.147097 0.0477215 0.493374
93 1 0.151831 0.0557817 0.489806
173 1 0.171536 0.0405518 0.499661
86 1 0.164317 0.0528639 0.492862
100 1 0.177024 0.0511605 0.496402
245 1 0.18991 0.0486524 0.497737
107 1 0.205499 0.0516863 0.498474
297 1 0.169042 0.0615934 0.489923
239 1 0.198631 0.0618721 0.494042
37 1 0.185103 0.0612318 0.493793
2616 1 0.196173 0.0738879 0.489149
103 1 0.215464 0.0653422 0.495698
174 1 0.208074 0.0742357 0.490912
153 1 0.217395 0.0799 0.492445
167 1 0.227715 0.0746491 0.495041
308 1 0.237354 0.0697124 0.497795
105 1 0.245219 0.0798225 0.497255
168 1 0.22231 0.0941153 0.490905
164 1 0.235335 0.0856724 0.493872
307 1 0.247557 0.0971171 0.494326
249 1 0.25633 0.0899542 0.497696
321 1 0.270265 0.0911127 0.498769
390 1 0.282127 0.0975795 0.499615
303 1 0.233148 0.11719 0.488739
472 1 0.234332 0.102765 0.49045
515 1 0.249933 0.114728 0.49117
244 1 0.259636 0.105479 0.495357
320 1 0.261838 0.117545 0.494002
395 1 0.27041 0.103465 0.498591
238 1 0.274369 0.112778 0.495368
309 1 0.287335 0.108309 0.499344
312 1 0.285008 0.119018 0.496214
381 1 0.302388 0.116163 0.499067
457 1 0.247465 0.126523 0.489538
602 1 0.258848 0.13224 0.491148
441 1 0.271817 0.13927 0.491689
171 1 0.273683 0.127297 0.493148
543 1 0.296212 0.129205 0.496586
322 1 0.284774 0.136391 0.494062
530 1 0.30956 0.127605 0.499396
242 1 0.27481 0.149385 0.49287
666 1 0.2865 0.148943 0.494522
738 1 0.300236 0.142648 0.496635
533 1 0.312043 0.143893 0.499472
460 1 0.301668 0.158776 0.498985
606 1 0.27723 0.16331 0.49062
813 1 0.274782 0.179136 0.490613
386 1 0.288184 0.177728 0.494847
387 1 0.287469 0.164264 0.49563
743 1 0.301337 0.172523 0.498729
528 1 0.275895 0.192569 0.491438
532 1 0.289154 0.193094 0.495077
885 1 0.280312 0.205385 0.492596
1098 1 0.289719 0.205722 0.497027
610 1 0.300272 0.219146 0.499273
676 1 0.278007 0.22072 0.489177
758 1 0.283431 0.235178 0.492825
673 1 0.288747 0.220181 0.494719
623 1 0.296076 0.232062 0.499437
884 1 0.276211 0.246017 0.489966
690 1 0.290625 0.243459 0.497223
759 1 0.285119 0.253495 0.494196
824 1 0.298482 0.252583 0.499441
823 1 0.275512 0.261414 0.491096
599 1 0.283136 0.271034 0.493818
890 1 0.292283 0.264422 0.496213
1162 1 0.273142 0.280065 0.489022
1161 1 0.269535 0.297754 0.490367
1165 1 0.279039 0.29129 0.492784
620 1 0.290065 0.285028 0.496074
887 1 0.295704 0.29838 0.49737
882 1 0.275282 0.310119 0.491817
1169 1 0.285186 0.302323 0.494653
825 1 0.289085 0.315031 0.497339
962 1 0.302822 0.309986 0.498536
1228 1 0.245313 0.337458 0.490072
1232 1 0.258686 0.334748 0.492504
951 1 0.278964 0.320471 0.494981
1097 1 0.268594 0.325766 0.491988
1176 1 0.2728 0.33534 0.495599
1173 1 0.295167 0.326436 0.499134
1106 1 0.284767 0.332759 0.496996
1229 1 0.236121 0.354905 0.489218
1239 1 0.248521 0.34834 0.494559
1164 1 0.257859 0.358306 0.497331
1375 1 0.261134 0.346665 0.495994
1028 1 0.273399 0.350218 0.498386
1302 1 0.228894 0.365691 0.489183
1231 1 0.232538 0.377762 0.492818
1295 1 0.244727 0.364512 0.493741
1234 1 0.258809 0.373639 0.497905
1483 1 0.217767 0.39915 0.493278
1501 1 0.220156 0.382283 0.489377
1298 1 0.228154 0.390441 0.494886
1379 1 0.244786 0.382497 0.496386
1238 1 0.240228 0.395114 0.49866
1576 1 0.200329 0.419375 0.490406
1514 1 0.209885 0.412105 0.49195
1308 1 0.220178 0.410348 0.495691
1286 1 0.233032 0.404719 0.498364
1433 1 0.228859 0.419404 0.499709
1427 1 0.189697 0.436224 0.49081
1573 1 0.202721 0.432016 0.493509
1367 1 0.213085 0.426351 0.495479
1406 1 0.185098 0.453067 0.493133
1510 1 0.197661 0.446321 0.495526
1370 1 0.212327 0.442264 0.498307
1279 1 0.205111 0.459076 0.499256
1709 1 0.175581 0.475891 0.490697
1485 1 0.189452 0.474221 0.494571
1493 1 0.193842 0.462839 0.496413
1409 1 0.180323 0.46395 0.491246
1566 1 0.159659 0.494298 0.489355
1723 1 0.173801 0.49463 0.493044
1783 1 0.198885 0.487156 0.498913
1560 1 0.190622 0.497575 0.497527
1338 1 0.182732 0.485593 0.495095
213 1 0.0152731 0.00872206 0.500008
76 1 0.0328713 0.00458649 0.505121
5 1 0.0296127 0.0181159 0.501003
85 1 0.0436355 0.00106813 0.505681
151 1 0.0569309 0.0120102 0.503127
2664 1 0.0431082 0.0150997 0.503416
2663 1 0.0731516 0.00568194 0.506297
2741 1 0.0721146 0.0173875 0.501865
2468 1 0.0609282 0.0012193 0.506438
5452 1 0.0953153 0.00779669 0.507577
2522 1 0.0828782 0.0128764 0.504762
2742 1 0.100177 0.0164408 0.503198
215 1 0.110146 0.0124474 0.506943
2611 1 0.124632 0.00878847 0.509397
2746 1 0.138577 0.00516293 0.510528
169 1 0.127814 0.0177057 0.504195
2537 1 0.141244 0.0182406 0.506456
13 1 0.15798 0.0192595 0.504562
2688 1 0.154367 0.00685464 0.508373
2398 1 0.168482 0.0166549 0.507151
2759 1 0.164321 0.00367527 0.510506
243 1 0.180308 0.0105084 0.509274
25 1 0.197033 0.0153758 0.509651
369 1 0.209955 0.0183902 0.509765
2613 1 0.222255 0.0173692 0.508229
2330 1 0.234068 0.019817 0.509605
146 1 0.0872987 0.0220349 0.501406
2470 1 0.116794 0.0237506 0.501345
23 1 0.106407 0.0280468 0.501046
2692 1 0.133151 0.029828 0.50098
163 1 0.146828 0.0315407 0.501976
96 1 0.164051 0.0317598 0.503233
28 1 0.179605 0.0268058 0.503127
98 1 0.192261 0.0252943 0.505207
296 1 0.18764 0.0382968 0.500211
2624 1 0.200616 0.037287 0.502979
241 1 0.207249 0.0266819 0.505929
152 1 0.215154 0.0397058 0.502912
29 1 0.219623 0.0296132 0.507309
2469 1 0.233241 0.0330453 0.505599
2690 1 0.24651 0.0269865 0.509346
162 1 0.247349 0.0391824 0.50635
21 1 0.275679 0.039088 0.510785
30 1 0.230589 0.0446396 0.504415
160 1 0.237703 0.0513965 0.501933
97 1 0.220285 0.0501119 0.500484
35 1 0.254721 0.0534283 0.504373
237 1 0.264139 0.0473056 0.50749
531 1 0.276554 0.0534893 0.50817
175 1 0.288756 0.0589922 0.509299
2691 1 0.288188 0.0444049 0.511052
247 1 0.301599 0.0513118 0.510435
2765 1 0.316243 0.0582263 0.511156
319 1 0.228797 0.0611161 0.500177
176 1 0.246337 0.0630286 0.501937
311 1 0.255591 0.0772347 0.501701
314 1 0.279281 0.068416 0.506702
34 1 0.264322 0.0643196 0.504757
170 1 0.292381 0.0747901 0.507489
326 1 0.30487 0.0652883 0.509752
2764 1 0.318002 0.071028 0.510324
106 1 0.331749 0.0702482 0.51037
2760 1 0.269469 0.0807261 0.502556
99 1 0.282973 0.0840923 0.502739
306 1 0.295719 0.0898065 0.504166
462 1 0.308891 0.0816434 0.505956
382 1 0.312279 0.0960883 0.504519
393 1 0.32468 0.087061 0.508363
183 1 0.338526 0.0846043 0.510697
110 1 0.334958 0.0969919 0.510575
458 1 0.299112 0.100971 0.50125
461 1 0.310325 0.10857 0.500923
325 1 0.318449 0.118975 0.502092
687 1 0.323931 0.10097 0.504454
463 1 0.332728 0.111139 0.505961
397 1 0.344203 0.109051 0.509186
111 1 0.330533 0.125592 0.504347
324 1 0.322022 0.139637 0.501347
617 1 0.336128 0.137285 0.505737
318 1 0.340407 0.126592 0.508447
396 1 0.350914 0.131243 0.510986
467 1 0.313074 0.156281 0.501331
459 1 0.327609 0.151842 0.504112
404 1 0.343411 0.146186 0.507909
333 1 0.355079 0.143767 0.508789
600 1 0.313125 0.170507 0.501567
401 1 0.338682 0.162085 0.505786
391 1 0.337513 0.177415 0.50752
159 1 0.326864 0.169555 0.503883
250 1 0.35124 0.160772 0.508856
383 1 0.352659 0.175667 0.5097
605 1 0.313739 0.183421 0.502969
749 1 0.314782 0.196287 0.503957
740 1 0.301417 0.185823 0.500368
669 1 0.326159 0.183923 0.50563
529 1 0.328355 0.196722 0.505686
266 1 0.341558 0.189785 0.509876
470 1 0.355371 0.197727 0.511151
523 1 0.30527 0.202078 0.500576
536 1 0.312717 0.213363 0.502967
455 1 0.322067 0.209863 0.50574
741 1 0.334706 0.213507 0.508106
182 1 0.341071 0.20109 0.508774
398 1 0.311418 0.228253 0.50353
819 1 0.323267 0.23804 0.505627
607 1 0.336018 0.2299 0.509951
679 1 0.323871 0.223939 0.506197
609 1 0.346463 0.221752 0.510838
674 1 0.306916 0.240297 0.500553
678 1 0.313139 0.253229 0.503605
336 1 0.335802 0.242338 0.51066
685 1 0.330566 0.255654 0.506646
539 1 0.345045 0.253709 0.509485
751 1 0.356498 0.250104 0.511331
816 1 0.306687 0.26803 0.500321
682 1 0.322082 0.267529 0.502132
754 1 0.338234 0.266195 0.50656
559 1 0.353615 0.265152 0.508583
556 1 0.367653 0.261054 0.51072
681 1 0.317799 0.285151 0.501794
883 1 0.305144 0.293596 0.501429
892 1 0.300625 0.280497 0.500205
476 1 0.332421 0.281249 0.504637
748 1 0.326565 0.296465 0.503451
680 1 0.343498 0.294998 0.507269
625 1 0.345865 0.28002 0.506564
760 1 0.355642 0.293507 0.508343
821 1 0.361718 0.281581 0.508915
688 1 0.368833 0.291536 0.509928
675 1 0.313122 0.302484 0.500764
1174 1 0.317614 0.313833 0.502287
831 1 0.329935 0.308332 0.504468
753 1 0.341251 0.30783 0.506407
964 1 0.353793 0.305336 0.507273
684 1 0.342594 0.319697 0.505678
891 1 0.366277 0.307665 0.509216
3361 1 0.379775 0.304188 0.510229
963 1 0.318701 0.330785 0.504566
956 1 0.307153 0.32299 0.500827
959 1 0.300313 0.338613 0.501634
761 1 0.331513 0.32308 0.503488
697 1 0.329081 0.336398 0.506946
1175 1 0.341102 0.333013 0.508852
830 1 0.354207 0.332977 0.509345
765 1 0.354826 0.320291 0.508625
958 1 0.367641 0.321948 0.509207
811 1 0.299853 0.351102 0.502205
1244 1 0.28477 0.346681 0.501038
1101 1 0.311881 0.344186 0.504583
968 1 0.312846 0.357982 0.504713
827 1 0.326203 0.353781 0.508402
1310 1 0.342232 0.346768 0.508918
1166 1 0.274 0.365357 0.501343
1170 1 0.271508 0.378275 0.500614
1102 1 0.288381 0.36447 0.502601
961 1 0.285041 0.379275 0.503717
826 1 0.299862 0.366261 0.504449
1036 1 0.312056 0.373365 0.506774
828 1 0.324015 0.369938 0.508234
896 1 0.335337 0.363086 0.510807
967 1 0.348604 0.360882 0.511284
1515 1 0.256784 0.389039 0.501116
1094 1 0.273265 0.39196 0.504521
1296 1 0.290109 0.391194 0.50754
1172 1 0.298982 0.380866 0.506609
1309 1 0.300744 0.396963 0.511018
1307 1 0.314588 0.38763 0.510486
1163 1 0.242643 0.41267 0.502817
1445 1 0.25132 0.400628 0.501444
1587 1 0.256994 0.415588 0.504279
1236 1 0.266565 0.404588 0.504626
1374 1 0.275236 0.413572 0.509717
1313 1 0.28234 0.402842 0.508873
1657 1 0.224053 0.433945 0.501108
1509 1 0.238569 0.429619 0.504216
966 1 0.25179 0.429707 0.507464
1294 1 0.264893 0.422715 0.508789
1647 1 0.21489 0.458406 0.5022
1439 1 0.234534 0.446331 0.50584
1577 1 0.223529 0.449474 0.503034
1513 1 0.245667 0.443097 0.507382
1519 1 0.241685 0.45842 0.509389
1442 1 0.204085 0.470762 0.500267
1801 1 0.216349 0.470978 0.504826
1500 1 0.228261 0.462221 0.506712
1574 1 0.230268 0.472408 0.509536
1640 1 0.200852 0.496868 0.503599
1579 1 0.21341 0.49686 0.508997
1578 1 0.209866 0.485546 0.505522
1583 1 0.222888 0.486472 0.509604
16 1 0.109145 0.000237573 0.511912
2607 1 0.177135 0.00126185 0.513867
2467 1 0.194244 0.00291038 0.51317
2554 1 0.20878 0.0035818 0.513983
2754 1 0.221124 0.00883234 0.513064
27 1 0.236121 0.0104721 0.514042
2549 1 0.24502 0.00140032 0.517678
165 1 0.248627 0.0138437 0.514455
31 1 0.259759 0.00547343 0.518722
2632 1 0.272304 0.0115963 0.519111
2704 1 0.282366 0.000651596 0.519962
2702 1 0.282967 0.0180115 0.517206
2474 1 0.294885 0.0109809 0.518915
2689 1 0.306833 0.011384 0.519082
2770 1 0.317135 0.0174707 0.517652
2629 1 0.312373 0.000242218 0.521553
2334 1 0.323119 0.00579558 0.520244
2711 1 0.335431 0.0109011 0.52193
2558 1 0.348892 0.0155562 0.522312
19 1 0.258528 0.0334695 0.511464
2617 1 0.260994 0.0212272 0.515061
2758 1 0.276881 0.0275983 0.515094
2636 1 0.296841 0.0252897 0.516814
2755 1 0.289266 0.0308212 0.512513
104 1 0.301312 0.038315 0.512759
2614 1 0.308657 0.0276604 0.514647
41 1 0.319772 0.0319477 0.515826
2615 1 0.331441 0.0216663 0.519758
2773 1 0.331513 0.0345342 0.517228
255 1 0.345632 0.0300319 0.520062
2572 1 0.361563 0.036769 0.520285
2772 1 0.383223 0.0380352 0.52093
101 1 0.397092 0.0268673 0.522663
2693 1 0.315944 0.0436775 0.513519
179 1 0.328503 0.0468217 0.514819
2768 1 0.331811 0.0581731 0.513233
2775 1 0.353518 0.0456591 0.518161
33 1 0.340168 0.0435174 0.517749
315 1 0.344212 0.0556534 0.514312
2626 1 0.36263 0.0561964 0.516573
44 1 0.371029 0.0467346 0.517866
38 1 0.382066 0.0553298 0.518725
323 1 0.394678 0.0566085 0.520532
198 1 0.405935 0.0527495 0.52264
411 1 0.417505 0.0559533 0.521983
542 1 0.343563 0.0695416 0.512356
2695 1 0.355716 0.0655112 0.514281
2766 1 0.371877 0.0664716 0.515744
254 1 0.36296 0.0785114 0.514057
258 1 0.387001 0.0689638 0.517241
40 1 0.393871 0.0791073 0.518204
178 1 0.403569 0.0683525 0.521055
113 1 0.351061 0.0832971 0.511849
39 1 0.350831 0.098015 0.511694
251 1 0.376681 0.0821688 0.515831
188 1 0.363265 0.0931561 0.513846
310 1 0.373868 0.0995481 0.517915
203 1 0.389424 0.0930599 0.517115
206 1 0.40201 0.0883854 0.520396
262 1 0.41462 0.0955315 0.522345
253 1 0.353586 0.116679 0.511492
185 1 0.361204 0.107149 0.51485
392 1 0.373838 0.115561 0.517769
343 1 0.386717 0.110363 0.521096
125 1 0.399066 0.104213 0.52096
342 1 0.401785 0.118627 0.521223
477 1 0.414908 0.109572 0.521204
473 1 0.364891 0.124438 0.514534
538 1 0.377276 0.131134 0.517162
399 1 0.363759 0.136451 0.51342
132 1 0.389098 0.123863 0.520114
407 1 0.40219 0.135094 0.520211
348 1 0.41684 0.125868 0.521481
541 1 0.365117 0.152855 0.512648
259 1 0.377818 0.14443 0.515046
200 1 0.391437 0.141207 0.519102
202 1 0.390357 0.154928 0.517916
334 1 0.40481 0.151958 0.520399
332 1 0.416575 0.15438 0.522547
340 1 0.411546 0.141094 0.518438
535 1 0.363951 0.170862 0.513007
400 1 0.379157 0.162778 0.515244
327 1 0.381231 0.174703 0.515036
331 1 0.392936 0.169257 0.519076
269 1 0.40449 0.164084 0.521578
465 1 0.406028 0.178858 0.52133
464 1 0.358595 0.185645 0.51265
116 1 0.369696 0.181863 0.513658
330 1 0.368553 0.197289 0.513877
540 1 0.380127 0.189968 0.517776
184 1 0.392284 0.185068 0.517585
261 1 0.404809 0.192076 0.519749
537 1 0.35004 0.209084 0.511472
256 1 0.362271 0.212642 0.512329
615 1 0.378541 0.207784 0.51746
264 1 0.392671 0.202631 0.51906
466 1 0.385307 0.219541 0.51733
482 1 0.400339 0.216525 0.520612
547 1 0.409889 0.205805 0.521241
621 1 0.420043 0.215247 0.52176
612 1 0.350494 0.237876 0.513244
619 1 0.357848 0.22479 0.513805
468 1 0.375085 0.223953 0.515705
471 1 0.365421 0.234978 0.514673
485 1 0.379445 0.236496 0.516972
275 1 0.393904 0.232427 0.519128
418 1 0.408412 0.223684 0.521031
267 1 0.415094 0.236193 0.519643
478 1 0.436287 0.238134 0.520603
553 1 0.425359 0.229208 0.52195
3432 1 0.372376 0.249205 0.512375
1099 1 0.389003 0.247139 0.516644
552 1 0.399137 0.255757 0.518397
272 1 0.402865 0.241472 0.519137
838 1 0.413445 0.256719 0.518373
488 1 0.422402 0.247029 0.519668
551 1 0.432177 0.255868 0.518311
696 1 0.448017 0.250808 0.520921
3155 1 0.456119 0.240027 0.521986
3434 1 0.462972 0.25463 0.520943
752 1 0.370715 0.273979 0.511451
555 1 0.382533 0.264105 0.513353
486 1 0.396766 0.266632 0.516674
344 1 0.388004 0.274394 0.514475
416 1 0.407439 0.271311 0.517676
3365 1 0.419828 0.268382 0.517538
686 1 0.434904 0.27137 0.516611
897 1 0.447265 0.265801 0.518392
699 1 0.460799 0.266289 0.521119
630 1 0.47332 0.270768 0.520609
3715 1 0.460259 0.278365 0.519047
3797 1 0.486547 0.273669 0.518772
683 1 0.379231 0.285439 0.512032
3295 1 0.389915 0.295826 0.513425
762 1 0.396505 0.283233 0.515929
972 1 0.415499 0.284682 0.516272
3363 1 0.407243 0.29806 0.516023
1045 1 0.431352 0.288539 0.516353
3364 1 0.446594 0.29547 0.516905
3294 1 0.44799 0.281754 0.518057
835 1 0.463893 0.291184 0.517092
408 1 0.47567 0.28269 0.519088
3719 1 0.484024 0.292799 0.518393
3716 1 0.492255 0.283573 0.519266
695 1 0.380231 0.316854 0.512551
677 1 0.395612 0.308961 0.513902
975 1 0.419212 0.300897 0.516512
624 1 0.408721 0.314759 0.515773
3296 1 0.422029 0.314739 0.514801
840 1 0.433507 0.305118 0.515421
3643 1 0.434221 0.319873 0.513357
3572 1 0.449429 0.310279 0.514618
3435 1 0.459409 0.303666 0.516046
3787 1 0.467593 0.317431 0.515695
839 1 0.473758 0.304584 0.516786
3782 1 0.480552 0.317977 0.515983
3784 1 0.489658 0.308099 0.517604
1050 1 0.491917 0.32 0.517243
1171 1 0.365719 0.338763 0.511717
484 1 0.380068 0.330904 0.512621
766 1 0.394402 0.32479 0.51562
693 1 0.392485 0.338353 0.514809
817 1 0.406045 0.332488 0.514708
899 1 0.420511 0.32672 0.513018
894 1 0.431494 0.335768 0.512602
3854 1 0.456949 0.3221 0.514643
763 1 0.444404 0.329104 0.513251
3298 1 0.46119 0.336907 0.514312
3431 1 0.472067 0.329277 0.514271
3922 1 0.485921 0.33186 0.516138
909 1 0.35375 0.346275 0.511371
1100 1 0.363638 0.353622 0.513044
895 1 0.376998 0.346054 0.513443
755 1 0.375062 0.358728 0.513032
1038 1 0.387677 0.358276 0.513858
757 1 0.406819 0.348994 0.512909
691 1 0.420493 0.34273 0.512589
622 1 0.436928 0.345811 0.512078
3503 1 0.42665 0.355879 0.513706
1104 1 0.43979 0.358524 0.512169
837 1 0.448905 0.341954 0.512976
829 1 0.451751 0.354196 0.51365
700 1 0.478016 0.345581 0.513643
971 1 0.464387 0.35093 0.513585
3921 1 0.499904 0.34019 0.515665
698 1 0.480355 0.358584 0.513061
692 1 0.490307 0.34793 0.513991
1248 1 0.337981 0.378186 0.513863
973 1 0.350539 0.375832 0.514361
1235 1 0.360868 0.365009 0.514944
969 1 0.371232 0.370164 0.51514
694 1 0.38342 0.37379 0.515789
902 1 0.395897 0.374271 0.515214
3712 1 0.41569 0.360687 0.513191
1048 1 0.40068 0.362997 0.51251
974 1 0.412627 0.376057 0.51539
904 1 0.425487 0.370498 0.514374
1116 1 0.439225 0.370886 0.513882
1046 1 0.453593 0.367438 0.512729
1043 1 0.467052 0.362542 0.513107
898 1 0.465899 0.375921 0.513768
832 1 0.482052 0.373391 0.513119
770 1 0.49616 0.364523 0.512222
3788 1 0.496377 0.377815 0.51203
1032 1 0.326167 0.381292 0.5116
1306 1 0.338514 0.391289 0.515991
1317 1 0.326353 0.398641 0.514872
1311 1 0.355522 0.3858 0.516881
1449 1 0.351041 0.398084 0.516626
1118 1 0.366801 0.38058 0.516672
1252 1 0.36476 0.393379 0.51819
1179 1 0.377181 0.385613 0.516777
1329 1 0.375396 0.399996 0.517517
900 1 0.3893 0.388497 0.517595
1117 1 0.404516 0.386535 0.516081
903 1 0.41475 0.393097 0.51734
1316 1 0.428038 0.384845 0.517663
965 1 0.42833 0.398202 0.517359
834 1 0.440861 0.384207 0.51625
833 1 0.440265 0.399076 0.516932
977 1 0.455265 0.382883 0.515057
906 1 0.454517 0.395176 0.514119
976 1 0.468208 0.39822 0.514209
3714 1 0.47264 0.385292 0.515275
901 1 0.487702 0.387852 0.513581
1460 1 0.495642 0.398235 0.512594
1446 1 0.294874 0.407196 0.511941
1376 1 0.287507 0.418835 0.51274
1033 1 0.311984 0.401808 0.5135
1242 1 0.30539 0.413955 0.51583
1103 1 0.321525 0.413352 0.515961
1041 1 0.335079 0.407659 0.517008
1115 1 0.345485 0.41134 0.519922
1177 1 0.361471 0.406475 0.518076
1322 1 0.371454 0.415713 0.519788
1180 1 0.382417 0.414681 0.52163
1114 1 0.387693 0.406083 0.51863
1044 1 0.395566 0.418366 0.519513
1188 1 0.396477 0.400397 0.517448
1107 1 0.407593 0.405141 0.518214
1325 1 0.418561 0.408806 0.518549
1182 1 0.434404 0.413883 0.518488
905 1 0.450693 0.409319 0.516804
1187 1 0.464601 0.410444 0.516328
908 1 0.476283 0.41488 0.515328
3650 1 0.483241 0.402456 0.515601
1190 1 0.490915 0.41509 0.514087
1511 1 0.260716 0.439001 0.51145
1382 1 0.276367 0.428965 0.512831
1443 1 0.271665 0.439368 0.515804
1371 1 0.289569 0.434339 0.515797
1502 1 0.297791 0.42407 0.515805
893 1 0.316953 0.425464 0.519259
1168 1 0.307504 0.432825 0.520246
1438 1 0.330535 0.422046 0.520049
1233 1 0.327876 0.437526 0.522552
1312 1 0.343787 0.430673 0.520973
1250 1 0.354602 0.42093 0.521124
1251 1 0.397547 0.43699 0.520389
1109 1 0.406571 0.420782 0.516552
1035 1 0.412059 0.435282 0.518407
1389 1 0.422537 0.424019 0.517711
1396 1 0.428484 0.433178 0.520436
1260 1 0.459473 0.421865 0.519164
1185 1 0.444284 0.425163 0.520353
1324 1 0.459173 0.434182 0.51951
3713 1 0.472443 0.430153 0.517947
1189 1 0.486586 0.429003 0.515654
4134 1 0.497546 0.437257 0.516182
1441 1 0.253055 0.451376 0.512903
1387 1 0.265418 0.451563 0.516253
1369 1 0.277191 0.456854 0.518749
1378 1 0.282741 0.443463 0.518058
1377 1 0.292786 0.452549 0.52084
1380 1 0.301036 0.442474 0.519751
1249 1 0.316154 0.440652 0.521698
1528 1 0.40903 0.44852 0.521179
1458 1 0.418389 0.456694 0.522358
1258 1 0.4205 0.444352 0.519658
1318 1 0.434872 0.451685 0.521898
1112 1 0.44242 0.440999 0.520226
1319 1 0.453216 0.447442 0.52032
1463 1 0.466966 0.448513 0.517966
1390 1 0.476515 0.458076 0.519057
1245 1 0.481644 0.444167 0.517404
1540 1 0.493578 0.453431 0.518243
1432 1 0.241546 0.471882 0.513335
1110 1 0.254439 0.464321 0.515115
1602 1 0.265815 0.463952 0.519414
1386 1 0.288439 0.465217 0.522175
1255 1 0.463033 0.460613 0.521264
4347 1 0.476317 0.473091 0.520338
1529 1 0.46042 0.47447 0.521661
1679 1 0.490739 0.46856 0.520084
1368 1 0.229706 0.494619 0.512906
1726 1 0.237814 0.483469 0.513725
1508 1 0.252142 0.481115 0.517455
1590 1 0.245692 0.491423 0.51822
1589 1 0.25887 0.493434 0.521685
4281 1 0.499501 0.493167 0.522509
1464 1 0.489596 0.480361 0.521916
2645 1 0.349118 0.00041771 0.523843
187 1 0.362396 0.00896589 0.525981
119 1 0.381665 0.00945506 0.5262
2696 1 0.396837 0.0153912 0.526351
109 1 0.40067 0.000721412 0.526884
36 1 0.409533 0.0158155 0.526574
181 1 0.418575 0.00273885 0.527423
2780 1 0.433826 0.00818116 0.52864
2726 1 0.424892 0.0169744 0.527616
2788 1 0.446174 0.0153167 0.528598
54 1 0.453813 0.00473463 0.529028
271 1 0.464126 0.0139992 0.527633
204 1 0.479846 0.00414577 0.528752
135 1 0.494722 0.0133052 0.530539
2700 1 0.359417 0.0227807 0.523665
114 1 0.372447 0.0255874 0.524289
2785 1 0.385743 0.0240802 0.524442
2697 1 0.409379 0.0294884 0.525306
2713 1 0.437097 0.0242493 0.52799
120 1 0.430694 0.0346597 0.525563
177 1 0.421161 0.0279966 0.527016
45 1 0.455681 0.0249947 0.528421
268 1 0.446124 0.0332998 0.526858
2648 1 0.457697 0.0397768 0.52801
136 1 0.470204 0.0320265 0.529087
66 1 0.4898 0.0303339 0.528628
2947 1 0.480568 0.0216546 0.529605
189 1 0.393121 0.0439595 0.523525
2630 1 0.406021 0.0412723 0.522853
42 1 0.419636 0.0428654 0.5237
257 1 0.430106 0.0516864 0.523509
205 1 0.440345 0.0445531 0.526596
199 1 0.455689 0.0531879 0.526876
2944 1 0.445218 0.0598923 0.526476
409 1 0.467998 0.0480348 0.529891
56 1 0.481892 0.0400936 0.529636
2783 1 0.480378 0.0514949 0.52838
68 1 0.493011 0.0528691 0.529261
186 1 0.420234 0.0684918 0.523738
196 1 0.43198 0.0641556 0.525908
49 1 0.440585 0.0785499 0.526497
115 1 0.452447 0.0703426 0.528216
130 1 0.463807 0.0600066 0.528745
192 1 0.468839 0.0722715 0.528732
123 1 0.48051 0.0657923 0.528934
3015 1 0.496262 0.065227 0.529542
2801 1 0.488025 0.0798066 0.528742
121 1 0.413485 0.0820235 0.523503
48 1 0.426087 0.0814339 0.523878
265 1 0.432271 0.0981576 0.524407
339 1 0.45703 0.0850513 0.528439
329 1 0.443599 0.0906327 0.527984
124 1 0.460318 0.0988871 0.530113
47 1 0.472587 0.086109 0.529111
277 1 0.488325 0.0934723 0.528533
347 1 0.426853 0.112121 0.52407
63 1 0.439523 0.107841 0.52512
273 1 0.450279 0.103043 0.52735
138 1 0.455356 0.11546 0.527207
194 1 0.443786 0.11873 0.526078
3151 1 0.47514 0.100721 0.528536
2796 1 0.467089 0.113658 0.528929
3086 1 0.497486 0.104744 0.529161
3011 1 0.483631 0.108285 0.530495
129 1 0.492748 0.117756 0.530845
481 1 0.432924 0.124585 0.523844
201 1 0.42835 0.138587 0.523202
406 1 0.442899 0.13376 0.526067
417 1 0.456212 0.129028 0.527852
415 1 0.466902 0.128866 0.529443
208 1 0.480472 0.121678 0.530909
611 1 0.496391 0.129059 0.529759
479 1 0.4831 0.134075 0.53104
335 1 0.428616 0.151066 0.524238
191 1 0.44031 0.149038 0.525861
270 1 0.455063 0.142891 0.528559
276 1 0.454357 0.157444 0.525601
616 1 0.469589 0.144434 0.528879
207 1 0.467462 0.158191 0.527251
3293 1 0.482793 0.15155 0.529223
546 1 0.495856 0.144613 0.53017
3223 1 0.495572 0.159887 0.528762
338 1 0.418126 0.168245 0.522747
474 1 0.430746 0.165134 0.523735
274 1 0.436256 0.178558 0.524079
618 1 0.441705 0.162868 0.524017
346 1 0.449198 0.175968 0.526264
689 1 0.464318 0.171561 0.527982
475 1 0.482147 0.168634 0.52853
3583 1 0.492012 0.178561 0.52865
613 1 0.419153 0.182808 0.523099
544 1 0.420307 0.197 0.523204
405 1 0.432721 0.191243 0.524642
545 1 0.448668 0.191752 0.525696
3082 1 0.463648 0.186232 0.52765
3300 1 0.476732 0.18253 0.528453
3225 1 0.473941 0.198509 0.527408
341 1 0.488295 0.191775 0.52669
614 1 0.43049 0.206879 0.522815
818 1 0.443055 0.203979 0.525195
279 1 0.452579 0.212352 0.52473
337 1 0.459754 0.200738 0.524924
557 1 0.467811 0.213736 0.525918
3152 1 0.497866 0.21797 0.526641
412 1 0.486203 0.205123 0.526267
560 1 0.480731 0.218106 0.525226
328 1 0.436399 0.220085 0.523803
402 1 0.444683 0.229286 0.522986
550 1 0.456868 0.228211 0.523481
349 1 0.471113 0.230217 0.525768
3224 1 0.488578 0.230017 0.526461
626 1 0.477403 0.256572 0.523123
480 1 0.465832 0.243499 0.525312
767 1 0.479105 0.241627 0.524076
629 1 0.491502 0.247349 0.524523
3436 1 0.493789 0.263269 0.522824
1669 1 0.356755 0.437848 0.523713
1459 1 0.368466 0.428769 0.523819
1178 1 0.382189 0.431266 0.523974
1113 1 0.309596 0.454759 0.523243
1037 1 0.325503 0.453892 0.523995
1247 1 0.340925 0.445576 0.523697
970 1 0.348962 0.455344 0.525829
1532 1 0.369244 0.443344 0.523468
1516 1 0.360825 0.4523 0.526506
1047 1 0.374572 0.45807 0.52697
1393 1 0.384378 0.445136 0.524537
1527 1 0.397475 0.449259 0.523167
1040 1 0.275791 0.472048 0.522756
1314 1 0.293072 0.479226 0.524585
1520 1 0.319689 0.466147 0.527784
1243 1 0.30186 0.465248 0.524524
1448 1 0.309157 0.478099 0.528009
1593 1 0.336242 0.462285 0.526881
1240 1 0.330681 0.476322 0.530975
1813 1 0.35149 0.466007 0.529357
1241 1 0.344022 0.474838 0.530331
1599 1 0.356932 0.478047 0.532806
1111 1 0.364548 0.466917 0.530102
1181 1 0.39183 0.461115 0.527795
1736 1 0.383637 0.469737 0.530767
1246 1 0.396389 0.473497 0.529136
1034 1 0.405404 0.462795 0.52579
1453 1 0.407998 0.478346 0.530538
1315 1 0.420243 0.471925 0.527362
1397 1 0.43067 0.465178 0.523605
1461 1 0.432484 0.477895 0.527494
1534 1 0.446057 0.463641 0.522899
1523 1 0.442946 0.478428 0.52489
1729 1 0.265649 0.48096 0.522879
1517 1 0.272843 0.494699 0.524388
1662 1 0.282258 0.484625 0.525451
1730 1 0.289052 0.496099 0.527985
1039 1 0.300852 0.491617 0.529707
1585 1 0.312396 0.495603 0.531208
1518 1 0.319826 0.485001 0.531092
1381 1 0.335163 0.489899 0.532729
1373 1 0.345822 0.486496 0.532601
1533 1 0.373649 0.481445 0.531471
1531 1 0.389551 0.499658 0.533889
1383 1 0.389793 0.48416 0.531866
1595 1 0.399539 0.489725 0.530649
1452 1 0.407898 0.496401 0.532442
1108 1 0.419535 0.486287 0.531154
1535 1 0.430745 0.491023 0.529215
1321 1 0.443447 0.490114 0.528253
1466 1 0.455551 0.486856 0.525656
1673 1 0.472475 0.484401 0.52366
1680 1 0.464885 0.498637 0.528161
4483 1 0.481494 0.494767 0.524715
1798 1 0.353795 0.494673 0.534727
1663 1 0.378068 0.491426 0.534117
1608 1 0.363526 0.488075 0.534198
4190 1 0.00553757 0.507981 0.464117
1622 1 0.0182868 0.504839 0.46172
1276 1 0.0316057 0.500546 0.461666
4328 1 0.00949256 0.515589 0.469389
4267 1 0.0226555 0.513881 0.466449
4404 1 0.0373835 0.511893 0.467534
1839 1 0.0497937 0.508135 0.467737
4333 1 0.0527847 0.51784 0.472109
1268 1 0.0755392 0.509967 0.472874
1402 1 0.0608628 0.504038 0.468612
4268 1 0.064045 0.51442 0.471594
1543 1 0.0801088 0.518944 0.477233
1277 1 0.0875098 0.504901 0.47368
4336 1 0.0172317 0.52664 0.473721
4269 1 0.00315201 0.527773 0.474409
4400 1 0.00986036 0.536504 0.476068
4200 1 0.027829 0.52289 0.471127
4331 1 0.0393799 0.532446 0.477172
1198 1 0.0268988 0.532959 0.476145
1617 1 0.0410333 0.524574 0.471368
1336 1 0.0546754 0.529321 0.476186
1473 1 0.0665786 0.525292 0.477085
4335 1 0.0934249 0.513624 0.47932
1472 1 0.106803 0.509322 0.481196
1487 1 0.116563 0.509784 0.484807
1430 1 0.133358 0.507855 0.486635
1337 1 0.124187 0.500047 0.482074
1347 1 0.0792933 0.528457 0.481165
1475 1 0.0698047 0.535375 0.482352
4258 1 0.092181 0.527491 0.483102
1348 1 0.0928815 0.536299 0.488549
1334 1 0.0813128 0.539235 0.485743
1788 1 0.110583 0.522205 0.487426
4199 1 0.102916 0.521986 0.482485
1405 1 0.105814 0.532364 0.488589
1766 1 0.0187267 0.542005 0.479885
4539 1 0.0114213 0.552171 0.482529
4402 1 0.000217675 0.545105 0.4788
4183 1 0.00203146 0.559632 0.482892
4470 1 0.0300276 0.545218 0.481817
1691 1 0.0246327 0.555471 0.485873
1696 1 0.0386094 0.557036 0.487244
1697 1 0.0596283 0.540628 0.481319
4472 1 0.045233 0.544056 0.482606
1842 1 0.0535612 0.55439 0.486222
1687 1 0.0698736 0.547859 0.484611
1549 1 0.0127267 0.563477 0.488288
4543 1 0.00042931 0.569865 0.486372
1547 1 0.136673 0.518057 0.49243
1562 1 0.147342 0.505626 0.490666
1341 1 0.148939 0.517284 0.494822
1555 1 0.168984 0.516891 0.498697
1420 1 0.164437 0.50525 0.49509
1563 1 0.180024 0.506361 0.496913
1207 1 0.110009 0.539872 0.492354
1710 1 0.124986 0.521213 0.48867
1711 1 0.120819 0.532622 0.492239
1480 1 0.13329 0.532119 0.495572
1907 1 0.144983 0.530487 0.498047
1490 1 0.158473 0.522851 0.499091
1769 1 0.0681925 0.558655 0.48941
1701 1 0.0962445 0.546542 0.491554
1545 1 0.0809901 0.55307 0.489942
1414 1 0.0909013 0.555978 0.493882
1478 1 0.105871 0.553772 0.495405
1554 1 0.11906 0.556199 0.499329
1553 1 0.12224 0.54469 0.496702
1482 1 0.133606 0.541805 0.499342
4547 1 0.0198355 0.571768 0.489952
4467 1 0.00811772 0.577901 0.490446
1615 1 0.0314394 0.567725 0.490843
1476 1 0.0519812 0.566634 0.490465
1618 1 0.0422926 0.569758 0.494009
1481 1 0.0547336 0.576594 0.498257
1471 1 0.0652658 0.571979 0.495378
1546 1 0.0793504 0.564726 0.494098
1403 1 0.0908657 0.570195 0.498106
1474 1 0.103362 0.563435 0.499902
4690 1 0.0135365 0.588829 0.494089
1897 1 0.00335558 0.596065 0.491487
1693 1 0.0251808 0.582314 0.494798
1616 1 0.0364883 0.581019 0.497641
1558 1 0.0381302 0.593842 0.499761
4405 1 0.0246645 0.595864 0.497114
1551 1 0.049899 0.588005 0.499909
4410 1 0.0119491 0.605471 0.495841
1759 1 0.00218222 0.622238 0.496389
1828 1 0.0168677 0.621762 0.499875
1434 1 0.192134 0.511183 0.503261
1567 1 0.204046 0.510139 0.509045
1659 1 0.221073 0.505088 0.511338
1641 1 0.156794 0.53679 0.502141
1552 1 0.171357 0.531307 0.502472
1565 1 0.180271 0.522314 0.502509
1773 1 0.182074 0.535697 0.506366
1637 1 0.192078 0.524475 0.507732
1635 1 0.19834 0.535733 0.510793
1506 1 0.20419 0.524622 0.510293
1634 1 0.133034 0.554105 0.502517
1700 1 0.145768 0.545467 0.502027
1411 1 0.157028 0.550926 0.507286
1629 1 0.170607 0.544872 0.505067
1422 1 0.174005 0.551722 0.510603
1628 1 0.163459 0.559089 0.509787
1699 1 0.186269 0.547002 0.510924
1764 1 0.078449 0.579779 0.500003
1838 1 0.102799 0.576311 0.504032
1556 1 0.114173 0.566634 0.501885
1404 1 0.117519 0.577751 0.50571
1625 1 0.128604 0.567632 0.504878
1624 1 0.126305 0.579817 0.50995
1416 1 0.143504 0.560594 0.506429
1780 1 0.140451 0.573983 0.510739
1912 1 0.152372 0.568083 0.509649
1763 1 0.0578195 0.598846 0.503289
1685 1 0.0742774 0.595118 0.505231
1550 1 0.0643449 0.585849 0.500926
1621 1 0.0912444 0.582521 0.50316
4409 1 0.0867495 0.595908 0.508488
2043 1 0.1022 0.590612 0.510187
1401 1 0.0345884 0.607005 0.503386
1844 1 0.0370327 0.618569 0.505248
1827 1 0.0226751 0.611139 0.501194
1757 1 0.0513114 0.614649 0.506096
1754 1 0.0465589 0.60376 0.501244
1612 1 0.0702197 0.619283 0.510871
1542 1 0.0659576 0.608502 0.505355
1692 1 0.0814373 0.607896 0.508688
1767 1 0.0817412 0.619947 0.511339
1900 1 0.0116741 0.635587 0.50158
1765 1 0.0283973 0.626666 0.502563
1768 1 0.0352751 0.636914 0.506701
1966 1 0.0443532 0.626073 0.508393
1620 1 0.058661 0.625764 0.510871
1684 1 0.00555503 0.646983 0.501515
1611 1 0.0144522 0.651329 0.504945
1548 1 0.0218857 0.641491 0.504218
2179 1 0.0299274 0.653751 0.508083
2181 1 0.0443755 0.644099 0.510684
1902 1 0.00467336 0.663666 0.50416
1964 1 0.0174088 0.663948 0.507256
2111 1 0.0125611 0.674267 0.509463
1835 1 0.0284866 0.667494 0.510419
4684 1 0.00423681 0.689315 0.509496
5597 1 0.00826424 0.918718 0.51093
5524 1 0.00952157 0.938477 0.509679
5459 1 0.0188427 0.928757 0.509967
5458 1 0.0271522 0.93904 0.509769
214 1 0.0185853 0.948182 0.510727
5454 1 0.00623222 0.954649 0.507564
2866 1 0.0173131 0.965388 0.507821
5521 1 0.00120415 0.965105 0.504931
147 1 0.010745 0.977943 0.504353
495 1 0.0324701 0.97292 0.508264
2666 1 0.0218227 0.979432 0.505971
2736 1 0.0458943 0.977463 0.510168
145 1 0.0434651 0.962854 0.511156
79 1 0.0583039 0.964708 0.51069
5460 1 0.0618035 0.979631 0.510315
2 1 0.0720961 0.973145 0.511284
9 1 0.00938353 0.990822 0.503567
217 1 0.0363067 0.988396 0.506809
7 1 0.0220625 0.992343 0.505187
5388 1 0.0520508 0.991007 0.507988
2674 1 0.0679537 0.992666 0.509336
15 1 0.0809779 0.998866 0.508305
2756 1 0.0918955 0.996869 0.511164
2670 1 0.0814364 0.985642 0.510863
1569 1 0.225125 0.512687 0.51574
1580 1 0.237505 0.504978 0.516869
1660 1 0.251591 0.504078 0.522086
1650 1 0.242643 0.514604 0.520823
1627 1 0.217001 0.521702 0.514274
1559 1 0.211615 0.538119 0.516561
1653 1 0.221135 0.53041 0.518143
1727 1 0.231625 0.521335 0.518604
1596 1 0.227081 0.537977 0.522609
1698 1 0.180796 0.559812 0.515724
1799 1 0.199666 0.546043 0.514609
1703 1 0.194021 0.558687 0.518799
1496 1 0.208061 0.554601 0.519951
1770 1 0.216296 0.54551 0.521152
1859 1 0.15912 0.57873 0.514123
1714 1 0.168819 0.567277 0.514681
1857 1 0.185421 0.569613 0.519655
1781 1 0.114434 0.586758 0.512026
1708 1 0.120339 0.596788 0.514774
1851 1 0.133149 0.588771 0.515438
1837 1 0.146157 0.58391 0.516285
1777 1 0.146246 0.596558 0.519396
1568 1 0.161203 0.589899 0.520018
1707 1 0.175745 0.580427 0.520079
1831 1 0.0973804 0.605723 0.513324
1911 1 0.0942626 0.617469 0.51363
1342 1 0.11102 0.604353 0.515011
1843 1 0.117134 0.612824 0.517659
1771 1 0.105218 0.616705 0.518014
1825 1 0.127259 0.606634 0.517228
1702 1 0.136008 0.601356 0.518134
1840 1 0.133035 0.615458 0.521243
1776 1 0.144956 0.610248 0.522429
1695 1 0.0557415 0.636476 0.513704
1908 1 0.0718583 0.631083 0.515201
1981 1 0.0828402 0.62925 0.516355
1706 1 0.0937105 0.627669 0.517784
1631 1 0.0973855 0.636615 0.52139
1901 1 0.110913 0.628773 0.519926
1630 1 0.123322 0.622582 0.520067
1977 1 0.128112 0.63303 0.522128
1899 1 0.055086 0.650528 0.515876
1758 1 0.0687522 0.643344 0.516244
1898 1 0.0695226 0.654199 0.520333
1910 1 0.0827369 0.640593 0.518894
2045 1 0.0803896 0.652029 0.522348
1613 1 0.02291 0.678688 0.512517
1968 1 0.038554 0.672419 0.515842
4534 1 0.0450825 0.66022 0.512938
1972 1 0.0568694 0.665908 0.517321
1752 1 0.0495156 0.676649 0.518697
2104 1 0.0632405 0.677942 0.522689
4550 1 0.0175283 0.692267 0.512391
4683 1 0.0324795 0.685543 0.516495
4821 1 0.0315333 0.697365 0.516759
1614 1 0.0464674 0.688928 0.520292
4888 1 0.00759695 0.704469 0.511976
4818 1 0.00323591 0.718333 0.512268
4616 1 0.0155754 0.718948 0.514665
4685 1 0.0224527 0.704275 0.512764
4618 1 0.0318323 0.713393 0.518304
1823 1 0.042828 0.700374 0.519782
4830 1 0.0458715 0.711556 0.521297
4824 1 0.0121404 0.733162 0.515237
4401 1 0.0271848 0.730442 0.517721
4756 1 0.042566 0.723503 0.520589
4751 1 0.00337955 0.744488 0.513205
1821 1 0.0125191 0.750313 0.516908
4898 1 0.0233809 0.744379 0.517253
4688 1 0.0319427 0.751497 0.52056
1962 1 0.0402956 0.741152 0.521004
5318 1 0.0161194 0.77749 0.519715
4820 1 0.0108856 0.765597 0.517626
4895 1 0.000540622 0.760043 0.514079
2382 1 0.000360951 0.773185 0.514534
4965 1 0.0235028 0.761691 0.520018
4894 1 0.0321761 0.772057 0.521661
4546 1 0.0402802 0.760632 0.521272
5312 1 0.0453248 0.775995 0.521819
5038 1 0.00857688 0.786387 0.515719
2031 1 0.0195378 0.796307 0.518856
5379 1 0.0269569 0.783658 0.519725
4754 1 0.0394724 0.78762 0.521618
5313 1 0.00740484 0.801286 0.516673
5028 1 0.0179515 0.813203 0.518095
5177 1 0.0013143 0.816119 0.516823
2596 1 0.0303494 0.815125 0.520604
2460 1 0.0323071 0.801485 0.520583
2394 1 0.0160799 0.824455 0.519126
5172 1 0.00617744 0.830606 0.517691
2385 1 0.022187 0.836706 0.519733
5250 1 0.0328412 0.826979 0.51899
5169 1 0.0453113 0.830808 0.522431
5040 1 0.0573473 0.836835 0.522197
2452 1 0.0159149 0.84553 0.51648
5245 1 0.0128855 0.859826 0.514108
2525 1 0.00153441 0.84732 0.5137
5107 1 0.0367864 0.840691 0.520213
2453 1 0.0288289 0.849665 0.517141
2599 1 0.0392082 0.857993 0.518648
5247 1 0.0241023 0.858658 0.513755
2601 1 0.0477986 0.847614 0.520792
2304 1 0.491937 0.846205 0.521903
2650 1 0.492134 0.85906 0.520716
5389 1 0.0161396 0.874934 0.514413
2598 1 0.00376223 0.865145 0.512382
2523 1 0.0276927 0.869244 0.517105
2667 1 0.0397524 0.873819 0.517738
5519 1 0.0549536 0.876993 0.522138
5034 1 0.0497042 0.86357 0.520372
2588 1 0.479578 0.872299 0.522335
5328 1 0.496228 0.87587 0.520864
2863 1 0.00456181 0.884673 0.512975
5518 1 0.0127045 0.899946 0.511632
5309 1 0.0194801 0.889014 0.512958
20 1 0.0308094 0.885321 0.515962
5383 1 0.0390711 0.896799 0.514761
5386 1 0.0473807 0.886702 0.518577
5453 1 0.0553937 0.896266 0.519978
5457 1 0.0630876 0.888493 0.522185
2668 1 0.0884583 0.897203 0.522567
2505 1 0.494873 0.891572 0.52096
5588 1 0.0210009 0.915919 0.512212
2595 1 0.0273534 0.901922 0.51198
5594 1 0.0361377 0.913217 0.513939
2665 1 0.047461 0.905619 0.516714
2739 1 0.0720549 0.900543 0.522347
2600 1 0.0633713 0.90691 0.518343
2743 1 0.0725926 0.916799 0.518224
84 1 0.0830439 0.90795 0.522119
2744 1 0.0981163 0.908255 0.522555
2577 1 0.496784 0.909969 0.521539
2734 1 0.0315575 0.92698 0.512267
5529 1 0.0578672 0.920454 0.514931
2662 1 0.0422954 0.93448 0.51479
2592 1 0.0451426 0.92109 0.515217
5589 1 0.0568308 0.934628 0.51367
12 1 0.0713545 0.93008 0.516642
2604 1 0.0836976 0.925527 0.519632
221 1 0.0953558 0.922834 0.52101
2681 1 0.0861797 0.938166 0.517931
2740 1 0.0966337 0.936528 0.519974
2402 1 0.110077 0.935267 0.522063
2580 1 0.492747 0.937562 0.521987
211 1 0.0263189 0.959114 0.512236
2603 1 0.0379345 0.945872 0.51176
80 1 0.05084 0.949099 0.511692
2591 1 0.0718652 0.942901 0.51645
2675 1 0.0636537 0.94998 0.512891
290 1 0.0733762 0.959226 0.513536
2606 1 0.0851398 0.952928 0.517295
2535 1 0.100613 0.947809 0.518574
2745 1 0.114684 0.948038 0.519799
22 1 0.12631 0.956506 0.521304
2472 1 0.140409 0.958651 0.522651
286 1 0.0869743 0.970475 0.515015
2593 1 0.0968829 0.962714 0.516024
2672 1 0.0943918 0.979121 0.513118
2671 1 0.111277 0.960721 0.517459
24 1 0.105575 0.973321 0.515971
2676 1 0.122552 0.968775 0.519108
91 1 0.136484 0.971604 0.519063
2331 1 0.151221 0.966397 0.521228
2751 1 0.179338 0.976701 0.520886
2748 1 0.163159 0.979148 0.519598
2464 1 0.192542 0.976383 0.520746
2475 1 0.211477 0.969687 0.521718
2315 1 0.224495 0.979957 0.520351
2622 1 0.234507 0.972615 0.522154
149 1 0.102457 0.988906 0.513134
2678 1 0.113546 0.983423 0.515086
2605 1 0.121313 0.998608 0.513082
2610 1 0.13447 0.995894 0.514213
2686 1 0.12849 0.984636 0.516311
2387 1 0.146374 0.981728 0.51692
83 1 0.149403 0.995317 0.51369
313 1 0.161512 0.99031 0.514823
2682 1 0.17587 0.987788 0.517618
2536 1 0.187351 0.989035 0.5185
2463 1 0.200235 0.992293 0.517864
88 1 0.207934 0.981768 0.520867
32 1 0.214724 0.992423 0.516327
2684 1 0.23821 0.98856 0.520797
2680 1 0.227577 0.995455 0.516656
2340 1 0.25502 0.99019 0.520843
2547 1 0.267873 0.994212 0.5214
2480 1 0.284629 0.985916 0.522606
2486 1 0.297147 0.994742 0.521471
1649 1 0.255353 0.517251 0.526351
1437 1 0.264375 0.50506 0.525601
1728 1 0.271959 0.516196 0.52868
1586 1 0.27722 0.504575 0.527533
1797 1 0.286748 0.51334 0.529833
1600 1 0.296401 0.505929 0.532271
1451 1 0.311505 0.510967 0.534007
1384 1 0.325655 0.500911 0.533214
1678 1 0.422237 0.502634 0.532603
1469 1 0.436302 0.502082 0.532482
4271 1 0.45443 0.504686 0.531185
1467 1 0.465795 0.516309 0.53175
4343 1 0.477307 0.511286 0.52895
4275 1 0.490471 0.507017 0.525788
1868 1 0.235524 0.52897 0.523454
1592 1 0.246506 0.526456 0.524961
1633 1 0.252583 0.533711 0.529524
1632 1 0.243103 0.539747 0.527494
1719 1 0.263664 0.525278 0.530103
1444 1 0.270849 0.536944 0.532236
1869 1 0.279242 0.527022 0.532111
2016 1 0.291926 0.529473 0.534061
4132 1 0.47718 0.525019 0.531877
4285 1 0.498453 0.537959 0.527854
1470 1 0.489721 0.521458 0.528247
4284 1 0.488927 0.533896 0.531127
1588 1 0.222046 0.553641 0.525871
1665 1 0.232546 0.547558 0.527367
1655 1 0.236144 0.557437 0.532485
1572 1 0.246449 0.549974 0.532635
1512 1 0.259927 0.545966 0.532831
4014 1 0.491845 0.550049 0.531624
1643 1 0.192603 0.579219 0.524271
1644 1 0.201385 0.569585 0.523472
1636 1 0.211673 0.563786 0.525179
1855 1 0.212343 0.574516 0.53035
1648 1 0.222013 0.564707 0.528997
1676 1 0.494256 0.567429 0.530925
4425 1 0.484758 0.564158 0.533508
1789 1 0.172367 0.595132 0.525204
1782 1 0.185211 0.587148 0.523731
1725 1 0.195039 0.591419 0.529461
1626 1 0.203505 0.580475 0.527883
1645 1 0.206155 0.593066 0.532098
4341 1 0.493471 0.580596 0.531982
4491 1 0.495059 0.593651 0.533459
1905 1 0.158396 0.605999 0.524181
2042 1 0.152288 0.617432 0.527531
1772 1 0.169273 0.607208 0.531004
1909 1 0.164618 0.619205 0.53145
1854 1 0.182269 0.615122 0.534043
1712 1 0.184842 0.601194 0.528583
1760 1 0.139455 0.626063 0.524571
1623 1 0.149761 0.633761 0.527843
1833 1 0.164115 0.63481 0.531714
1830 1 0.0967095 0.648114 0.523824
1971 1 0.113354 0.640739 0.524248
2036 1 0.108658 0.653908 0.525944
4620 1 0.124387 0.6476 0.525776
2106 1 0.138525 0.656998 0.532725
1841 1 0.124004 0.657019 0.52945
1762 1 0.136093 0.641901 0.526861
2037 1 0.149995 0.645681 0.529968
1832 1 0.16229 0.647234 0.533928
2033 1 0.071487 0.666522 0.523381
2182 1 0.088414 0.662171 0.525183
2034 1 0.0802443 0.674064 0.528219
1686 1 0.0921432 0.676651 0.527183
4476 1 0.100587 0.664272 0.527372
1826 1 0.117427 0.66885 0.530193
2109 1 0.107418 0.678832 0.528893
2058 1 0.135487 0.670232 0.533425
1756 1 0.0568458 0.690354 0.523392
2035 1 0.0734317 0.683912 0.526162
1967 1 0.0678128 0.694594 0.525364
1829 1 0.0842537 0.690827 0.529121
2119 1 0.0990975 0.687949 0.529882
2050 1 0.113052 0.691184 0.533179
1778 1 0.124027 0.681998 0.532874
4912 1 0.494186 0.685867 0.531406
4687 1 0.0568549 0.705085 0.523085
4759 1 0.0571195 0.718343 0.524482
1755 1 0.0775798 0.70208 0.529991
1891 1 0.0688889 0.709724 0.526201
4967 1 0.0954047 0.700014 0.532433
4828 1 0.0817121 0.717662 0.530962
1973 1 0.0983004 0.715798 0.532518
1896 1 0.108658 0.702713 0.532575
1893 1 0.114842 0.719419 0.533856
2030 1 0.499066 0.700736 0.530398
4694 1 0.491609 0.71238 0.533329
2175 1 0.0534511 0.731934 0.524091
4689 1 0.0701167 0.723643 0.526246
4752 1 0.0682833 0.735912 0.52782
5039 1 0.0803085 0.732914 0.530741
1822 1 0.0912584 0.728003 0.532512
2309 1 0.497453 0.724901 0.531146
5043 1 0.49482 0.738486 0.530219
2098 1 0.485472 0.729182 0.532298
4822 1 0.0511482 0.746261 0.524302
1751 1 0.0630748 0.747527 0.525769
2103 1 0.0793784 0.747115 0.529406
4549 1 0.0917595 0.744758 0.532906
1892 1 0.0867943 0.758525 0.531993
5113 1 0.485033 0.753744 0.533608
2307 1 0.49494 0.751521 0.529741
2220 1 0.481626 0.74069 0.533696
5110 1 0.054254 0.760265 0.523256
1961 1 0.0704124 0.761046 0.527761
5178 1 0.0616499 0.77599 0.525849
4745 1 0.0790478 0.774102 0.530065
4968 1 0.0945259 0.769633 0.533005
2365 1 0.478715 0.778156 0.533576
4837 1 0.493769 0.769888 0.528981
4911 1 0.484574 0.765429 0.534009
5104 1 0.0547552 0.788804 0.523026
2521 1 0.066347 0.796828 0.52443
4969 1 0.0715412 0.782217 0.525551
5244 1 0.0807243 0.791434 0.528849
4826 1 0.0911428 0.783391 0.530704
5176 1 0.0983744 0.796023 0.531109
4970 1 0.115912 0.793982 0.533831
4975 1 0.47847 0.794984 0.533052
2380 1 0.491741 0.783692 0.53088
2450 1 0.492022 0.796941 0.529582
2461 1 0.0430559 0.81606 0.522825
2524 1 0.0446731 0.800128 0.523368
5180 1 0.058611 0.808115 0.523803
1970 1 0.0790163 0.80528 0.527078
2542 1 0.070209 0.814267 0.525804
2311 1 0.0905091 0.802246 0.528863
4893 1 0.0851629 0.815549 0.527606
5105 1 0.0991977 0.814184 0.530658
2178 1 0.107533 0.803746 0.531717
5030 1 0.114567 0.812684 0.533584
2370 1 0.466836 0.806803 0.533662
2437 1 0.471174 0.817825 0.531429
2359 1 0.48124 0.809216 0.529424
4973 1 0.495874 0.809067 0.525239
2451 1 0.0541494 0.821345 0.523143
2462 1 0.0663398 0.82467 0.525609
2528 1 0.0742681 0.838819 0.526105
2530 1 0.0836023 0.827383 0.52676
2173 1 0.0984155 0.827959 0.530464
2538 1 0.0917354 0.839967 0.527446
5249 1 0.108031 0.821273 0.531657
2249 1 0.104789 0.838327 0.528973
2172 1 0.119033 0.830142 0.53239
2587 1 0.461606 0.825205 0.532965
2585 1 0.476158 0.82537 0.527258
2586 1 0.462756 0.836844 0.52873
2583 1 0.488349 0.821035 0.52509
2512 1 0.485268 0.837013 0.522768
2171 1 0.061393 0.850074 0.524291
2534 1 0.0748653 0.858135 0.525076
2256 1 0.0834406 0.849885 0.528039
2669 1 0.0946824 0.85859 0.527653
5108 1 0.101787 0.850546 0.529161
2602 1 0.116861 0.847175 0.533049
2459 1 0.127097 0.856077 0.532667
5319 1 0.131819 0.840641 0.533914
2207 1 0.426792 0.848545 0.533463
2286 1 0.434197 0.858655 0.532026
2154 1 0.452491 0.842026 0.531032
2306 1 0.441239 0.847668 0.531744
2369 1 0.45018 0.85864 0.528051
2356 1 0.463333 0.851352 0.52581
2446 1 0.473687 0.84203 0.525197
2448 1 0.479338 0.852419 0.522844
5390 1 0.061345 0.863967 0.523587
2314 1 0.0708231 0.875051 0.523963
2731 1 0.0876001 0.871639 0.524976
2455 1 0.111326 0.86177 0.52806
2531 1 0.103386 0.873118 0.526626
2457 1 0.115875 0.87547 0.52705
2458 1 0.122381 0.866521 0.531144
2392 1 0.134491 0.873534 0.530571
5109 1 0.139505 0.860223 0.532931
2363 1 0.412187 0.870905 0.532843
2223 1 0.423616 0.866692 0.532374
2434 1 0.428282 0.877956 0.530141
2423 1 0.440254 0.868999 0.530049
2579 1 0.455767 0.873132 0.526973
2582 1 0.466848 0.863795 0.525598
2584 1 0.467409 0.879043 0.524601
81 1 0.0751505 0.889125 0.523266
2539 1 0.0984194 0.884363 0.525025
2608 1 0.0853585 0.884559 0.523707
2594 1 0.104578 0.895804 0.52368
2381 1 0.111628 0.888807 0.526501
2386 1 0.119334 0.898838 0.526613
2533 1 0.125474 0.88405 0.529113
2466 1 0.137346 0.889931 0.531386
2471 1 0.154114 0.89282 0.53265
2425 1 0.415112 0.885116 0.533468
2511 1 0.430305 0.892633 0.529539
2293 1 0.442162 0.88311 0.529808
2442 1 0.455033 0.886537 0.527859
2364 1 0.457659 0.899902 0.526047
5181 1 0.469378 0.897522 0.524173
2651 1 0.481326 0.884308 0.523854
5102 1 0.113235 0.90885 0.522993
2679 1 0.129003 0.904514 0.528148
2384 1 0.123386 0.91642 0.5249
2609 1 0.136657 0.9173 0.52721
2532 1 0.142575 0.901988 0.529264
2393 1 0.153529 0.911861 0.530111
2407 1 0.172372 0.91412 0.532699
2112 1 0.161024 0.903779 0.531981
2492 1 0.195498 0.910953 0.532878
2193 1 0.208704 0.913106 0.534039
2553 1 0.229171 0.919728 0.53238
2712 1 0.331338 0.918172 0.533712
2640 1 0.343381 0.918895 0.534034
2642 1 0.357884 0.918847 0.533708
2432 1 0.415046 0.901219 0.531903
2574 1 0.41465 0.918031 0.531813
2368 1 0.427273 0.905162 0.529355
2506 1 0.438718 0.914751 0.528616
2514 1 0.441874 0.901011 0.529455
2576 1 0.455806 0.913155 0.528226
2436 1 0.470281 0.912411 0.525607
2517 1 0.483939 0.91759 0.524538
2508 1 0.481555 0.901642 0.524298
2677 1 0.109091 0.923874 0.523375
2753 1 0.126016 0.929139 0.524575
2685 1 0.139257 0.934169 0.525897
2388 1 0.149563 0.922739 0.525995
2338 1 0.153777 0.938339 0.526196
2757 1 0.164986 0.92592 0.528695
2271 1 0.179116 0.934837 0.528912
2544 1 0.16736 0.938829 0.52663
2401 1 0.181599 0.922785 0.53176
2333 1 0.198706 0.92567 0.531003
2261 1 0.191191 0.936483 0.53052
2329 1 0.211066 0.923122 0.532027
2403 1 0.208489 0.938793 0.528024
2465 1 0.221841 0.928312 0.530834
2683 1 0.234796 0.934688 0.530126
2476 1 0.246488 0.929708 0.530651
2487 1 0.256976 0.937137 0.530435
2567 1 0.277415 0.93116 0.531502
2774 1 0.266371 0.926401 0.533126
53 1 0.287598 0.936227 0.531786
2485 1 0.283458 0.920671 0.533914
2496 1 0.294737 0.92415 0.532253
2714 1 0.304385 0.931295 0.531768
2767 1 0.316578 0.922851 0.533505
2761 1 0.329565 0.93352 0.53125
2637 1 0.343436 0.931258 0.532224
2427 1 0.356583 0.933063 0.532802
2644 1 0.368799 0.934229 0.532018
2728 1 0.382797 0.929444 0.533019
2716 1 0.395093 0.934479 0.531438
2354 1 0.403993 0.925027 0.533463
2509 1 0.4266 0.92022 0.529247
2443 1 0.420288 0.933695 0.529234
2568 1 0.433301 0.930935 0.529534
58 1 0.446115 0.925712 0.528487
2573 1 0.451497 0.939372 0.527603
2657 1 0.478389 0.92957 0.523893
2646 1 0.462606 0.926002 0.527067
2727 1 0.463772 0.939343 0.52637
5182 1 0.494398 0.92223 0.5229
2526 1 0.123772 0.941738 0.523554
2322 1 0.138522 0.945177 0.524611
2545 1 0.15359 0.952464 0.52393
2400 1 0.169028 0.951548 0.524478
2198 1 0.19638 0.950709 0.526264
2395 1 0.184274 0.947032 0.526553
2266 1 0.212254 0.955114 0.524645
2550 1 0.221674 0.944541 0.526633
2123 1 0.231313 0.954819 0.525714
2631 1 0.243911 0.94635 0.528682
2776 1 0.257455 0.952842 0.527436
2555 1 0.271228 0.94317 0.529619
2404 1 0.271663 0.957916 0.526855
2483 1 0.284737 0.950774 0.528816
2706 1 0.300554 0.947079 0.530093
2698 1 0.316905 0.943258 0.528858
2561 1 0.307575 0.957008 0.527803
2500 1 0.333888 0.945706 0.528832
2781 1 0.323102 0.95505 0.528251
2782 1 0.33822 0.959032 0.528104
2778 1 0.347307 0.943618 0.531916
2771 1 0.35054 0.957289 0.52992
2439 1 0.361406 0.946753 0.531617
2638 1 0.369649 0.954908 0.529702
2504 1 0.379506 0.94272 0.530163
2502 1 0.395423 0.949557 0.528829
2358 1 0.382668 0.958479 0.527398
2489 1 0.409164 0.942841 0.529613
118 1 0.4118 0.956039 0.526667
2571 1 0.438611 0.943649 0.526445
2643 1 0.424357 0.948255 0.528281
52 1 0.449027 0.953974 0.527015
2654 1 0.475715 0.942233 0.524955
2722 1 0.461507 0.952004 0.525369
2799 1 0.474637 0.956951 0.524258
2790 1 0.487552 0.948582 0.524823
2543 1 0.167703 0.963545 0.523906
2328 1 0.183391 0.961965 0.523364
2321 1 0.197297 0.965893 0.52303
2612 1 0.222721 0.965891 0.522792
2541 1 0.248897 0.97873 0.52292
2415 1 0.247318 0.962941 0.525462
2405 1 0.260536 0.969185 0.524595
2562 1 0.279021 0.969752 0.523902
2551 1 0.295658 0.961724 0.527075
2623 1 0.291979 0.976366 0.523737
2618 1 0.303605 0.973702 0.52429
46 1 0.316371 0.972187 0.526331
2762 1 0.327256 0.965676 0.526807
2694 1 0.345112 0.969122 0.526826
2503 1 0.357477 0.977443 0.526738
2708 1 0.361946 0.965511 0.52824
190 1 0.375983 0.970276 0.527527
2699 1 0.392863 0.971701 0.528079
122 1 0.400222 0.960842 0.529706
260 1 0.407441 0.972287 0.527386
2647 1 0.437868 0.96006 0.52519
2575 1 0.420832 0.964289 0.526274
108 1 0.421083 0.977496 0.527731
195 1 0.435926 0.975965 0.528018
51 1 0.449637 0.969026 0.527415
2791 1 0.463057 0.967306 0.525733
2723 1 0.478576 0.97462 0.525778
126 1 0.489097 0.965634 0.526229
2556 1 0.268217 0.980887 0.522937
2701 1 0.305401 0.986082 0.525068
2763 1 0.319974 0.989833 0.524225
2619 1 0.335995 0.998266 0.523293
2720 1 0.331051 0.980322 0.525202
2499 1 0.34622 0.984985 0.523567
112 1 0.360914 0.995768 0.5265
50 1 0.3704 0.983056 0.527463
2628 1 0.374315 0.995413 0.527535
2769 1 0.38913 0.994183 0.526944
2715 1 0.382167 0.983091 0.527254
43 1 0.398254 0.984793 0.526756
2719 1 0.411008 0.986936 0.527136
134 1 0.429777 0.991297 0.526963
2784 1 0.445845 0.984284 0.527968
2787 1 0.441163 0.997424 0.528067
263 1 0.457755 0.992822 0.527601
131 1 0.470258 0.996884 0.528693
2795 1 0.461303 0.980216 0.527038
61 1 0.470115 0.984584 0.525762
3013 1 0.491527 0.998081 0.530335
128 1 0.481797 0.990281 0.527666
2946 1 0.490175 0.980194 0.527731
1454 1 0.30079 0.519726 0.534238
1661 1 0.326698 0.516139 0.535502
1450 1 0.338385 0.504508 0.535277
1668 1 0.350822 0.511797 0.536517
1742 1 0.365993 0.51553 0.539296
1597 1 0.377817 0.519261 0.537803
1802 1 0.366504 0.50221 0.536346
1395 1 0.381286 0.50784 0.536833
1388 1 0.39341 0.517643 0.537956
1525 1 0.400892 0.505837 0.535107
1591 1 0.412124 0.513268 0.535906
4350 1 0.428661 0.515276 0.534928
4481 1 0.443779 0.513965 0.535197
1745 1 0.312648 0.526068 0.536283
2014 1 0.302354 0.538171 0.53663
1522 1 0.325611 0.532677 0.538976
1738 1 0.340531 0.521468 0.538769
1530 1 0.340291 0.537335 0.541303
1741 1 0.357797 0.539969 0.542555
1604 1 0.352645 0.525766 0.539113
1671 1 0.36789 0.533451 0.539836
1392 1 0.379968 0.529424 0.541232
1819 1 0.394411 0.531164 0.540432
1677 1 0.406726 0.524418 0.537029
4418 1 0.409427 0.537156 0.53914
1670 1 0.421766 0.525655 0.537974
1606 1 0.434982 0.526217 0.536732
4488 1 0.425057 0.53709 0.540513
1539 1 0.454288 0.521851 0.535273
4353 1 0.446656 0.530902 0.538941
4352 1 0.464391 0.531882 0.53533
4422 1 0.477081 0.53879 0.535335
1731 1 0.258424 0.557028 0.536444
1652 1 0.271851 0.552786 0.536481
1582 1 0.286459 0.542972 0.534833
1724 1 0.285867 0.555873 0.537743
1939 1 0.298355 0.551142 0.539236
1521 1 0.314644 0.544228 0.539907
1807 1 0.315207 0.554788 0.543859
1733 1 0.304478 0.558407 0.542856
1739 1 0.330487 0.547456 0.543982
1810 1 0.343196 0.551134 0.544824
1875 1 0.372528 0.544427 0.5425
1811 1 0.385794 0.541227 0.542846
1601 1 0.39776 0.547855 0.541769
1945 1 0.385696 0.556411 0.543566
1524 1 0.412418 0.552004 0.540977
4485 1 0.42836 0.552171 0.541599
1607 1 0.439725 0.543695 0.541317
4348 1 0.449621 0.552801 0.540508
4416 1 0.456479 0.541668 0.538669
4290 1 0.463499 0.54805 0.535137
4354 1 0.477367 0.552563 0.53435
1804 1 0.226313 0.573007 0.534567
1800 1 0.236407 0.569451 0.535644
1656 1 0.246891 0.565007 0.536208
1651 1 0.250868 0.576754 0.539852
1803 1 0.272714 0.564987 0.540179
1864 1 0.260656 0.570616 0.539472
1734 1 0.279974 0.575294 0.543872
1796 1 0.291752 0.564326 0.541944
1603 1 0.390176 0.569157 0.544915
1256 1 0.400735 0.561539 0.543749
4412 1 0.411835 0.572491 0.543969
4133 1 0.419665 0.561251 0.543973
4632 1 0.428864 0.570017 0.544225
4206 1 0.43857 0.561382 0.542356
1610 1 0.446031 0.573635 0.542104
4568 1 0.456253 0.562058 0.539391
4623 1 0.46233 0.577434 0.540371
4492 1 0.471135 0.561985 0.536926
4432 1 0.481806 0.577134 0.535471
1935 1 0.215064 0.58466 0.534329
1720 1 0.227301 0.584965 0.538451
1715 1 0.221621 0.59744 0.53951
1642 1 0.239936 0.581235 0.538579
1722 1 0.253638 0.587963 0.543862
1721 1 0.241211 0.591968 0.54187
1584 1 0.26678 0.581796 0.543759
1878 1 0.412585 0.593352 0.545361
4274 1 0.403238 0.581761 0.544825
1536 1 0.421634 0.581429 0.54409
1747 1 0.435379 0.586496 0.54379
1888 1 0.424968 0.597866 0.543865
4494 1 0.451245 0.592356 0.541661
4552 1 0.472918 0.583891 0.538725
4420 1 0.466244 0.593931 0.539761
4288 1 0.483099 0.591101 0.537129
1775 1 0.196284 0.607866 0.534161
1862 1 0.209572 0.603904 0.537426
1779 1 0.205158 0.616822 0.539464
1716 1 0.22078 0.610828 0.540954
1786 1 0.233005 0.600949 0.542817
1746 1 0.421526 0.609366 0.544707
4555 1 0.434382 0.614834 0.545169
4419 1 0.440719 0.600983 0.542591
4566 1 0.459744 0.607017 0.540945
4484 1 0.445903 0.616587 0.542249
4563 1 0.475856 0.601875 0.539192
4636 1 0.472616 0.614967 0.539808
4344 1 0.49377 0.603589 0.5358
4558 1 0.486473 0.609469 0.538502
1638 1 0.174257 0.62747 0.534919
1937 1 0.191725 0.624428 0.538138
1705 1 0.185686 0.637521 0.535979
1713 1 0.201299 0.634505 0.539548
2074 1 0.213706 0.62563 0.541303
1921 1 0.217289 0.636976 0.541793
2002 1 0.228304 0.624781 0.544836
1915 1 0.231137 0.639276 0.544927
1883 1 0.458623 0.622048 0.541254
1887 1 0.444097 0.62933 0.543715
4627 1 0.473507 0.628078 0.539201
4551 1 0.460988 0.635432 0.5421
4413 1 0.479025 0.63852 0.539816
4414 1 0.495625 0.621851 0.537057
4430 1 0.484712 0.62205 0.537873
4556 1 0.494019 0.637126 0.538606
1836 1 0.156044 0.659227 0.534618
1774 1 0.17412 0.643305 0.536069
1787 1 0.194201 0.652297 0.540226
1718 1 0.181119 0.65391 0.538355
1903 1 0.208764 0.646769 0.541629
4767 1 0.436787 0.640417 0.544997
4490 1 0.453397 0.644818 0.543634
4693 1 0.445643 0.655865 0.543803
4763 1 0.468867 0.647743 0.541263
4691 1 0.48037 0.653584 0.540356
1959 1 0.492244 0.653366 0.537575
2046 1 0.146912 0.67086 0.535219
1974 1 0.160036 0.674194 0.539007
1834 1 0.168038 0.663269 0.538045
1785 1 0.17372 0.67787 0.541168
1704 1 0.195947 0.665704 0.541705
1845 1 0.182467 0.666982 0.54163
1847 1 0.202919 0.676486 0.542029
1917 1 0.209951 0.660355 0.542666
1761 1 0.213698 0.672134 0.544628
4695 1 0.458551 0.672662 0.543825
4838 1 0.463562 0.660772 0.541872
4417 1 0.475856 0.666629 0.541441
4831 1 0.471903 0.676541 0.541049
1960 1 0.488552 0.668504 0.539389
4629 1 0.496374 0.676925 0.536037
2114 1 0.135718 0.684727 0.535488
1913 1 0.125083 0.696094 0.536603
1975 1 0.147659 0.686317 0.537341
2038 1 0.160345 0.68969 0.54138
2049 1 0.178758 0.69276 0.542409
1987 1 0.18751 0.682654 0.541009
2008 1 0.198957 0.688481 0.544465
1993 1 0.189802 0.69865 0.544457
2301 1 0.459731 0.699842 0.542847
2234 1 0.452244 0.683588 0.54485
2170 1 0.446892 0.695202 0.545253
2167 1 0.465048 0.686912 0.543202
2096 1 0.4759 0.690564 0.539281
2302 1 0.486547 0.696347 0.534965
1817 1 0.483485 0.680275 0.536981
2118 1 0.138741 0.700461 0.537544
2253 1 0.12117 0.707366 0.535277
2251 1 0.130616 0.711756 0.539459
2041 1 0.153798 0.703173 0.540849
1824 1 0.145388 0.716322 0.539637
2180 1 0.159542 0.717465 0.542384
1850 1 0.169682 0.703036 0.541914
1927 1 0.172638 0.719257 0.543559
2053 1 0.183628 0.710909 0.543161
5184 1 0.454604 0.71208 0.542688
2445 1 0.442504 0.708147 0.544286
4835 1 0.470462 0.704758 0.540104
4766 1 0.478785 0.71956 0.536321
4554 1 0.479334 0.707593 0.536099
2025 1 0.465774 0.716114 0.540272
1894 1 0.104432 0.732302 0.535202
2110 1 0.120147 0.731843 0.538278
4758 1 0.129067 0.7231 0.538172
2032 1 0.13834 0.729468 0.540207
2183 1 0.130468 0.739152 0.540668
2254 1 0.15229 0.729887 0.542361
2244 1 0.166973 0.731973 0.542246
1929 1 0.183795 0.726775 0.544854
2232 1 0.454588 0.731341 0.540837
4910 1 0.442223 0.721618 0.545269
2162 1 0.444111 0.736559 0.542706
2298 1 0.469798 0.731958 0.537241
4474 1 0.100975 0.756151 0.536045
2242 1 0.112436 0.743334 0.536877
1965 1 0.116475 0.759319 0.53777
4963 1 0.125529 0.749428 0.537216
2107 1 0.135924 0.754749 0.53921
4897 1 0.145718 0.744595 0.54002
2105 1 0.156106 0.757816 0.540323
2040 1 0.162676 0.745448 0.543629
1989 1 0.176589 0.75163 0.545426
1880 1 0.43529 0.74828 0.544284
2438 1 0.451077 0.747913 0.54128
2226 1 0.458289 0.741378 0.537904
2158 1 0.458447 0.759458 0.53914
2155 1 0.444428 0.759601 0.542803
2159 1 0.466948 0.748202 0.536932
4825 1 0.107474 0.768525 0.535672
5033 1 0.117612 0.776533 0.538117
4900 1 0.125931 0.766376 0.536816
2383 1 0.13969 0.777861 0.539174
2243 1 0.143483 0.765793 0.539169
1969 1 0.154714 0.7726 0.539253
4899 1 0.16845 0.765823 0.542101
2187 1 0.170171 0.778933 0.544812
2161 1 0.436095 0.767511 0.544515
2291 1 0.451119 0.771 0.541902
4833 1 0.46144 0.776793 0.538691
4904 1 0.470834 0.76437 0.535664
2312 1 0.106815 0.783407 0.534488
2241 1 0.1248 0.786444 0.53678
2102 1 0.136225 0.793452 0.537906
2115 1 0.150519 0.792925 0.539162
2177 1 0.159221 0.784263 0.540614
2113 1 0.168912 0.791831 0.544369
2367 1 0.439934 0.780974 0.543373
2447 1 0.426886 0.788319 0.545336
2444 1 0.43714 0.796484 0.543034
2378 1 0.451647 0.786991 0.540409
2449 1 0.465113 0.792516 0.536036
5106 1 0.124743 0.818479 0.534387
2174 1 0.125288 0.803295 0.53523
2319 1 0.139849 0.814846 0.536275
2101 1 0.144361 0.803931 0.53885
4829 1 0.154874 0.811327 0.541489
2122 1 0.166468 0.81419 0.544229
2195 1 0.160862 0.801269 0.542309
2229 1 0.398588 0.817923 0.542632
2292 1 0.398864 0.805617 0.545326
2424 1 0.413446 0.814757 0.54056
2361 1 0.41223 0.802291 0.54318
2374 1 0.426312 0.803317 0.542464
2303 1 0.425598 0.817197 0.539036
2495 1 0.438592 0.811109 0.539542
2581 1 0.45627 0.814502 0.537164
2440 1 0.452459 0.803215 0.539038
5036 1 0.133582 0.82632 0.535384
2318 1 0.151721 0.822616 0.538671
2397 1 0.141436 0.835449 0.536529
2527 1 0.152777 0.836553 0.538441
2186 1 0.175838 0.826255 0.545275
2320 1 0.163912 0.826685 0.54132
2259 1 0.184733 0.836395 0.545213
2278 1 0.387458 0.828508 0.545046
2341 1 0.392869 0.839299 0.541983
2209 1 0.402331 0.829274 0.541843
2290 1 0.413553 0.826157 0.539302
2357 1 0.438758 0.837276 0.535288
2285 1 0.433716 0.827393 0.538209
2510 1 0.42352 0.83705 0.537234
2435 1 0.449249 0.831042 0.534576
2366 1 0.445667 0.820247 0.537011
2313 1 0.141419 0.848625 0.535202
2540 1 0.152839 0.85089 0.53711
2192 1 0.167699 0.840798 0.541851
2054 1 0.166152 0.856287 0.540739
2188 1 0.178568 0.851602 0.543717
2130 1 0.192677 0.847291 0.544862
2428 1 0.378263 0.841697 0.544548
2280 1 0.37151 0.854251 0.54418
2433 1 0.384549 0.854666 0.54046
2227 1 0.399962 0.848681 0.538701
2408 1 0.416772 0.854481 0.534394
2426 1 0.409552 0.841432 0.538174
2296 1 0.405618 0.859453 0.535636
2597 1 0.150602 0.877676 0.534285
2391 1 0.15273 0.864394 0.535974
2250 1 0.164932 0.871269 0.539785
2246 1 0.178016 0.866644 0.541411
2257 1 0.191817 0.863636 0.544119
2051 1 0.189451 0.87994 0.542921
2490 1 0.243155 0.878851 0.545236
2134 1 0.2664 0.864702 0.544923
2360 1 0.287783 0.870971 0.543535
2484 1 0.302432 0.877232 0.541976
2560 1 0.314174 0.874377 0.544296
2707 1 0.335222 0.867837 0.543389
2429 1 0.327818 0.877024 0.543153
2224 1 0.320509 0.863173 0.545192
2494 1 0.355358 0.879004 0.541698
2559 1 0.378353 0.86752 0.540665
2288 1 0.367007 0.871034 0.541872
2786 1 0.39414 0.865167 0.536258
2421 1 0.382569 0.875027 0.535133
2507 1 0.400479 0.876931 0.534352
2248 1 0.163016 0.881854 0.536325
2326 1 0.171395 0.895201 0.534436
2263 1 0.177463 0.880538 0.538678
2529 1 0.184958 0.892588 0.537898
2389 1 0.199402 0.887009 0.540032
2247 1 0.198238 0.899752 0.535486
2052 1 0.211568 0.889161 0.541437
2390 1 0.224827 0.896769 0.540803
2194 1 0.226953 0.883991 0.542261
2481 1 0.240308 0.894933 0.542448
2479 1 0.254414 0.891969 0.541816
2335 1 0.27234 0.880536 0.542905
2625 1 0.269956 0.894083 0.541211
2262 1 0.28579 0.884115 0.543431
2478 1 0.281936 0.894925 0.539247
2493 1 0.293699 0.89025 0.539346
2639 1 0.311666 0.88942 0.539637
2627 1 0.324393 0.891103 0.539178
2431 1 0.340559 0.881045 0.541894
2570 1 0.34015 0.893453 0.539575
2779 1 0.356046 0.890125 0.538227
2569 1 0.374226 0.893827 0.536819
2411 1 0.370127 0.881761 0.537933
2419 1 0.386222 0.885868 0.534848
2724 1 0.400018 0.89192 0.534457
2396 1 0.180495 0.905091 0.53426
2477 1 0.21121 0.902258 0.538859
2268 1 0.221194 0.910379 0.536241
2336 1 0.235114 0.904207 0.538711
2705 1 0.249306 0.904074 0.539361
2406 1 0.256852 0.919419 0.53567
2621 1 0.240301 0.918437 0.535232
2342 1 0.264165 0.906772 0.538688
2565 1 0.278052 0.905618 0.537268
2552 1 0.272157 0.916103 0.53563
2497 1 0.289621 0.908387 0.536151
2777 1 0.300899 0.900585 0.538305
2709 1 0.303846 0.916783 0.534251
2566 1 0.312959 0.902351 0.538093
2422 1 0.331067 0.903602 0.536342
2362 1 0.32128 0.910374 0.536456
117 1 0.346502 0.907946 0.536603
2501 1 0.376878 0.9096 0.536715
2498 1 0.36327 0.905053 0.536664
2289 1 0.388854 0.902975 0.535209
2718 1 0.390068 0.917462 0.534264
2578 1 0.402765 0.907492 0.534737
2430 1 0.370946 0.922755 0.534127
1743 1 0.355669 0.552291 0.545795
1664 1 0.367638 0.553834 0.545511
1938 1 0.296227 0.575826 0.547446
1594 1 0.30582 0.567331 0.54599
2085 1 0.321057 0.564859 0.546737
1805 1 0.332572 0.56041 0.546469
1598 1 0.33536 0.57425 0.548397
1808 1 0.32449 0.578038 0.548713
1863 1 0.35689 0.562935 0.546516
1809 1 0.345789 0.563491 0.546705
4482 1 0.372963 0.56586 0.545752
1735 1 0.360459 0.575645 0.547032
1605 1 0.379833 0.575723 0.547504
1865 1 0.258012 0.596467 0.547127
1646 1 0.269953 0.593887 0.548335
1925 1 0.281673 0.587577 0.548756
2079 1 0.293228 0.591349 0.550375
1873 1 0.310013 0.581533 0.548806
1941 1 0.308818 0.597426 0.551993
1879 1 0.333012 0.590083 0.55119
1667 1 0.323361 0.597412 0.550505
1877 1 0.346756 0.580421 0.549089
1951 1 0.356235 0.591604 0.549199
1740 1 0.369078 0.585015 0.548258
1890 1 0.378204 0.592595 0.54863
1674 1 0.388901 0.58508 0.546809
1744 1 0.398713 0.598327 0.545617
1932 1 0.238131 0.612526 0.545724
1654 1 0.248288 0.604324 0.546094
1790 1 0.249887 0.617902 0.550272
1861 1 0.262602 0.610354 0.5505
1658 1 0.272974 0.605791 0.55094
2071 1 0.277927 0.616673 0.552493
1858 1 0.284958 0.60236 0.552324
1666 1 0.29995 0.606411 0.553244
2009 1 0.291073 0.616818 0.555572
1936 1 0.31537 0.608046 0.555155
1792 1 0.305495 0.617453 0.554938
1526 1 0.33197 0.606994 0.553185
1737 1 0.330008 0.618751 0.556011
1815 1 0.341977 0.600004 0.552298
1871 1 0.345237 0.615982 0.553699
1874 1 0.353141 0.606317 0.550095
1886 1 0.368258 0.600643 0.548665
1675 1 0.363645 0.614466 0.550473
1946 1 0.379711 0.612151 0.550019
1748 1 0.38622 0.603966 0.545744
1672 1 0.397152 0.611925 0.547671
1958 1 0.409036 0.607341 0.547121
1784 1 0.241841 0.631066 0.548453
1849 1 0.254552 0.632718 0.553055
1793 1 0.267175 0.625568 0.554113
1943 1 0.281279 0.631623 0.556129
1867 1 0.343405 0.630649 0.556474
2081 1 0.355525 0.625805 0.553661
1870 1 0.3524 0.639032 0.555472
2028 1 0.368025 0.628502 0.55282
1940 1 0.378694 0.627559 0.550043
1889 1 0.390521 0.62142 0.549845
1749 1 0.395647 0.634409 0.550955
1750 1 0.404699 0.621642 0.548617
4622 1 0.411296 0.633925 0.547894
1885 1 0.418016 0.622103 0.547023
4696 1 0.429145 0.627381 0.545756
1956 1 0.422878 0.639102 0.546599
1853 1 0.221713 0.650364 0.545683
1914 1 0.236757 0.655541 0.548033
1860 1 0.25725 0.643835 0.552935
1791 1 0.252137 0.65872 0.551368
2006 1 0.245575 0.647066 0.551594
1848 1 0.268077 0.644031 0.555477
1732 1 0.27971 0.649681 0.556227
2215 1 0.265229 0.655965 0.55411
2091 1 0.36686 0.640409 0.554143
1955 1 0.365662 0.654563 0.554625
2012 1 0.377133 0.655806 0.555026
1954 1 0.380072 0.642308 0.553646
1957 1 0.390428 0.648794 0.551071
1949 1 0.404917 0.649595 0.549647
2024 1 0.416674 0.650081 0.54873
1812 1 0.430031 0.65356 0.547214
2065 1 0.225398 0.665676 0.545524
2145 1 0.235464 0.675756 0.546987
2281 1 0.244472 0.667487 0.550813
1980 1 0.252923 0.676069 0.550939
2003 1 0.260365 0.668467 0.553741
2211 1 0.269155 0.676087 0.556738
2029 1 0.374075 0.670489 0.556467
2023 1 0.388045 0.663788 0.554948
2168 1 0.394812 0.676281 0.554126
1882 1 0.403226 0.661338 0.551149
1948 1 0.410366 0.674706 0.552163
2097 1 0.420693 0.663568 0.550984
1881 1 0.433055 0.668727 0.548187
2294 1 0.421609 0.678234 0.550598
1820 1 0.44684 0.66888 0.545768
1928 1 0.213318 0.688832 0.545965
1985 1 0.219948 0.699478 0.547041
1916 1 0.234013 0.694836 0.547507
1931 1 0.22587 0.684441 0.546317
1717 1 0.244309 0.684018 0.550687
1930 1 0.252931 0.695075 0.551405
2070 1 0.261201 0.686432 0.553678
2214 1 0.271549 0.696278 0.556302
2011 1 0.384251 0.681909 0.555959
2086 1 0.39519 0.690471 0.555803
2233 1 0.409989 0.688801 0.553878
2164 1 0.438619 0.681622 0.548858
2373 1 0.435478 0.694423 0.548314
1816 1 0.426964 0.690466 0.552065
1906 1 0.1966 0.715369 0.545723
1922 1 0.204699 0.70126 0.54692
1846 1 0.212298 0.715393 0.547488
2139 1 0.228893 0.711266 0.548516
1995 1 0.242183 0.705294 0.550558
2078 1 0.250241 0.712068 0.552343
1920 1 0.262666 0.702513 0.55439
1794 1 0.268353 0.713699 0.553494
4621 1 0.392775 0.704897 0.556768
2026 1 0.405933 0.70248 0.555019
2238 1 0.406134 0.714576 0.554913
2095 1 0.419073 0.701857 0.553298
4836 1 0.416397 0.717786 0.55181
2100 1 0.433965 0.706326 0.54936
2375 1 0.429842 0.717119 0.549169
2252 1 0.177851 0.73699 0.546084
1979 1 0.195619 0.731951 0.546067
1984 1 0.21064 0.729435 0.547251
1976 1 0.21991 0.738627 0.548691
2073 1 0.238405 0.722072 0.551338
2127 1 0.223473 0.72242 0.548111
1996 1 0.231063 0.731983 0.549673
2136 1 0.257063 0.721906 0.553437
1918 1 0.246129 0.732392 0.552663
2137 1 0.261062 0.733207 0.555015
1944 1 0.273669 0.726461 0.556747
2064 1 0.31652 0.721713 0.556063
2088 1 0.389009 0.721422 0.555843
2090 1 0.389791 0.735496 0.55673
2019 1 0.403999 0.726895 0.553098
2089 1 0.418898 0.729396 0.549965
2157 1 0.409046 0.738026 0.551409
4977 1 0.432412 0.729758 0.547114
2039 1 0.190289 0.743951 0.546857
1904 1 0.196511 0.755156 0.549021
2048 1 0.20639 0.743276 0.547729
1986 1 0.213809 0.754455 0.550637
2203 1 0.226538 0.749978 0.552048
1919 1 0.236501 0.741965 0.550861
2202 1 0.254744 0.742247 0.554851
1991 1 0.246536 0.752253 0.55473
2060 1 0.264037 0.751937 0.556213
1994 1 0.27127 0.741618 0.555306
1983 1 0.277766 0.759095 0.556624
2222 1 0.380172 0.759964 0.555276
2352 1 0.398507 0.758689 0.553606
4832 1 0.398616 0.744182 0.553619
2287 1 0.389439 0.750711 0.554729
4983 1 0.409613 0.754184 0.552286
2092 1 0.417506 0.74705 0.548327
4841 1 0.42703 0.741018 0.547426
2146 1 0.425792 0.759251 0.546086
2055 1 0.178365 0.766681 0.545814
2189 1 0.188268 0.762628 0.547501
2255 1 0.191898 0.774626 0.550645
1990 1 0.211141 0.774888 0.551282
2047 1 0.20329 0.763246 0.550236
1982 1 0.22305 0.767276 0.551065
2348 1 0.237431 0.760234 0.553265
1852 1 0.23148 0.775577 0.554268
1999 1 0.253498 0.761304 0.554902
1997 1 0.24431 0.77091 0.554202
2067 1 0.258035 0.778237 0.555556
2140 1 0.265559 0.769083 0.556536
2208 1 0.27822 0.776802 0.554763
2133 1 0.288603 0.770525 0.555845
2001 1 0.307091 0.772195 0.556171
2414 1 0.37631 0.778054 0.555443
2093 1 0.386744 0.769637 0.55252
2297 1 0.403719 0.769617 0.550569
2225 1 0.415115 0.764979 0.549563
2160 1 0.426637 0.774935 0.546424
2108 1 0.185026 0.781482 0.547183
2184 1 0.180872 0.795332 0.546882
1978 1 0.197406 0.790075 0.549234
2116 1 0.21341 0.789702 0.549351
2117 1 0.224359 0.78435 0.552742
2120 1 0.233767 0.794579 0.554041
2135 1 0.243816 0.784356 0.553557
1988 1 0.251218 0.792355 0.554591
2201 1 0.269318 0.78557 0.554315
2200 1 0.262752 0.79877 0.553928
2066 1 0.277384 0.799395 0.554281
2277 1 0.295389 0.780097 0.556479
1953 1 0.28536 0.788945 0.554524
2274 1 0.319157 0.791554 0.556736
1998 1 0.30426 0.791438 0.555015
2413 1 0.332581 0.799117 0.556272
2417 1 0.347108 0.786624 0.556716
2205 1 0.362023 0.785148 0.556317
2210 1 0.361008 0.797108 0.555419
2351 1 0.373352 0.793771 0.553803
2420 1 0.386561 0.786281 0.550371
2295 1 0.398294 0.780002 0.548777
2152 1 0.398239 0.793124 0.546723
2300 1 0.411343 0.780723 0.548312
2236 1 0.41028 0.791786 0.545573
2317 1 0.175642 0.808112 0.546642
2131 1 0.184868 0.816649 0.546508
2056 1 0.192619 0.806839 0.549377
2176 1 0.209503 0.804915 0.549613
2126 1 0.218782 0.817362 0.550322
2316 1 0.203521 0.817483 0.550209
2190 1 0.226002 0.801423 0.55015
2185 1 0.235081 0.811834 0.552512
2121 1 0.245756 0.802909 0.552454
2409 1 0.257105 0.81115 0.552499
2337 1 0.269303 0.813899 0.553656
2482 1 0.29294 0.801012 0.554698
1926 1 0.296826 0.813646 0.554152
2264 1 0.283424 0.814327 0.554746
2416 1 0.319808 0.810906 0.555163
2283 1 0.308386 0.805674 0.555224
2564 1 0.335296 0.815534 0.554291
2279 1 0.34675 0.801357 0.554707
2635 1 0.346886 0.81929 0.554557
2275 1 0.357594 0.808687 0.553423
2344 1 0.373246 0.80583 0.550866
2633 1 0.36584 0.819088 0.550468
2153 1 0.384188 0.801841 0.548171
2276 1 0.386913 0.813895 0.547029
2245 1 0.192414 0.825271 0.548458
2325 1 0.199241 0.836019 0.549261
2125 1 0.212301 0.827979 0.549462
2399 1 0.220726 0.837989 0.548773
1992 1 0.230439 0.828564 0.550704
2044 1 0.244909 0.820257 0.551903
2059 1 0.244329 0.833554 0.549293
2270 1 0.257975 0.824822 0.552382
2061 1 0.259149 0.837441 0.54992
2206 1 0.26957 0.826716 0.550908
2197 1 0.272166 0.839969 0.549913
2272 1 0.282857 0.826213 0.552576
2129 1 0.298277 0.829725 0.553591
2267 1 0.283626 0.838858 0.550833
2355 1 0.310881 0.823423 0.554408
2273 1 0.309807 0.837788 0.551281
2557 1 0.32296 0.825215 0.553942
2350 1 0.338931 0.828737 0.553978
2410 1 0.321771 0.838369 0.551525
2710 1 0.350525 0.837556 0.550474
2488 1 0.3584 0.827356 0.55125
2641 1 0.374175 0.82629 0.547242
2349 1 0.366835 0.836216 0.547384
2258 1 0.203245 0.855921 0.547068
2199 1 0.208076 0.845181 0.548092
2062 1 0.217866 0.852517 0.549141
2323 1 0.231516 0.842671 0.549247
2269 1 0.231562 0.856521 0.547132
2260 1 0.245748 0.847067 0.548285
2412 1 0.258889 0.851706 0.54719
2132 1 0.271396 0.854192 0.548741
2265 1 0.295221 0.842542 0.552095
2124 1 0.28614 0.853328 0.548674
2473 1 0.306204 0.849176 0.549488
2634 1 0.317064 0.850918 0.547809
2346 1 0.337818 0.841003 0.55014
2343 1 0.329621 0.852892 0.547711
2491 1 0.343455 0.854862 0.547363
2418 1 0.35844 0.849509 0.54759
2324 1 0.204617 0.874272 0.545874
2327 1 0.215017 0.879987 0.545884
2196 1 0.215647 0.864521 0.546038
2332 1 0.22876 0.869315 0.546153
2548 1 0.259808 0.878087 0.5455
2057 1 0.255435 0.864252 0.546494
2620 1 0.242699 0.861201 0.547838
2191 1 0.27739 0.867706 0.546815
2128 1 0.296831 0.861591 0.547059
2546 1 0.309799 0.861186 0.546059
2204 1 0.349884 0.868048 0.545992
2563 1 0.360513 0.860575 0.545511
2080 1 0.297784 0.628063 0.556984
1795 1 0.315886 0.624545 0.55714
1933 1 0.307583 0.635663 0.557697
1934 1 0.329885 0.631894 0.558261
2142 1 0.29149 0.64087 0.557534
2069 1 0.290304 0.656003 0.557632
2144 1 0.307192 0.649917 0.558258
1942 1 0.339427 0.644579 0.557784
1947 1 0.32184 0.64313 0.55814
2005 1 0.328653 0.653204 0.558888
1866 1 0.351552 0.653461 0.557181
2138 1 0.27648 0.66242 0.557111
1923 1 0.286049 0.670345 0.557429
1924 1 0.295975 0.679535 0.55764
2010 1 0.318203 0.660684 0.559467
2151 1 0.304062 0.663435 0.558481
2150 1 0.309359 0.675772 0.558994
1872 1 0.329332 0.668697 0.560193
2282 1 0.356054 0.665438 0.557238
2000 1 0.340517 0.660414 0.558525
1876 1 0.34593 0.67416 0.559726
2007 1 0.361898 0.674875 0.558173
2228 1 0.27746 0.683628 0.557055
1856 1 0.286907 0.691525 0.557126
1884 1 0.303217 0.691163 0.557378
1950 1 0.316556 0.693901 0.559414
1806 1 0.32048 0.682263 0.559874
2082 1 0.332563 0.683392 0.55955
2004 1 0.329447 0.698319 0.559028
2021 1 0.354451 0.686064 0.559694
2084 1 0.342285 0.691723 0.559289
2087 1 0.366286 0.695101 0.557693
2018 1 0.369866 0.684864 0.557399
4761 1 0.381277 0.694683 0.557539
2149 1 0.278883 0.708477 0.55791
2075 1 0.293046 0.704822 0.558443
2015 1 0.308203 0.703978 0.557969
2076 1 0.301512 0.718466 0.557824
2213 1 0.322271 0.71043 0.558358
2068 1 0.332313 0.719247 0.556877
2239 1 0.339904 0.708061 0.559029
2284 1 0.353618 0.701471 0.559127
1952 1 0.348847 0.717188 0.558282
2216 1 0.366942 0.712819 0.558772
4834 1 0.381595 0.710902 0.558745
2143 1 0.284428 0.737968 0.55734
2072 1 0.286435 0.721806 0.558302
2147 1 0.300759 0.732671 0.557168
2083 1 0.312361 0.732956 0.557467
2212 1 0.326995 0.730628 0.557305
2013 1 0.343307 0.72797 0.558072
1818 1 0.3572 0.727466 0.558464
2148 1 0.375001 0.7284 0.55812
2230 1 0.363551 0.738544 0.559275
2141 1 0.288234 0.752417 0.557546
2063 1 0.298275 0.745166 0.557051
2217 1 0.309914 0.745602 0.557008
2156 1 0.322303 0.748507 0.55907
2165 1 0.336871 0.743128 0.558834
2219 1 0.351542 0.740293 0.559961
2235 1 0.342617 0.7575 0.559534
2077 1 0.356195 0.752042 0.560372
2339 1 0.37079 0.755102 0.559604
2231 1 0.379432 0.742557 0.557577
2353 1 0.301008 0.761507 0.557437
2218 1 0.313822 0.760532 0.557924
2345 1 0.32263 0.773702 0.558273
2347 1 0.339132 0.773305 0.558735
2221 1 0.331536 0.762916 0.558729
2163 1 0.353469 0.769075 0.558004
2017 1 0.367123 0.769211 0.558252
2020 1 0.312329 0.782234 0.5573
2703 1 0.333149 0.786309 0.558161
354 1 0.925821 0.229813 0.430558
3281 1 0.942859 0.228361 0.43039
781 1 0.955325 0.235128 0.429027
720 1 0.979621 0.234071 0.429776
791 1 0.965285 0.22944 0.431586
774 1 0.904749 0.253736 0.42907
845 1 0.915589 0.243037 0.429304
3422 1 0.901531 0.24038 0.431379
3360 1 0.92142 0.256675 0.427239
355 1 0.927649 0.243845 0.427198
710 1 0.937887 0.256264 0.42626
494 1 0.939693 0.241166 0.427801
785 1 0.950534 0.249292 0.426761
712 1 0.969017 0.241336 0.427183
3498 1 0.962682 0.25647 0.425754
637 1 0.980317 0.252802 0.425725
778 1 0.991995 0.240838 0.428004
789 1 0.996059 0.254591 0.425974
3701 1 0.892534 0.263944 0.429471
3192 1 0.899697 0.275442 0.427631
3570 1 0.911288 0.26661 0.426165
3497 1 0.926549 0.27105 0.424315
703 1 0.93847 0.277103 0.424996
3286 1 0.947924 0.265174 0.424196
431 1 0.960995 0.274083 0.423855
3490 1 0.974037 0.263975 0.42541
995 1 0.988997 0.264683 0.426302
640 1 0.985183 0.275676 0.424246
3563 1 0.877042 0.287747 0.431603
3492 1 0.888857 0.280565 0.430317
3771 1 0.889818 0.294858 0.430504
3635 1 0.899113 0.291099 0.427986
3633 1 0.91072 0.282126 0.42578
3625 1 0.914485 0.294274 0.425932
925 1 0.927692 0.28536 0.426079
3703 1 0.92666 0.296842 0.425039
3428 1 0.942406 0.291034 0.424964
709 1 0.951325 0.283852 0.423535
3634 1 0.960066 0.293529 0.423612
707 1 0.972505 0.283404 0.424944
996 1 0.97623 0.299489 0.424676
776 1 0.989616 0.29384 0.423944
3558 1 0.887391 0.311102 0.429023
3493 1 0.899001 0.305525 0.427612
3350 1 0.910274 0.308345 0.425451
3776 1 0.924037 0.309521 0.425746
981 1 0.937003 0.308685 0.425647
3499 1 0.950035 0.302241 0.424226
3277 1 0.951269 0.319835 0.424332
3708 1 0.964269 0.308086 0.424285
3849 1 0.978357 0.314505 0.422523
982 1 0.990538 0.30707 0.423415
1057 1 0.990607 0.318952 0.423911
3770 1 0.898243 0.320657 0.426911
3495 1 0.885253 0.328325 0.429369
3707 1 0.897376 0.338925 0.429077
3706 1 0.916669 0.320357 0.424253
3481 1 0.908084 0.329472 0.426504
3630 1 0.9235 0.331983 0.426661
777 1 0.933815 0.323773 0.425541
3568 1 0.952958 0.337349 0.42543
913 1 0.965236 0.325996 0.424319
3699 1 0.980819 0.331291 0.423072
3564 1 0.992678 0.333998 0.423814
3638 1 0.881891 0.341803 0.431392
3834 1 0.88835 0.355515 0.431443
3330 1 0.904114 0.352621 0.430456
3621 1 0.911348 0.342815 0.428402
3496 1 0.935556 0.341877 0.42662
3839 1 0.92449 0.347892 0.428525
3695 1 0.942747 0.351494 0.426779
911 1 0.959755 0.352954 0.426012
3639 1 0.967321 0.342883 0.423827
1121 1 0.973543 0.35809 0.426899
3705 1 0.982317 0.347313 0.424808
842 1 0.995947 0.34901 0.425171
3915 1 0.914463 0.360056 0.429081
3631 1 0.903137 0.369525 0.430943
3775 1 0.932701 0.362182 0.428338
1053 1 0.920187 0.375425 0.428789
3637 1 0.935442 0.374744 0.427664
3914 1 0.951208 0.368168 0.427217
3566 1 0.96862 0.37112 0.427016
708 1 0.986668 0.374191 0.427663
706 1 0.98848 0.36153 0.425824
3777 1 0.912968 0.385395 0.430277
3979 1 0.930411 0.386227 0.429303
1128 1 0.93954 0.394681 0.43108
3983 1 0.947173 0.381667 0.429599
1127 1 0.954511 0.398031 0.431637
3772 1 0.96209 0.383352 0.427686
782 1 0.978931 0.384929 0.428084
983 1 0.970533 0.397909 0.429777
704 1 0.994855 0.386038 0.4293
352 1 0.918476 0.187534 0.44274
3847 1 0.903453 0.194472 0.441942
3219 1 0.928061 0.190829 0.438438
567 1 0.939475 0.189346 0.439904
718 1 0.953432 0.186906 0.442608
631 1 0.955197 0.197204 0.4379
3567 1 0.975075 0.193607 0.440657
3357 1 0.989298 0.19602 0.440795
3488 1 0.895306 0.210173 0.441067
702 1 0.882068 0.212324 0.44297
784 1 0.90684 0.210834 0.436858
3354 1 0.914108 0.200379 0.438107
3426 1 0.918481 0.217139 0.435901
3414 1 0.92409 0.206439 0.434666
3278 1 0.939888 0.201266 0.43553
3140 1 0.93259 0.218044 0.43352
852 1 0.945258 0.211945 0.43475
792 1 0.959454 0.210761 0.436181
644 1 0.964608 0.201406 0.440114
861 1 0.972308 0.218049 0.43502
496 1 0.977387 0.205938 0.437748
722 1 0.988809 0.21108 0.435884
425 1 0.98607 0.219674 0.432658
3415 1 0.857346 0.239187 0.441006
3636 1 0.868069 0.233629 0.441517
3622 1 0.877135 0.227126 0.440608
3429 1 0.889654 0.220151 0.4389
3282 1 0.889891 0.234744 0.435308
3356 1 0.911063 0.229993 0.432653
3215 1 0.90174 0.224266 0.435714
715 1 0.956496 0.22158 0.43432
1002 1 0.995234 0.228933 0.432601
3348 1 0.845886 0.25162 0.442896
3553 1 0.863336 0.25117 0.438696
3212 1 0.873552 0.24254 0.437022
3543 1 0.869952 0.258594 0.434847
3565 1 0.880926 0.257502 0.43313
3284 1 0.889335 0.247797 0.432574
3418 1 0.856493 0.26198 0.43793
3673 1 0.841542 0.265919 0.442957
3560 1 0.85191 0.275356 0.438694
3700 1 0.866819 0.272738 0.434747
3398 1 0.879622 0.272963 0.432372
3472 1 0.838055 0.283428 0.441516
3744 1 0.841169 0.295714 0.440574
3769 1 0.852595 0.289677 0.438432
3534 1 0.865037 0.286332 0.435663
3411 1 0.83257 0.302279 0.441913
3403 1 0.832744 0.317573 0.442449
3471 1 0.843902 0.311178 0.441022
3420 1 0.853411 0.3041 0.4386
3494 1 0.879111 0.300919 0.432625
3702 1 0.861844 0.319343 0.435673
3424 1 0.875246 0.317954 0.433447
3476 1 0.865105 0.301382 0.434809
3556 1 0.840242 0.329418 0.441876
3475 1 0.84934 0.322392 0.438677
3546 1 0.858752 0.336568 0.435119
3483 1 0.870418 0.331155 0.431847
3470 1 0.835841 0.341013 0.441244
3616 1 0.830848 0.354101 0.441746
3469 1 0.846463 0.341002 0.43791
3674 1 0.844731 0.352028 0.437888
3693 1 0.856592 0.350617 0.434351
3396 1 0.869773 0.345869 0.432486
3756 1 0.836731 0.3639 0.438541
3552 1 0.837339 0.376995 0.437746
3620 1 0.826135 0.372882 0.442543
3485 1 0.84828 0.363633 0.434443
3626 1 0.849565 0.376809 0.43535
3482 1 0.875894 0.378587 0.432981
3629 1 0.863627 0.36254 0.433329
3539 1 0.87535 0.360655 0.432533
3689 1 0.862428 0.374623 0.433358
3773 1 0.887992 0.374262 0.433126
3765 1 0.835568 0.388056 0.442376
3843 1 0.858737 0.387061 0.434791
3551 1 0.845037 0.391764 0.436983
3547 1 0.872324 0.390422 0.435201
3704 1 0.899764 0.386646 0.432873
3632 1 0.884245 0.389239 0.433729
3489 1 0.895679 0.399504 0.433874
3774 1 0.909006 0.398754 0.433506
3850 1 0.921088 0.394419 0.43182
3910 1 0.987413 0.398416 0.43231
3697 1 0.84373 0.404004 0.441288
3977 1 0.848749 0.414962 0.442895
3561 1 0.860338 0.403948 0.437349
3548 1 0.873574 0.414767 0.438214
3990 1 0.880092 0.403617 0.435167
3918 1 0.891885 0.41295 0.436174
3904 1 0.905362 0.412674 0.436182
3985 1 0.917134 0.409659 0.435995
3835 1 0.930061 0.404293 0.432508
3913 1 0.935669 0.41564 0.436604
3778 1 0.922676 0.419442 0.437303
3845 1 0.946387 0.406632 0.433651
4049 1 0.953526 0.415372 0.434847
3710 1 0.962438 0.409596 0.433879
3916 1 0.971795 0.418102 0.435614
3640 1 0.98007 0.408447 0.435664
984 1 0.99294 0.412667 0.433738
3691 1 0.861746 0.420019 0.441612
4057 1 0.874664 0.430158 0.441278
3698 1 0.899499 0.424369 0.437668
772 1 0.883002 0.424051 0.438732
3917 1 0.889398 0.436939 0.441279
3842 1 0.911607 0.428716 0.44019
3692 1 0.9025 0.438731 0.44219
3980 1 0.919619 0.439497 0.443019
3624 1 0.931177 0.429702 0.44124
1059 1 0.944278 0.422742 0.43823
986 1 0.949864 0.432323 0.440403
1052 1 0.961398 0.4257 0.437768
1129 1 0.972206 0.43105 0.441346
920 1 0.985163 0.423349 0.436698
1058 1 0.986067 0.436481 0.438875
3780 1 0.997766 0.424795 0.436616
3766 1 0.877792 0.441109 0.442819
3841 1 0.939985 0.440987 0.441302
1070 1 0.959058 0.440465 0.442736
1065 1 0.974613 0.447162 0.442912
4129 1 0.989584 0.448097 0.442643
563 1 0.96758 0.153295 0.45378
639 1 0.981318 0.156771 0.453824
3279 1 0.892851 0.178995 0.451875
3358 1 0.904334 0.174798 0.452673
3353 1 0.91781 0.164351 0.453453
3220 1 0.921232 0.174722 0.450012
3280 1 0.93637 0.165612 0.45076
3285 1 0.947578 0.178399 0.446918
634 1 0.953278 0.163828 0.451017
498 1 0.961175 0.17579 0.447425
705 1 0.96677 0.165413 0.44976
3147 1 0.974531 0.177453 0.448142
566 1 0.996936 0.163601 0.452074
779 1 0.993847 0.177057 0.448196
353 1 0.983003 0.169244 0.449893
3569 1 0.849824 0.196527 0.452278
3484 1 0.867569 0.192278 0.452395
3289 1 0.881357 0.190334 0.449559
3266 1 0.897912 0.187459 0.447315
3410 1 0.889662 0.19806 0.444821
3419 1 0.911055 0.181461 0.447555
3274 1 0.932272 0.180466 0.44459
717 1 0.96573 0.187339 0.444652
6 1 0.983722 0.184005 0.44438
786 1 0.999971 0.187976 0.444837
2987 1 0.827693 0.217904 0.451613
3346 1 0.852369 0.214301 0.447188
3069 1 0.842351 0.207881 0.450081
3342 1 0.840488 0.219921 0.447006
633 1 0.874568 0.202399 0.44874
3491 1 0.860872 0.205721 0.449957
3276 1 0.871883 0.216389 0.44531
3401 1 0.805097 0.236053 0.45441
3408 1 0.820162 0.234356 0.45205
3486 1 0.831598 0.229418 0.448438
3473 1 0.849619 0.229671 0.444062
3127 1 0.840432 0.237629 0.445083
3427 1 0.862148 0.221671 0.444263
3409 1 0.810267 0.252328 0.453157
3462 1 0.820306 0.24586 0.449589
3487 1 0.832893 0.243412 0.448494
3405 1 0.834146 0.256687 0.447583
3186 1 0.802727 0.278519 0.453628
3557 1 0.810568 0.267052 0.452246
701 1 0.821502 0.26025 0.448863
3407 1 0.828185 0.275598 0.44538
3464 1 0.81602 0.281563 0.449885
3603 1 0.816241 0.299504 0.448603
3536 1 0.80315 0.293235 0.45058
3406 1 0.828402 0.288126 0.445821
3395 1 0.789113 0.300884 0.452884
3694 1 0.788777 0.317308 0.453778
3612 1 0.80315 0.309154 0.449874
3466 1 0.819403 0.312605 0.446112
3611 1 0.799357 0.326016 0.452095
3480 1 0.812127 0.322215 0.449048
3467 1 0.813314 0.335693 0.450073
3545 1 0.826399 0.329108 0.446069
3549 1 0.815651 0.352127 0.447008
3761 1 0.805732 0.348306 0.454351
3828 1 0.822381 0.342321 0.446206
3755 1 0.809227 0.36172 0.451776
3829 1 0.8154 0.373855 0.449086
3681 1 0.804595 0.376015 0.453711
3404 1 0.820629 0.362233 0.445219
3767 1 0.81277 0.389445 0.451034
3618 1 0.821484 0.398729 0.447382
3900 1 0.824271 0.383572 0.44606
3894 1 0.807899 0.403887 0.453851
3627 1 0.834944 0.403426 0.446446
3899 1 0.820875 0.413158 0.451071
3836 1 0.837564 0.416858 0.446747
3968 1 0.823491 0.427365 0.451523
3825 1 0.835926 0.433684 0.448287
3826 1 0.849305 0.429482 0.445562
3986 1 0.860444 0.431796 0.44353
4052 1 0.826534 0.444003 0.451489
3844 1 0.840022 0.451209 0.448894
3623 1 0.849718 0.44333 0.446423
3982 1 0.856401 0.458072 0.446569
3840 1 0.863444 0.444072 0.444701
3975 1 0.869598 0.457054 0.44517
3908 1 0.882386 0.452374 0.443764
3838 1 0.894675 0.450773 0.444576
4056 1 0.909334 0.448995 0.444684
1194 1 0.921028 0.453813 0.445249
988 1 0.93096 0.446453 0.443239
4060 1 0.938016 0.457786 0.445808
3768 1 0.948769 0.448434 0.444425
1211 1 0.960502 0.455147 0.445383
1263 1 0.989701 0.457604 0.446527
4046 1 0.83297 0.460587 0.451967
3909 1 0.845387 0.465118 0.45114
4118 1 0.859298 0.472471 0.450208
1122 1 0.848545 0.479925 0.453991
3974 1 0.871891 0.469284 0.447806
4198 1 0.895568 0.464856 0.448086
3989 1 0.88381 0.464756 0.447429
3907 1 0.897023 0.478221 0.451272
4127 1 0.884172 0.475877 0.451538
3919 1 0.910418 0.462839 0.447837
3987 1 0.908394 0.475744 0.451321
3912 1 0.922769 0.476663 0.451722
3846 1 0.925517 0.463756 0.449006
4126 1 0.936982 0.469812 0.451299
1333 1 0.933422 0.47954 0.454321
1208 1 0.948924 0.464238 0.449068
1124 1 0.951268 0.476393 0.453775
1201 1 0.962203 0.467356 0.450621
1212 1 0.976352 0.460306 0.446225
1269 1 0.976935 0.475703 0.452495
1273 1 0.989765 0.470792 0.450126
3984 1 0.86858 0.48473 0.453113
3141 1 0.967242 0.133701 0.465726
3076 1 0.992614 0.129155 0.465042
3355 1 0.981722 0.137349 0.463087
3339 1 0.870935 0.152101 0.465641
3417 1 0.88826 0.158545 0.462592
3351 1 0.893013 0.14644 0.463758
3349 1 0.902596 0.157345 0.461734
562 1 0.914722 0.152673 0.460519
3341 1 0.905389 0.144409 0.464772
3211 1 0.92237 0.14426 0.463562
3500 1 0.932458 0.147294 0.458916
3208 1 0.925981 0.157492 0.454693
3359 1 0.943817 0.154186 0.455946
565 1 0.943352 0.144413 0.460951
424 1 0.956073 0.152165 0.455546
2940 1 0.960118 0.141858 0.461735
3070 1 0.973498 0.148626 0.45948
511 1 0.9904 0.149662 0.459046
3250 1 0.830602 0.168651 0.465167
3200 1 0.84481 0.165076 0.465555
3210 1 0.848006 0.174403 0.460035
3555 1 0.860662 0.162318 0.462452
3347 1 0.873647 0.167602 0.46212
3197 1 0.864683 0.175942 0.456709
3206 1 0.890474 0.17067 0.458291
3216 1 0.907306 0.163442 0.456482
3474 1 0.798982 0.199684 0.462118
3185 1 0.807151 0.184963 0.463603
3120 1 0.8119 0.19631 0.460014
3416 1 0.835897 0.181633 0.461049
3199 1 0.822828 0.184675 0.462463
3122 1 0.823888 0.194572 0.45853
3562 1 0.838065 0.191691 0.457327
3421 1 0.854923 0.185323 0.455746
3334 1 0.877961 0.180161 0.455596
3248 1 0.779992 0.216707 0.464875
3255 1 0.767819 0.2176 0.465764
3425 1 0.789025 0.207065 0.465747
3191 1 0.792353 0.217533 0.460287
3340 1 0.804563 0.211113 0.459394
3264 1 0.814807 0.20866 0.457187
3261 1 0.828139 0.207055 0.454602
3329 1 0.755925 0.228081 0.465786
3402 1 0.779659 0.226668 0.459695
3613 1 0.768371 0.22991 0.464068
3477 1 0.790426 0.233105 0.456889
3128 1 0.816985 0.221342 0.454549
3258 1 0.804479 0.222996 0.45601
3463 1 0.756857 0.240298 0.464226
3126 1 0.75946 0.252924 0.463608
3194 1 0.767087 0.242622 0.460588
3400 1 0.769596 0.25572 0.46009
3253 1 0.78014 0.240898 0.45762
3195 1 0.793753 0.245414 0.455683
3465 1 0.783597 0.253426 0.457174
3269 1 0.799024 0.258568 0.454823
3327 1 0.768472 0.268768 0.464044
3540 1 0.78279 0.26733 0.45763
3628 1 0.793071 0.269884 0.454718
3675 1 0.77779 0.294998 0.457616
3605 1 0.766863 0.298084 0.462698
3531 1 0.774998 0.281332 0.460236
3607 1 0.790104 0.283597 0.455402
3614 1 0.766641 0.313252 0.460665
3336 1 0.776656 0.309303 0.457377
3877 1 0.757548 0.321117 0.46417
3479 1 0.776721 0.323526 0.458946
3685 1 0.767345 0.333073 0.462473
3678 1 0.784143 0.33146 0.455576
3478 1 0.777281 0.343107 0.461286
3468 1 0.774846 0.358166 0.465209
3683 1 0.764456 0.348703 0.464827
3738 1 0.788015 0.353392 0.459081
3686 1 0.79234 0.341295 0.45642
3606 1 0.798688 0.358471 0.457353
3823 1 0.77041 0.372856 0.465892
3742 1 0.783445 0.371541 0.460428
3680 1 0.795336 0.368161 0.456678
3550 1 0.778776 0.386885 0.460696
3972 1 0.766097 0.391511 0.465312
3619 1 0.793188 0.383999 0.458559
3751 1 0.790942 0.399902 0.457859
3817 1 0.802005 0.392405 0.455396
3833 1 0.759002 0.418923 0.465563
3752 1 0.778991 0.401032 0.462788
3973 1 0.768543 0.407386 0.464809
3696 1 0.780636 0.412942 0.460596
3895 1 0.796953 0.412067 0.456631
3617 1 0.754616 0.434427 0.465411
4185 1 0.771534 0.424063 0.462634
3901 1 0.767788 0.436088 0.462783
3830 1 0.782278 0.436149 0.461502
4040 1 0.788868 0.42288 0.45874
3902 1 0.797586 0.431694 0.458028
3905 1 0.807527 0.420251 0.455012
4044 1 0.811702 0.437023 0.455455
3687 1 0.764507 0.44936 0.464571
4041 1 0.777578 0.45169 0.463989
4177 1 0.793896 0.445698 0.460045
4115 1 0.789301 0.459987 0.46245
4103 1 0.806415 0.446576 0.45883
4184 1 0.817992 0.452834 0.454983
3971 1 0.781638 0.46986 0.462814
3903 1 0.799923 0.461841 0.460337
3976 1 0.792471 0.476043 0.462864
4117 1 0.812064 0.460408 0.458792
4116 1 0.808115 0.473023 0.460791
4315 1 0.819892 0.47883 0.458583
4119 1 0.822171 0.464093 0.45572
4053 1 0.832989 0.477628 0.455141
4459 1 0.79689 0.49108 0.465312
3978 1 0.780857 0.482783 0.465704
4246 1 0.807025 0.484778 0.461686
4051 1 0.819325 0.492927 0.462073
4194 1 0.830865 0.491222 0.458924
4059 1 0.845503 0.492096 0.45764
4254 1 0.857415 0.489727 0.45592
4193 1 0.870135 0.49577 0.458319
4124 1 0.899774 0.487579 0.455606
4195 1 0.89678 0.498687 0.459895
4125 1 0.885076 0.488643 0.456169
3988 1 0.915418 0.48633 0.454994
4327 1 0.911654 0.49528 0.458512
4261 1 0.929089 0.489843 0.456996
1264 1 0.938361 0.498114 0.463115
1193 1 0.922362 0.49979 0.461587
1261 1 0.942826 0.486677 0.455347
1267 1 0.953114 0.490925 0.459075
1196 1 0.964899 0.483744 0.454978
4197 1 0.978844 0.490383 0.457967
1130 1 0.967781 0.495543 0.45959
4266 1 0.992069 0.483019 0.456199
1200 1 0.995066 0.497667 0.459612
492 1 0.97869 0.0936513 0.473487
3008 1 0.988906 0.0882981 0.475081
2992 1 0.812343 0.119926 0.47449
3064 1 0.854094 0.113933 0.476848
3201 1 0.841501 0.11728 0.473099
3271 1 0.869018 0.105769 0.477128
3267 1 0.868663 0.118354 0.472885
3412 1 0.882288 0.108854 0.473352
3137 1 0.895539 0.108402 0.475685
3213 1 0.908673 0.107187 0.475372
3423 1 0.907427 0.118993 0.471609
3138 1 0.926996 0.107224 0.475809
3352 1 0.923073 0.118224 0.47129
212 1 0.941025 0.110266 0.473948
3003 1 0.953101 0.101814 0.476823
3 1 0.950425 0.117616 0.472188
422 1 0.961618 0.110092 0.473618
351 1 0.97264 0.102078 0.475025
3143 1 0.973876 0.114435 0.471254
3006 1 0.987171 0.10394 0.471716
3146 1 0.98747 0.117818 0.467522
3121 1 0.785712 0.13938 0.474812
3345 1 0.800849 0.120812 0.47542
3067 1 0.802784 0.134307 0.474739
2846 1 0.818976 0.134051 0.473517
2988 1 0.82465 0.12157 0.473676
3198 1 0.833708 0.133074 0.471689
3333 1 0.846419 0.130242 0.474566
3134 1 0.860203 0.127676 0.472217
3052 1 0.871149 0.131675 0.467705
3196 1 0.879718 0.123026 0.469936
3139 1 0.894409 0.121137 0.472839
3202 1 0.892101 0.134387 0.46822
3218 1 0.904083 0.132465 0.469343
2939 1 0.920025 0.13163 0.467904
3287 1 0.934061 0.136096 0.466412
3290 1 0.933227 0.123482 0.470745
421 1 0.950046 0.130653 0.467245
3145 1 0.96064 0.123904 0.469509
3149 1 0.978027 0.126084 0.46774
3314 1 0.756154 0.159828 0.475769
2913 1 0.769699 0.148225 0.476941
3059 1 0.781541 0.1515 0.47325
3050 1 0.791737 0.156626 0.470394
3337 1 0.797425 0.148314 0.473455
3270 1 0.809699 0.150514 0.471311
3263 1 0.829674 0.156763 0.468586
2980 1 0.825644 0.145417 0.471232
3559 1 0.838166 0.144883 0.47136
3399 1 0.856837 0.154268 0.468648
3273 1 0.850748 0.141023 0.470504
3125 1 0.844607 0.152461 0.467599
3331 1 0.879264 0.143022 0.467469
3268 1 0.863826 0.142192 0.469227
3343 1 0.75913 0.174491 0.473008
3315 1 0.772383 0.163378 0.471807
3182 1 0.770606 0.176096 0.470757
3054 1 0.79775 0.174267 0.46791
3117 1 0.784887 0.166513 0.470813
2991 1 0.815641 0.174156 0.466794
3124 1 0.802919 0.162817 0.469427
3554 1 0.818313 0.161201 0.469175
3190 1 0.752986 0.189026 0.473655
3522 1 0.740808 0.193712 0.47709
3181 1 0.766246 0.189216 0.470654
3338 1 0.779086 0.19514 0.467896
3123 1 0.795093 0.189907 0.466079
3272 1 0.782236 0.180444 0.469401
3609 1 0.738208 0.208861 0.476511
3257 1 0.755439 0.212513 0.469204
3374 1 0.74955 0.202437 0.472257
3260 1 0.774981 0.206839 0.467213
3262 1 0.763369 0.202028 0.468981
3118 1 0.737265 0.231935 0.475579
3533 1 0.743823 0.220553 0.471666
3179 1 0.746387 0.23598 0.469549
3332 1 0.739218 0.246237 0.472981
3188 1 0.726471 0.241849 0.476091
3251 1 0.731642 0.258239 0.474083
3328 1 0.749461 0.253834 0.468566
3459 1 0.733675 0.272631 0.474305
3391 1 0.741825 0.263624 0.471614
3393 1 0.74805 0.276737 0.470429
3524 1 0.756078 0.268485 0.466805
3388 1 0.735545 0.286418 0.474032
3679 1 0.749495 0.294347 0.468694
3394 1 0.760721 0.283761 0.46593
3739 1 0.734861 0.301622 0.475159
3535 1 0.730321 0.31889 0.47699
3600 1 0.723797 0.30896 0.476523
3672 1 0.754561 0.308333 0.468873
3878 1 0.741095 0.312738 0.474097
3810 1 0.737791 0.328736 0.474124
3254 1 0.745738 0.324465 0.469578
3615 1 0.753624 0.33636 0.466005
3961 1 0.733897 0.348008 0.477041
3808 1 0.741964 0.341671 0.472226
3666 1 0.752759 0.348822 0.470583
3677 1 0.744604 0.359361 0.474974
3807 1 0.731334 0.376015 0.477176
3541 1 0.75914 0.363256 0.46926
3889 1 0.746575 0.37652 0.472786
3820 1 0.759638 0.378545 0.468264
3881 1 0.739178 0.388787 0.472548
3872 1 0.729559 0.389007 0.47698
3892 1 0.750887 0.391048 0.470331
3888 1 0.712989 0.411273 0.47722
3885 1 0.736333 0.414007 0.469407
3950 1 0.72643 0.404106 0.474802
3754 1 0.721932 0.417087 0.472632
3811 1 0.739188 0.403264 0.469879
3758 1 0.752422 0.40821 0.467649
3886 1 0.689986 0.432636 0.476878
4038 1 0.716449 0.42982 0.472458
3745 1 0.707936 0.422738 0.475832
3890 1 0.701952 0.436932 0.474677
3760 1 0.733099 0.425344 0.470885
3690 1 0.748508 0.42242 0.466767
4112 1 0.741197 0.433118 0.468165
3743 1 0.698548 0.447904 0.472791
4310 1 0.683904 0.444963 0.47649
4026 1 0.685496 0.458524 0.474031
3762 1 0.70198 0.458822 0.471477
4036 1 0.712949 0.448583 0.471402
3684 1 0.725774 0.440927 0.47051
3967 1 0.735259 0.448438 0.469274
3763 1 0.725121 0.458228 0.469395
3966 1 0.75063 0.449274 0.466996
3964 1 0.678699 0.472086 0.475453
3951 1 0.693015 0.470491 0.472831
4032 1 0.708614 0.476174 0.471187
3688 1 0.712349 0.463145 0.470269
4101 1 0.725157 0.475086 0.468801
3837 1 0.757742 0.463085 0.467249
4045 1 0.753187 0.47527 0.468208
3969 1 0.740905 0.464471 0.468316
4107 1 0.767336 0.4781 0.46681
3824 1 0.772554 0.463381 0.46624
4154 1 0.68653 0.481266 0.473958
4043 1 0.68191 0.494042 0.475564
3893 1 0.697718 0.48563 0.47386
3764 1 0.714195 0.488418 0.471556
3822 1 0.729379 0.492491 0.469444
4181 1 0.740477 0.484152 0.468306
3898 1 0.756342 0.491185 0.467369
3897 1 0.744989 0.498258 0.467288
4187 1 0.770083 0.493947 0.466687
2929 1 0.801907 0.0589692 0.488087
2860 1 0.836656 0.0536953 0.488022
2870 1 0.849453 0.0548621 0.488117
5591 1 0.88964 0.0520206 0.488013
3055 1 0.907282 0.0585003 0.485631
5526 1 0.912903 0.0433658 0.488129
5528 1 0.950433 0.0578495 0.488034
141 1 0.97611 0.0575562 0.487789
5494 1 0.763766 0.0790948 0.488599
5555 1 0.777581 0.0667573 0.488109
2925 1 0.793039 0.0724964 0.486944
3135 1 0.81017 0.0692724 0.485131
3056 1 0.827716 0.0659552 0.487394
2842 1 0.842927 0.0700527 0.487252
3079 1 0.852023 0.0792349 0.485165
3000 1 0.857546 0.0662372 0.487338
2996 1 0.870103 0.0723085 0.486713
3144 1 0.88278 0.0708414 0.48567
2934 1 0.893587 0.0637253 0.486227
3203 1 0.896426 0.0755026 0.484282
2928 1 0.910114 0.0713367 0.485619
3075 1 0.928145 0.0741171 0.483696
2998 1 0.936221 0.0616281 0.487439
3065 1 0.921218 0.0610831 0.485863
3205 1 0.948247 0.0719106 0.484739
3002 1 0.960953 0.0784016 0.481532
3010 1 0.963472 0.0639368 0.485732
3072 1 0.974133 0.0707945 0.483412
3209 1 0.98397 0.0782189 0.479287
3001 1 0.985021 0.0658641 0.484599
288 1 0.997648 0.0725031 0.480623
3265 1 0.77652 0.0828619 0.486514
2982 1 0.768234 0.0971325 0.485687
5507 1 0.789079 0.0841331 0.484489
2909 1 0.797283 0.0976129 0.481942
2911 1 0.803954 0.0845929 0.484745
2910 1 0.815013 0.0953186 0.480933
3133 1 0.835771 0.0821656 0.485318
2845 1 0.821421 0.0820989 0.484072
2856 1 0.83057 0.0953004 0.481349
3344 1 0.844846 0.0919923 0.482977
3058 1 0.877023 0.0857393 0.484168
2858 1 0.861406 0.0952476 0.480835
3130 1 0.862598 0.0848543 0.484634
3207 1 0.872628 0.097197 0.482059
3275 1 0.898157 0.0949512 0.478256
3204 1 0.889288 0.0837607 0.481697
3068 1 0.883023 0.0964594 0.478182
2865 1 0.906694 0.0837119 0.480629
3283 1 0.915005 0.094213 0.478196
3217 1 0.917337 0.080039 0.48156
2932 1 0.938415 0.0831589 0.483146
3066 1 0.92762 0.090168 0.479861
3142 1 0.938108 0.0979925 0.478345
3005 1 0.94939 0.0871961 0.481361
2999 1 0.96294 0.0957801 0.478138
3136 1 0.972386 0.0842205 0.477898
3115 1 0.751129 0.105142 0.486078
3107 1 0.742569 0.117932 0.486519
2833 1 0.753505 0.117653 0.483704
3214 1 0.773779 0.111502 0.482781
2983 1 0.762578 0.108169 0.484536
3063 1 0.782735 0.1 0.483577
3111 1 0.787305 0.114143 0.477555
3053 1 0.798535 0.109541 0.47873
3129 1 0.809938 0.106764 0.479601
5570 1 0.822699 0.109526 0.477694
2843 1 0.83805 0.108826 0.479053
3061 1 0.851658 0.1027 0.479167
2971 1 0.736115 0.128976 0.486434
3041 1 0.75066 0.13048 0.482344
3193 1 0.774583 0.136542 0.478208
2981 1 0.76165 0.135515 0.480012
3335 1 0.776062 0.122554 0.47834
2986 1 0.764097 0.12417 0.481949
3132 1 0.791568 0.127027 0.47773
3319 1 0.730417 0.149783 0.485448
3322 1 0.739093 0.143704 0.483218
3033 1 0.742839 0.15528 0.481352
3452 1 0.753284 0.145738 0.47983
3313 1 0.730408 0.160525 0.487268
3386 1 0.724427 0.174283 0.486102
3325 1 0.73756 0.166795 0.482409
3457 1 0.732682 0.177967 0.481389
3178 1 0.746848 0.169971 0.477617
3384 1 0.716478 0.182914 0.486511
3518 1 0.720014 0.195938 0.485242
3034 1 0.729552 0.190107 0.481555
3044 1 0.742512 0.181053 0.477438
3324 1 0.716572 0.213956 0.485604
3318 1 0.708329 0.200517 0.487835
3392 1 0.733007 0.219664 0.479159
2970 1 0.729282 0.203503 0.481121
3379 1 0.713324 0.227237 0.486136
3321 1 0.70757 0.239263 0.485488
3189 1 0.721932 0.228666 0.480521
3413 1 0.702748 0.252763 0.485656
3525 1 0.714379 0.255269 0.480149
3397 1 0.716147 0.242163 0.481685
3259 1 0.691129 0.261589 0.488471
3730 1 0.693918 0.276879 0.485983
3595 1 0.706127 0.269554 0.482917
3604 1 0.719066 0.268493 0.478781
3519 1 0.700823 0.291768 0.483687
3870 1 0.7077 0.282716 0.481271
3602 1 0.72014 0.297711 0.479263
3527 1 0.723853 0.284856 0.477956
4006 1 0.699609 0.305483 0.484288
3530 1 0.687929 0.302636 0.487495
3529 1 0.707877 0.300516 0.480217
3815 1 0.703521 0.316131 0.481725
3737 1 0.714904 0.312618 0.480326
3746 1 0.694265 0.321181 0.487144
3542 1 0.689771 0.333734 0.487603
3538 1 0.706281 0.330679 0.483958
3676 1 0.718154 0.324995 0.479167
3671 1 0.727996 0.336255 0.47762
3544 1 0.697978 0.343426 0.488022
3935 1 0.697016 0.358477 0.48783
3747 1 0.718159 0.340633 0.482357
3757 1 0.708166 0.350614 0.484186
3831 1 0.720521 0.35296 0.481012
3948 1 0.693293 0.370746 0.487907
3736 1 0.717561 0.369326 0.481138
3947 1 0.708283 0.364503 0.48574
3812 1 0.731973 0.361395 0.478331
3819 1 0.685181 0.385327 0.48686
4007 1 0.695014 0.391111 0.482692
3883 1 0.716607 0.399392 0.478987
3809 1 0.703055 0.380607 0.484715
3887 1 0.715807 0.383527 0.481394
3528 1 0.705701 0.395931 0.480714
3750 1 0.679666 0.400258 0.486522
4074 1 0.674893 0.411704 0.485009
3806 1 0.691592 0.402374 0.483567
4005 1 0.68434 0.4191 0.481343
4027 1 0.700995 0.409581 0.480462
3821 1 0.671347 0.422477 0.48419
3818 1 0.663323 0.433168 0.484621
3896 1 0.67856 0.431411 0.479583
3937 1 0.660634 0.4201 0.488334
3682 1 0.696029 0.421129 0.477521
4091 1 0.646367 0.456612 0.488563
3748 1 0.658973 0.445152 0.486131
3882 1 0.672974 0.459731 0.478247
3891 1 0.661677 0.45538 0.483162
3749 1 0.672573 0.446525 0.480121
4078 1 0.638666 0.472091 0.486342
3884 1 0.651181 0.469781 0.482973
3816 1 0.662969 0.472546 0.478492
3827 1 0.636888 0.484215 0.485474
3954 1 0.635459 0.496939 0.485895
4011 1 0.648109 0.483482 0.483033
3753 1 0.649963 0.494787 0.480999
4029 1 0.657868 0.4849 0.480181
3963 1 0.671147 0.486561 0.477518
4231 1 0.66349 0.497049 0.479099
2963 1 0.720374 0.0119373 0.499165
5499 1 0.731632 0.00480229 0.496959
2967 1 0.731482 0.0191889 0.496101
5561 1 0.744682 0.0128946 0.493917
5429 1 0.752378 0.0026026 0.49343
2844 1 0.763829 0.00509214 0.492555
3051 1 0.760029 0.0191896 0.492692
2840 1 0.776285 0.00440655 0.493983
2901 1 0.793974 0.000623121 0.493797
2919 1 0.787984 0.0149511 0.493893
2989 1 0.804574 0.00062247 0.495957
3045 1 0.81379 0.00729877 0.495048
5574 1 0.801996 0.0152081 0.493383
2995 1 0.825132 0.0157 0.496918
2850 1 0.832004 0.00381409 0.497736
2914 1 0.843998 0.00995515 0.498808
5362 1 0.856792 0.0179565 0.497411
2855 1 0.871783 0.0174858 0.497058
2903 1 0.875685 0.00463775 0.499417
5431 1 0.886071 0.0172126 0.497115
2834 1 0.89969 0.0119116 0.497586
2921 1 0.911852 0.0161305 0.495389
5497 1 0.910946 0.00190969 0.499913
5580 1 0.921903 0.0100345 0.496497
2917 1 0.935904 0.00969013 0.497642
2923 1 0.953395 0.00480426 0.49966
5585 1 0.946442 0.0190999 0.495048
5582 1 0.965215 0.00565894 0.498012
2733 1 0.97582 0.0147239 0.497889
5593 1 0.962038 0.0181005 0.494922
2868 1 0.988635 0.014803 0.498057
2907 1 0.713501 0.0264782 0.498652
2993 1 0.735755 0.0302266 0.493747
2835 1 0.725623 0.0373852 0.497273
3037 1 0.748334 0.0232372 0.492314
5559 1 0.750652 0.0358943 0.49176
2836 1 0.763465 0.0346956 0.492195
2895 1 0.772761 0.0219734 0.492365
2927 1 0.775638 0.0372453 0.491349
3131 1 0.791068 0.0293354 0.490853
2825 1 0.804412 0.0308212 0.492612
2978 1 0.81617 0.0254687 0.494576
2918 1 0.816413 0.0387581 0.492376
5496 1 0.838515 0.0219559 0.496542
5571 1 0.829197 0.0291491 0.494141
2916 1 0.84858 0.0301813 0.493848
2915 1 0.862621 0.0322945 0.494746
2920 1 0.87608 0.0319306 0.494156
5500 1 0.889451 0.0304338 0.49434
3060 1 0.89442 0.0376229 0.489449
5437 1 0.89849 0.023025 0.494147
3071 1 0.906279 0.0330861 0.491815
2732 1 0.917788 0.0271281 0.49352
2859 1 0.930381 0.0221598 0.493992
3007 1 0.926129 0.0367878 0.489465
5449 1 0.939333 0.0356351 0.492494
2869 1 0.954084 0.0354987 0.493789
283 1 0.967515 0.0330201 0.492584
3073 1 0.977837 0.0273871 0.494697
358 1 0.992992 0.0254025 0.496151
3074 1 0.985052 0.0388224 0.492642
3032 1 0.690598 0.0518526 0.499503
2831 1 0.703871 0.0527968 0.498139
2966 1 0.712211 0.0427121 0.497127
3177 1 0.726793 0.0505753 0.49409
3039 1 0.738055 0.0434377 0.493501
3057 1 0.749352 0.0527503 0.492111
2994 1 0.774303 0.0526211 0.490157
2837 1 0.761923 0.0476567 0.492021
2906 1 0.783996 0.0452781 0.492274
2905 1 0.788014 0.0578635 0.48939
2908 1 0.799128 0.0438012 0.49084
2985 1 0.81776 0.0551743 0.4895
2926 1 0.828651 0.0418313 0.491662
2854 1 0.842168 0.0409195 0.491039
2924 1 0.854074 0.0445011 0.49077
2930 1 0.876214 0.0594165 0.489338
5592 1 0.868992 0.0420723 0.491931
5596 1 0.865236 0.0552693 0.488823
3062 1 0.879649 0.0438156 0.490158
2867 1 0.901211 0.0495011 0.489568
2931 1 0.928308 0.0491712 0.488817
142 1 0.941906 0.046221 0.490802
2937 1 0.974423 0.0439305 0.48987
3004 1 0.960164 0.0480034 0.489784
3078 1 0.990494 0.0520157 0.4902
3038 1 0.696082 0.0626844 0.498233
3175 1 0.689248 0.0734214 0.499506
3046 1 0.713487 0.0603505 0.495662
3244 1 0.706794 0.0707026 0.497611
2830 1 0.715381 0.0790106 0.496495
2912 1 0.735073 0.0617476 0.492605
2900 1 0.725049 0.0687045 0.495193
3049 1 0.7357 0.0770484 0.493738
3105 1 0.749431 0.0677458 0.492133
2977 1 0.762167 0.0649387 0.49049
3245 1 0.713132 0.0927359 0.496176
3316 1 0.702584 0.0955463 0.49925
3108 1 0.700821 0.0809659 0.498707
3027 1 0.728764 0.0887752 0.493708
3116 1 0.739771 0.0941333 0.492497
2979 1 0.755465 0.0923049 0.489312
2922 1 0.746684 0.0808431 0.490972
3113 1 0.700227 0.108969 0.498446
3256 1 0.712959 0.105726 0.497304
2838 1 0.715151 0.118209 0.495064
3048 1 0.724751 0.103502 0.493865
3047 1 0.738771 0.106138 0.489671
3387 1 0.726685 0.119838 0.490856
3320 1 0.695742 0.137441 0.498113
3184 1 0.703772 0.124089 0.49879
2984 1 0.71953 0.13142 0.48955
3311 1 0.727516 0.139925 0.48925
3389 1 0.691975 0.150052 0.498742
3252 1 0.708213 0.140344 0.494226
2990 1 0.718031 0.148079 0.489576
3040 1 0.704992 0.153895 0.494477
3382 1 0.694903 0.165795 0.496057
3380 1 0.694944 0.177683 0.496559
3112 1 0.708786 0.171515 0.491553
3456 1 0.718406 0.162311 0.489897
3312 1 0.693551 0.191145 0.497897
3098 1 0.697491 0.198389 0.493197
3167 1 0.704339 0.187031 0.490266
3377 1 0.683756 0.218101 0.499189
3451 1 0.696541 0.212049 0.496282
3458 1 0.686046 0.205446 0.499642
3306 1 0.70536 0.211864 0.490434
3610 1 0.697789 0.238676 0.491496
3242 1 0.691718 0.223831 0.495005
3460 1 0.687564 0.236915 0.495147
3663 1 0.702135 0.224753 0.490346
3323 1 0.6759 0.246651 0.496724
3326 1 0.680747 0.257538 0.494045
3601 1 0.690424 0.247249 0.49204
3455 1 0.672282 0.264339 0.496562
3729 1 0.666329 0.27597 0.497812
3454 1 0.681914 0.272288 0.491837
3597 1 0.653767 0.298229 0.498474
3791 1 0.663679 0.2917 0.496506
3873 1 0.67467 0.283428 0.4924
3669 1 0.678939 0.295908 0.491643
3733 1 0.690037 0.289316 0.489578
3859 1 0.651292 0.311637 0.497979
3598 1 0.664766 0.318759 0.494387
3798 1 0.665302 0.305654 0.494621
3794 1 0.677113 0.310865 0.491382
3864 1 0.656814 0.329199 0.498114
3740 1 0.666942 0.338753 0.494675
3875 1 0.672952 0.328636 0.49198
3944 1 0.68206 0.32258 0.489253
3874 1 0.653036 0.342995 0.499346
3735 1 0.646027 0.357867 0.499455
3670 1 0.657912 0.354282 0.495909
3664 1 0.674171 0.351863 0.494784
3814 1 0.680229 0.340058 0.490506
3813 1 0.685872 0.350913 0.490426
3668 1 0.657029 0.369498 0.496929
4142 1 0.643633 0.371563 0.499185
3796 1 0.669543 0.365597 0.495146
3962 1 0.679094 0.37852 0.491066
3608 1 0.683072 0.364775 0.49172
4144 1 0.636905 0.385461 0.499671
4070 1 0.629845 0.396514 0.49968
4003 1 0.643514 0.395796 0.497972
4143 1 0.650034 0.384513 0.496209
4080 1 0.657945 0.396509 0.494748
3871 1 0.664722 0.381203 0.494457
3741 1 0.670063 0.391702 0.48981
4033 1 0.624087 0.411175 0.498002
3867 1 0.638978 0.407035 0.497193
3722 1 0.651704 0.409368 0.494983
4002 1 0.647034 0.419335 0.49324
3945 1 0.666286 0.406622 0.489626
4162 1 0.608913 0.435111 0.497234
4076 1 0.600174 0.427177 0.499309
3959 1 0.634956 0.420454 0.495242
4209 1 0.620438 0.424245 0.495876
3957 1 0.639127 0.43238 0.494298
4087 1 0.62688 0.436475 0.495981
3940 1 0.65053 0.430438 0.489934
4073 1 0.616996 0.445692 0.495985
4008 1 0.60075 0.450708 0.498646
3880 1 0.621602 0.457382 0.493
3941 1 0.632658 0.448276 0.493375
4149 1 0.645581 0.445426 0.490026
3936 1 0.608892 0.461278 0.495404
3938 1 0.600825 0.47157 0.498897
4018 1 0.614005 0.474444 0.493591
4013 1 0.633817 0.46054 0.489687
4020 1 0.627023 0.472617 0.491361
3879 1 0.613588 0.485717 0.493534
4218 1 0.602125 0.484413 0.497177
4022 1 0.613537 0.496637 0.493238
3949 1 0.623488 0.498461 0.489549
3952 1 0.625573 0.484689 0.488773
2951 1 0.633391 0.0134716 0.5109
3035 1 0.639824 0.0009279 0.50863
3092 1 0.647792 0.0131446 0.50884
2894 1 0.660218 0.0059728 0.506285
2820 1 0.673034 0.00872705 0.503499
2962 1 0.688287 0.0122998 0.501379
2899 1 0.698469 0.00214993 0.50232
2904 1 0.706936 0.016046 0.500625
2893 1 0.710526 0.0022635 0.50132
5576 1 0.860533 0.00633121 0.50077
73 1 0.998297 0.00110624 0.500128
3114 1 0.641015 0.022609 0.509086
2804 1 0.645457 0.0329939 0.5097
2950 1 0.653726 0.0232125 0.50716
3021 1 0.658985 0.0374271 0.506005
3173 1 0.665018 0.0204244 0.504776
2974 1 0.67039 0.0339687 0.503357
2812 1 0.680757 0.0215874 0.502026
2972 1 0.683598 0.0350782 0.501623
2826 1 0.696668 0.0250815 0.501552
2898 1 0.699602 0.0384432 0.500294
3100 1 0.638724 0.0558222 0.510446
3042 1 0.648336 0.0457135 0.508844
3171 1 0.651038 0.0579705 0.508814
3109 1 0.661777 0.0504016 0.506342
5478 1 0.676893 0.0470036 0.502903
3246 1 0.658764 0.0683636 0.509322
3022 1 0.647863 0.0779536 0.510198
3095 1 0.669336 0.0624203 0.50617
3101 1 0.677832 0.0738425 0.505091
2954 1 0.665488 0.0786639 0.507832
3183 1 0.681867 0.0620516 0.501064
2829 1 0.653098 0.0919424 0.509763
3180 1 0.667334 0.0928417 0.50727
3019 1 0.678278 0.0864263 0.502881
3187 1 0.679151 0.0995694 0.503128
3097 1 0.690825 0.0905893 0.501188
3235 1 0.653252 0.106273 0.509978
3247 1 0.668553 0.108672 0.506929
3176 1 0.68224 0.115995 0.502267
3249 1 0.688776 0.104889 0.501057
3303 1 0.656785 0.121325 0.509878
3304 1 0.657237 0.137958 0.507586
3240 1 0.668387 0.125075 0.506494
3119 1 0.671255 0.136737 0.505241
3442 1 0.692224 0.123574 0.500469
3381 1 0.682354 0.131706 0.502386
3376 1 0.655873 0.15242 0.509001
3307 1 0.645096 0.15759 0.509983
3238 1 0.668565 0.14912 0.504909
3305 1 0.680801 0.147085 0.502773
3309 1 0.647405 0.172696 0.509959
3239 1 0.672474 0.161309 0.504573
3511 1 0.660048 0.165147 0.507168
3445 1 0.671036 0.173062 0.503943
3317 1 0.684149 0.175386 0.500694
3236 1 0.683536 0.160994 0.500591
3590 1 0.658624 0.18144 0.507047
3521 1 0.651302 0.191914 0.510986
3515 1 0.664503 0.199322 0.506689
3450 1 0.670624 0.185241 0.503403
3599 1 0.675443 0.196715 0.503236
3591 1 0.683298 0.189156 0.500141
3385 1 0.659378 0.21136 0.50902
3461 1 0.673119 0.211144 0.50428
3804 1 0.654727 0.235187 0.506693
3532 1 0.663968 0.225014 0.505028
3667 1 0.677067 0.230494 0.500048
3383 1 0.655211 0.249671 0.504463
3588 1 0.644467 0.250249 0.510138
3724 1 0.666122 0.241558 0.501899
3665 1 0.665953 0.25635 0.500693
3537 1 0.636484 0.264059 0.510369
4071 1 0.631745 0.278009 0.510919
3865 1 0.64938 0.261974 0.505449
3732 1 0.65875 0.269535 0.502069
3656 1 0.646244 0.274725 0.506897
3726 1 0.633445 0.293095 0.50987
3526 1 0.654326 0.285265 0.50218
3801 1 0.644517 0.289083 0.505297
4065 1 0.619653 0.315803 0.510333
3731 1 0.635055 0.307629 0.507478
3734 1 0.62187 0.303644 0.511319
3866 1 0.642551 0.301287 0.502874
3930 1 0.643777 0.319076 0.502406
4067 1 0.61615 0.330916 0.508038
3856 1 0.607744 0.338723 0.510653
4141 1 0.632496 0.324685 0.507495
3876 1 0.626864 0.33749 0.504228
3802 1 0.643158 0.332118 0.501873
3649 1 0.577995 0.356769 0.51116
3723 1 0.588548 0.355965 0.507022
4139 1 0.59156 0.343224 0.51106
3991 1 0.617128 0.347686 0.507307
3994 1 0.604226 0.354738 0.507057
4010 1 0.639841 0.345143 0.500556
3998 1 0.630393 0.352782 0.503567
1253 1 0.52592 0.370734 0.510757
1049 1 0.53972 0.374022 0.510245
4138 1 0.570085 0.367654 0.510572
1120 1 0.574511 0.379192 0.507037
1119 1 0.561176 0.379709 0.50964
3928 1 0.584317 0.371455 0.507589
4137 1 0.600296 0.36959 0.506086
4146 1 0.617245 0.360065 0.504876
3718 1 0.611928 0.374208 0.504246
3931 1 0.627751 0.374064 0.501516
3721 1 0.633182 0.363043 0.501349
3783 1 0.522295 0.390954 0.511202
1391 1 0.532004 0.386963 0.511083
1186 1 0.538701 0.399416 0.50986
3923 1 0.54822 0.387682 0.509081
4075 1 0.576346 0.394276 0.504778
3927 1 0.56222 0.39358 0.506542
1327 1 0.590879 0.383087 0.504974
4063 1 0.594329 0.397232 0.504033
4150 1 0.603502 0.385644 0.504368
4017 1 0.612699 0.393116 0.502682
3939 1 0.623004 0.386167 0.501328
3789 1 0.526812 0.405037 0.509024
1183 1 0.544768 0.412982 0.511071
1457 1 0.55308 0.400484 0.509117
1184 1 0.558191 0.415236 0.509162
3573 1 0.577255 0.413978 0.505797
1257 1 0.567913 0.406314 0.506875
3999 1 0.585392 0.40509 0.5044
4213 1 0.594891 0.414385 0.503376
3860 1 0.602367 0.403158 0.501154
3942 1 0.608796 0.417563 0.500653
4151 1 0.616541 0.403171 0.500324
4212 1 0.557475 0.429694 0.510036
3995 1 0.572288 0.424537 0.50791
4064 1 0.579979 0.43249 0.507642
4062 1 0.589168 0.424627 0.504399
4202 1 0.592072 0.438186 0.502562
3993 1 0.54786 0.440317 0.510811
3926 1 0.556582 0.44761 0.510608
3996 1 0.565003 0.440777 0.50776
3997 1 0.57634 0.444125 0.504266
4077 1 0.571855 0.454679 0.506854
4349 1 0.587113 0.450296 0.503353
4135 1 0.557961 0.460202 0.510672
4000 1 0.563444 0.470589 0.50881
4214 1 0.575949 0.468145 0.506532
4201 1 0.596848 0.460588 0.500541
4165 1 0.585827 0.460808 0.504543
4015 1 0.589251 0.475026 0.502568
4203 1 0.578196 0.482957 0.506028
4219 1 0.56462 0.483768 0.508204
1400 1 0.570807 0.495846 0.506006
4282 1 0.591452 0.491403 0.500521
2879 1 0.573143 0.00214198 0.520082
2805 1 0.561402 0.0127011 0.521918
2872 1 0.579155 0.0128158 0.51956
2802 1 0.585191 0.00158388 0.51668
2885 1 0.591802 0.0127945 0.517918
2960 1 0.617242 0.00779424 0.512244
139 1 0.605259 0.00374378 0.51294
5542 1 0.604709 0.0173841 0.515258
5545 1 0.556232 0.0272403 0.522618
3017 1 0.568975 0.0220079 0.521268
3018 1 0.571306 0.0330824 0.51931
2877 1 0.585752 0.023992 0.517828
2956 1 0.599127 0.0301369 0.515669
2810 1 0.611093 0.0339128 0.514995
2957 1 0.618397 0.0210982 0.512494
2902 1 0.628583 0.0301093 0.512234
5532 1 0.576481 0.0461483 0.520556
2807 1 0.566012 0.0532174 0.521945
3233 1 0.58862 0.040071 0.517625
3162 1 0.589092 0.0561084 0.518673
2955 1 0.601285 0.044279 0.5162
2876 1 0.612585 0.0509108 0.514997
3104 1 0.636043 0.0433085 0.511487
2958 1 0.622427 0.0430701 0.512077
3161 1 0.626327 0.0587032 0.512059
5531 1 0.59115 0.0680555 0.520445
2890 1 0.603112 0.0601217 0.517917
2814 1 0.603499 0.0738167 0.517279
140 1 0.614799 0.067336 0.512932
2953 1 0.639766 0.0664103 0.512822
3024 1 0.620051 0.0796054 0.51458
2952 1 0.630573 0.0747418 0.512926
3023 1 0.595642 0.0849793 0.520445
2969 1 0.597866 0.096628 0.520994
3390 1 0.609618 0.0900863 0.516289
3025 1 0.637313 0.0856004 0.512905
3030 1 0.625381 0.0936874 0.513949
3169 1 0.641231 0.0976834 0.512293
3229 1 0.615063 0.102724 0.518132
3172 1 0.603284 0.113017 0.521025
3440 1 0.61822 0.118247 0.518439
3166 1 0.630143 0.108302 0.514935
3026 1 0.644531 0.116014 0.512199
3371 1 0.599855 0.124101 0.522651
3157 1 0.611342 0.129417 0.520632
3523 1 0.621772 0.136059 0.519016
3241 1 0.633449 0.138576 0.515862
3308 1 0.632302 0.124971 0.515509
3106 1 0.644897 0.13048 0.511968
3302 1 0.616594 0.15194 0.518937
3373 1 0.605066 0.142909 0.521166
3174 1 0.631804 0.153086 0.516824
3094 1 0.644662 0.143163 0.513441
3243 1 0.619693 0.166968 0.518525
3446 1 0.607983 0.162814 0.521966
3444 1 0.632739 0.167865 0.514827
3448 1 0.612965 0.181254 0.521613
3375 1 0.638108 0.183721 0.514798
3593 1 0.63674 0.196772 0.516892
3170 1 0.624944 0.183036 0.518366
3234 1 0.614659 0.210767 0.521706
3580 1 0.621929 0.201248 0.520787
3441 1 0.624202 0.219648 0.519058
3594 1 0.633314 0.209699 0.518115
3589 1 0.639999 0.217722 0.514715
3654 1 0.648225 0.206402 0.512152
3653 1 0.598815 0.234813 0.522695
3520 1 0.607505 0.223839 0.521943
769 1 0.617594 0.23035 0.519035
3582 1 0.633407 0.227436 0.516157
3517 1 0.648433 0.223357 0.511432
3659 1 0.641461 0.236806 0.512077
3586 1 0.610212 0.241126 0.519529
3805 1 0.600469 0.253326 0.521222
3803 1 0.616911 0.251133 0.517017
3657 1 0.627161 0.240446 0.516334
3658 1 0.627483 0.255842 0.514503
3226 1 0.503978 0.274966 0.520563
3504 1 0.593759 0.262159 0.521328
3453 1 0.610593 0.260597 0.51817
3584 1 0.6039 0.270067 0.519775
4140 1 0.613709 0.276819 0.516379
3862 1 0.621334 0.267975 0.513826
3648 1 0.500169 0.295478 0.519973
980 1 0.511059 0.288463 0.519943
3510 1 0.524906 0.294279 0.521196
3508 1 0.520194 0.281423 0.521461
3786 1 0.596104 0.294205 0.520058
3592 1 0.590141 0.280549 0.522503
3852 1 0.613113 0.294666 0.516008
3933 1 0.605041 0.286266 0.518877
3932 1 0.620053 0.285919 0.512946
3577 1 0.504247 0.31145 0.518659
3992 1 0.514511 0.303912 0.519111
4001 1 0.525405 0.312022 0.519964
3799 1 0.538602 0.301364 0.522008
3790 1 0.552983 0.306029 0.521398
3792 1 0.541743 0.313704 0.520023
3579 1 0.577684 0.317176 0.520788
3934 1 0.561012 0.316855 0.520468
4068 1 0.592671 0.319205 0.516248
3800 1 0.599689 0.307024 0.518197
3514 1 0.586241 0.306859 0.521192
3869 1 0.609649 0.31166 0.514857
3655 1 0.517316 0.320189 0.518272
836 1 0.502987 0.323908 0.517479
3861 1 0.512522 0.334055 0.51556
3795 1 0.533731 0.321092 0.517526
3652 1 0.526578 0.333872 0.515589
3571 1 0.540076 0.33506 0.51508
1254 1 0.548939 0.323088 0.518919
764 1 0.556813 0.338606 0.516968
4072 1 0.579582 0.332494 0.516168
4004 1 0.567926 0.328572 0.518385
3855 1 0.592172 0.332048 0.514174
3858 1 0.605343 0.323591 0.513526
3711 1 0.505062 0.353719 0.514065
3717 1 0.515844 0.346794 0.514432
3851 1 0.519986 0.358672 0.512608
3644 1 0.529844 0.34754 0.514689
3857 1 0.537594 0.359625 0.513986
4131 1 0.54682 0.346402 0.515075
4061 1 0.56252 0.353693 0.513324
4069 1 0.568337 0.342059 0.515595
3863 1 0.580334 0.345121 0.513423
979 1 0.510184 0.364648 0.513962
978 1 0.512701 0.37892 0.511413
1326 1 0.553619 0.364807 0.511429
3924 1 0.504827 0.389208 0.512557
413 1 0.504583 0.410073 0.513717
3925 1 0.514388 0.401549 0.511428
1462 1 0.515898 0.417631 0.512601
1456 1 0.529515 0.416715 0.511727
3781 1 0.500774 0.424454 0.514093
1394 1 0.512 0.432427 0.514667
1042 1 0.526464 0.432933 0.512745
3929 1 0.541638 0.426677 0.511957
1330 1 0.507739 0.447964 0.51853
1455 1 0.520669 0.443688 0.516613
4136 1 0.528724 0.457804 0.515787
1385 1 0.538835 0.443814 0.514922
1399 1 0.545672 0.45958 0.512854
1320 1 0.502383 0.464169 0.520433
1259 1 0.515495 0.464373 0.518879
4272 1 0.505614 0.478341 0.520962
1323 1 0.526433 0.473271 0.518052
1537 1 0.540392 0.46807 0.515941
4273 1 0.551556 0.475372 0.512515
1398 1 0.513094 0.496049 0.521191
4066 1 0.517842 0.483137 0.5183
4279 1 0.537862 0.482757 0.516357
4278 1 0.528808 0.496552 0.517496
1468 1 0.542467 0.496376 0.513365
4207 1 0.554162 0.485136 0.511812
2656 1 0.506339 0.00535311 0.529095
2792 1 0.536265 0.0104172 0.528236
5468 1 0.520249 0.0112769 0.529048
5481 1 0.548104 0.00347259 0.523868
57 1 0.5482 0.0181615 0.525932
278 1 0.506443 0.0244831 0.529873
3091 1 0.50079 0.0379336 0.528448
5535 1 0.519013 0.0253564 0.530324
2798 1 0.53259 0.022936 0.528053
193 1 0.529918 0.0348741 0.531255
280 1 0.545719 0.0353736 0.526485
60 1 0.516187 0.0420162 0.53145
3083 1 0.507509 0.0517523 0.530866
64 1 0.523762 0.054946 0.532045
2808 1 0.535888 0.0465571 0.52967
67 1 0.551783 0.048634 0.52452
2941 1 0.561814 0.0401128 0.523326
69 1 0.500086 0.0767171 0.529818
3090 1 0.507851 0.0646399 0.53129
489 1 0.512508 0.0782086 0.530872
2803 1 0.519249 0.0679032 0.531301
3299 1 0.535178 0.0614055 0.530626
3232 1 0.529024 0.0740923 0.532414
2806 1 0.542052 0.0735333 0.531741
2871 1 0.550996 0.0611949 0.527427
3228 1 0.552714 0.0758759 0.527607
2878 1 0.579215 0.0630947 0.522957
2873 1 0.564078 0.0679582 0.524932
2948 1 0.568145 0.078723 0.525687
2874 1 0.581214 0.0798897 0.523355
209 1 0.500104 0.0924729 0.530771
345 1 0.513592 0.0932425 0.530217
137 1 0.527801 0.0865639 0.531364
3368 1 0.540208 0.0867628 0.531393
3016 1 0.556048 0.0891785 0.53093
3084 1 0.569106 0.0918721 0.527277
3103 1 0.585665 0.0968059 0.525178
419 1 0.513326 0.106624 0.530433
2942 1 0.507384 0.119302 0.530043
3012 1 0.530475 0.101911 0.531118
558 1 0.539175 0.113609 0.531753
133 1 0.523578 0.113059 0.531421
3014 1 0.546449 0.102618 0.532804
3156 1 0.558899 0.103266 0.530578
3093 1 0.553599 0.117026 0.532682
3087 1 0.572728 0.102975 0.52982
3230 1 0.568911 0.118025 0.530219
3081 1 0.58225 0.111973 0.52867
3096 1 0.593466 0.111888 0.524073
3301 1 0.506155 0.136121 0.530993
469 1 0.519287 0.12511 0.53064
410 1 0.529541 0.13111 0.531292
414 1 0.539901 0.12776 0.530842
3158 1 0.559059 0.13087 0.530295
403 1 0.546044 0.138611 0.529692
3227 1 0.570725 0.129803 0.52913
3237 1 0.586512 0.125257 0.525751
3449 1 0.592092 0.136714 0.5236
210 1 0.5183 0.142096 0.530526
483 1 0.509625 0.153083 0.5295
3366 1 0.523607 0.155218 0.529551
3297 1 0.531232 0.144177 0.529868
3085 1 0.558381 0.144306 0.529261
420 1 0.541743 0.151265 0.529883
3221 1 0.55353 0.156099 0.528855
3447 1 0.570205 0.145328 0.527828
3438 1 0.565808 0.158957 0.528205
3159 1 0.58216 0.14262 0.526231
3164 1 0.580546 0.15584 0.526058
3089 1 0.59476 0.152585 0.523658
3439 1 0.506983 0.168757 0.530226
350 1 0.518856 0.167595 0.529144
3088 1 0.534567 0.161245 0.529802
2945 1 0.531913 0.174338 0.529222
487 1 0.547133 0.167467 0.528828
549 1 0.543898 0.178781 0.527891
3099 1 0.560089 0.174565 0.528678
3163 1 0.578556 0.171994 0.526867
3369 1 0.592171 0.166049 0.523712
3165 1 0.587746 0.17945 0.526639
3378 1 0.601262 0.175626 0.524091
548 1 0.51571 0.180388 0.528709
3502 1 0.503066 0.189343 0.527026
3154 1 0.515913 0.196766 0.526838
3443 1 0.527472 0.185363 0.528077
3292 1 0.529252 0.199164 0.528199
628 1 0.538662 0.191888 0.528005
3160 1 0.554685 0.191179 0.527969
3727 1 0.571019 0.186079 0.526641
3437 1 0.568691 0.198319 0.52838
3516 1 0.583373 0.194601 0.52668
3513 1 0.598331 0.187763 0.526194
3581 1 0.610711 0.194321 0.522751
3222 1 0.50087 0.20323 0.526377
3507 1 0.518607 0.209503 0.526657
3574 1 0.509928 0.218388 0.525868
768 1 0.532424 0.212396 0.527768
3506 1 0.556222 0.205491 0.527811
3370 1 0.542889 0.204896 0.527512
910 1 0.54759 0.21847 0.529136
3509 1 0.561308 0.216526 0.529833
3505 1 0.571647 0.209502 0.528398
3587 1 0.595727 0.201521 0.526995
3512 1 0.587139 0.210252 0.52756
3642 1 0.597428 0.218426 0.524985
3660 1 0.604792 0.205828 0.523593
3645 1 0.516006 0.237553 0.525863
627 1 0.504053 0.231323 0.527353
490 1 0.524523 0.228182 0.527775
3153 1 0.536611 0.2236 0.52769
3433 1 0.550609 0.232866 0.529001
3578 1 0.566843 0.227827 0.528532
3720 1 0.577051 0.237976 0.526965
3646 1 0.577969 0.22272 0.528263
3585 1 0.589687 0.227513 0.526729
3501 1 0.505988 0.24682 0.525492
3362 1 0.533086 0.258139 0.525696
3231 1 0.533563 0.240403 0.526994
554 1 0.520243 0.251191 0.525429
3576 1 0.547574 0.250995 0.527546
3575 1 0.562014 0.255542 0.527414
3596 1 0.57387 0.250871 0.526707
3651 1 0.562149 0.240606 0.52874
3661 1 0.588031 0.245912 0.524449
3647 1 0.506282 0.260551 0.524375
3641 1 0.519799 0.267228 0.523393
907 1 0.534129 0.273062 0.526342
3372 1 0.552466 0.267496 0.527694
3291 1 0.560789 0.278256 0.525079
3367 1 0.571223 0.265598 0.525362
3728 1 0.576693 0.279033 0.523641
3310 1 0.582471 0.262678 0.524533
3785 1 0.535402 0.288197 0.523975
3662 1 0.551955 0.292445 0.524159
3793 1 0.546046 0.280479 0.525384
3725 1 0.564644 0.292886 0.525253
4205 1 0.582364 0.296158 0.524885
3853 1 0.568233 0.30732 0.523147
4383 1 0.815418 0.514028 0.46541
4128 1 0.808647 0.501586 0.463609
4245 1 0.824948 0.506642 0.462633
4028 1 0.837256 0.503605 0.460533
4319 1 0.833572 0.519878 0.464802
4123 1 0.85858 0.502868 0.46019
4058 1 0.844847 0.511967 0.463168
3906 1 0.857142 0.519207 0.463811
4191 1 0.868917 0.512245 0.463282
4318 1 0.88187 0.506247 0.462974
4332 1 0.896446 0.510393 0.464342
4257 1 0.910499 0.509053 0.462722
4263 1 0.928749 0.509098 0.464786
4330 1 0.953302 0.504673 0.463127
1331 1 0.971826 0.506778 0.463194
1275 1 0.984877 0.501531 0.462082
4054 1 0.793028 0.525361 0.464663
4390 1 0.795757 0.537426 0.465802
4395 1 0.806864 0.529806 0.465398
4518 1 0.821003 0.523856 0.464657
4525 1 0.830202 0.536406 0.465887
3970 1 0.844591 0.527782 0.464136
4323 1 0.861066 0.533497 0.46493
4251 1 0.884163 0.520554 0.465862
3981 1 0.845336 0.541438 0.465392
4037 1 0.675325 0.503645 0.47679
4035 1 0.691624 0.500802 0.473937
4095 1 0.685961 0.513571 0.476802
4163 1 0.698669 0.515046 0.474352
4109 1 0.714792 0.50529 0.471127
4105 1 0.711444 0.51705 0.470641
4096 1 0.70351 0.50128 0.472541
4106 1 0.728053 0.505506 0.468695
4102 1 0.739731 0.508353 0.467358
3759 1 0.724423 0.518537 0.468468
4042 1 0.752211 0.514508 0.467649
4111 1 0.756604 0.503425 0.468032
4176 1 0.770003 0.507809 0.468777
4047 1 0.794808 0.508906 0.466286
4179 1 0.780591 0.515148 0.466531
4121 1 0.785998 0.500206 0.466352
1262 1 0.805007 0.517245 0.466263
4325 1 0.916513 0.51858 0.46591
4477 1 0.943733 0.511414 0.466449
4265 1 0.96138 0.51361 0.466632
4192 1 0.978957 0.515606 0.466232
4196 1 0.992636 0.51211 0.466509
4100 1 0.701081 0.52854 0.474197
4178 1 0.713364 0.529856 0.471805
4110 1 0.709226 0.539468 0.4745
4599 1 0.737444 0.522271 0.468356
3832 1 0.72649 0.53181 0.470643
4240 1 0.739239 0.536778 0.469435
4247 1 0.749357 0.528482 0.468782
4174 1 0.765104 0.521902 0.467053
4108 1 0.762267 0.535966 0.46832
4321 1 0.778274 0.528973 0.467232
4243 1 0.81415 0.539755 0.466413
4048 1 0.870768 0.526032 0.46604
4256 1 0.883288 0.538128 0.468583
4189 1 0.893144 0.531643 0.469236
4389 1 0.901897 0.521855 0.46736
4264 1 0.911352 0.529805 0.470813
4392 1 0.928412 0.52624 0.468927
4120 1 0.922562 0.536664 0.473117
4329 1 0.951712 0.520352 0.4688
4259 1 0.940269 0.522548 0.468856
4465 1 0.944305 0.534401 0.470886
4393 1 0.957823 0.530418 0.471228
4262 1 0.967732 0.524562 0.46913
4337 1 0.975585 0.534876 0.475309
4326 1 0.963213 0.539259 0.474562
1335 1 0.997208 0.521274 0.47031
1689 1 0.993332 0.537323 0.475431
4394 1 0.984433 0.52629 0.471472
4092 1 0.695181 0.540867 0.476581
4171 1 0.707116 0.55432 0.475775
4379 1 0.721052 0.549867 0.474228
4249 1 0.737334 0.550144 0.472412
4098 1 0.751119 0.544509 0.469344
4167 1 0.747072 0.557433 0.470766
4241 1 0.764885 0.554987 0.469243
4104 1 0.772854 0.542857 0.467702
4039 1 0.780072 0.558046 0.467666
4173 1 0.78549 0.54507 0.467186
4308 1 0.792599 0.559815 0.466889
4114 1 0.801756 0.548939 0.466644
4175 1 0.81573 0.555296 0.46635
4521 1 0.826291 0.55058 0.46758
4188 1 0.838893 0.551307 0.469209
4320 1 0.857244 0.547955 0.469663
4385 1 0.871546 0.541596 0.469247
4334 1 0.874336 0.552716 0.473224
4244 1 0.860513 0.558615 0.474827
4186 1 0.886886 0.546214 0.474162
4324 1 0.897738 0.556148 0.475946
4398 1 0.900267 0.541615 0.472552
4255 1 0.912857 0.549738 0.474998
4122 1 0.933826 0.541144 0.47498
4130 1 0.92354 0.554646 0.477213
4339 1 0.949739 0.544978 0.475941
4460 1 0.983027 0.545594 0.477104
4368 1 0.707245 0.571513 0.47702
4382 1 0.734836 0.562609 0.472875
4307 1 0.721143 0.565216 0.474866
4299 1 0.732385 0.575708 0.470995
4097 1 0.746424 0.57093 0.469758
4238 1 0.758788 0.569093 0.469346
4314 1 0.771468 0.568957 0.468428
4387 1 0.786592 0.57156 0.468913
4376 1 0.805029 0.564996 0.467431
4386 1 0.810302 0.576124 0.469759
4313 1 0.831638 0.563289 0.469402
4524 1 0.821546 0.568726 0.468958
4317 1 0.838581 0.574975 0.47271
4517 1 0.826635 0.579386 0.471864
4250 1 0.848833 0.562064 0.472923
4522 1 0.85282 0.571553 0.475462
4469 1 0.869721 0.566846 0.475939
4605 1 0.864024 0.578535 0.477156
4375 1 0.711005 0.592067 0.477176
4583 1 0.720623 0.581705 0.473616
4164 1 0.725555 0.598956 0.473701
4239 1 0.734501 0.588187 0.471177
4242 1 0.747213 0.583665 0.468577
4457 1 0.756477 0.597951 0.471134
4445 1 0.776397 0.58251 0.469033
4450 1 0.764681 0.586047 0.470271
4306 1 0.772378 0.598417 0.47131
4373 1 0.796196 0.581323 0.468626
4182 1 0.787817 0.592591 0.471269
4381 1 0.802336 0.591058 0.470545
4515 1 0.817755 0.587338 0.471651
4520 1 0.828145 0.595655 0.473158
4453 1 0.83709 0.587572 0.474213
4455 1 0.851742 0.585838 0.475808
4170 1 0.716429 0.610223 0.476981
4222 1 0.732153 0.614819 0.474167
4369 1 0.74001 0.601318 0.471664
4443 1 0.748798 0.611408 0.47045
4311 1 0.763942 0.614067 0.471684
4227 1 0.781881 0.61005 0.471416
4669 1 0.792373 0.618845 0.473035
4388 1 0.798742 0.607052 0.472101
4372 1 0.812893 0.603424 0.473642
4514 1 0.809213 0.615149 0.474289
4592 1 0.825248 0.611668 0.474203
4172 1 0.839047 0.609012 0.476457
4591 1 0.844397 0.600011 0.474988
4440 1 0.716886 0.636521 0.476967
4653 1 0.72423 0.625561 0.476432
4377 1 0.736378 0.634169 0.474351
4374 1 0.742663 0.621863 0.472463
4234 1 0.750542 0.634303 0.47234
4519 1 0.75525 0.623207 0.470837
4380 1 0.772127 0.625016 0.470799
4809 1 0.783824 0.627422 0.472857
4590 1 0.798573 0.636227 0.474105
4391 1 0.803109 0.624723 0.473195
4677 1 0.81275 0.633102 0.475476
4448 1 0.8195 0.621989 0.474947
4731 1 0.829427 0.626316 0.476721
4812 1 0.82556 0.638155 0.476629
4516 1 0.736675 0.656201 0.475427
4439 1 0.728131 0.644208 0.476197
4449 1 0.745792 0.647215 0.473544
4235 1 0.755571 0.657404 0.472443
4309 1 0.760475 0.641303 0.472457
4444 1 0.776683 0.640388 0.471935
4312 1 0.767167 0.652668 0.473208
4451 1 0.780421 0.655743 0.474526
4532 1 0.788591 0.644715 0.4729
4302 1 0.796848 0.654916 0.47535
4659 1 0.806918 0.647006 0.476786
4371 1 0.747264 0.664839 0.475927
4737 1 0.757875 0.675985 0.477209
4088 1 0.764633 0.666512 0.476075
3956 1 0.63365 0.511663 0.48744
4161 1 0.64505 0.509495 0.483984
4099 1 0.657237 0.506388 0.479941
4034 1 0.658208 0.519317 0.481018
4024 1 0.66891 0.513841 0.479933
4156 1 0.637073 0.527261 0.487338
4089 1 0.648012 0.522478 0.485136
3953 1 0.652837 0.534077 0.486596
4084 1 0.675543 0.523124 0.479338
4086 1 0.665992 0.531135 0.482457
3965 1 0.677331 0.539885 0.480148
3946 1 0.687936 0.527602 0.477756
4286 1 0.651467 0.550014 0.488261
4502 1 0.64189 0.540107 0.487936
4363 1 0.660697 0.542927 0.485741
4030 1 0.670838 0.552068 0.484156
4226 1 0.660981 0.559486 0.486958
4031 1 0.684452 0.554168 0.480357
4452 1 0.696445 0.557077 0.47739
4603 1 0.941207 0.55554 0.478203
4396 1 0.959533 0.553305 0.478677
4253 1 0.972914 0.551993 0.478933
4529 1 0.990541 0.554134 0.480594
3955 1 0.654631 0.570181 0.488222
4233 1 0.667226 0.57067 0.485023
4296 1 0.677895 0.565108 0.485195
4166 1 0.692751 0.568496 0.482247
4403 1 0.882876 0.562705 0.478195
4248 1 0.892549 0.571699 0.481013
4252 1 0.914043 0.565235 0.479939
4596 1 0.909998 0.57956 0.481596
4536 1 0.924815 0.574409 0.481328
4464 1 0.932199 0.564833 0.48039
1753 1 0.949372 0.566176 0.480604
4595 1 0.940125 0.573967 0.481321
4471 1 0.953051 0.579062 0.482099
4612 1 0.965346 0.567395 0.481141
4322 1 0.972905 0.576551 0.48363
4340 1 0.980569 0.561825 0.481356
1681 1 0.990276 0.575433 0.485786
4229 1 0.65724 0.595185 0.488385
4025 1 0.652144 0.582451 0.487897
4364 1 0.665707 0.586621 0.485743
4789 1 0.669958 0.598984 0.48602
4094 1 0.696683 0.585201 0.480063
4438 1 0.680558 0.582619 0.485303
4158 1 0.697038 0.597984 0.482643
4225 1 0.681372 0.595532 0.485106
4671 1 0.856054 0.597597 0.479995
4180 1 0.879682 0.580332 0.479456
4679 1 0.866527 0.588197 0.480527
4614 1 0.87881 0.595548 0.48341
4316 1 0.894265 0.587502 0.482635
4461 1 0.906154 0.595032 0.485223
4384 1 0.921761 0.588728 0.482984
4531 1 0.93666 0.585516 0.482814
4535 1 0.931055 0.597253 0.485642
4458 1 0.948334 0.589868 0.484227
4397 1 0.96445 0.585315 0.484017
1682 1 0.971616 0.598683 0.487425
4528 1 0.98097 0.58596 0.486592
4300 1 0.674117 0.612023 0.488565
4305 1 0.68802 0.607614 0.484339
4933 1 0.698966 0.618737 0.483532
4301 1 0.704242 0.605832 0.478808
4675 1 0.853595 0.609813 0.48046
4747 1 0.844517 0.618709 0.479638
4597 1 0.861127 0.616919 0.483574
4750 1 0.866883 0.602764 0.484033
4678 1 0.874413 0.616095 0.486259
4270 1 0.893592 0.604192 0.486968
4113 1 0.883601 0.608211 0.485285
4260 1 0.89771 0.616087 0.485976
4530 1 0.906936 0.606881 0.487322
4050 1 0.920562 0.60531 0.486915
4478 1 0.93081 0.615043 0.487505
4746 1 0.957778 0.60127 0.485497
4676 1 0.941421 0.601662 0.487011
4609 1 0.952209 0.611437 0.48783
1694 1 0.965848 0.612463 0.487517
4442 1 0.677882 0.628225 0.487722
4506 1 0.689056 0.624405 0.487196
4791 1 0.694444 0.635208 0.484535
4160 1 0.708737 0.621898 0.480092
4159 1 0.707572 0.634583 0.482706
4538 1 0.839734 0.635056 0.481569
4682 1 0.851156 0.638518 0.482493
4667 1 0.857213 0.627676 0.481702
4952 1 0.871076 0.631216 0.485269
4527 1 0.885789 0.620276 0.485224
4456 1 0.886755 0.633635 0.485342
4594 1 0.91406 0.622017 0.487607
4608 1 0.900593 0.633065 0.486735
4813 1 0.91007 0.638613 0.487241
4611 1 0.926971 0.62963 0.487136
4466 1 0.957915 0.627584 0.488149
4578 1 0.681004 0.640291 0.487954
4576 1 0.688295 0.654366 0.487777
4998 1 0.697692 0.647881 0.485353
4237 1 0.712291 0.646816 0.479914
4579 1 0.705982 0.658122 0.483717
4157 1 0.721102 0.657699 0.478893
4668 1 0.818451 0.651319 0.478404
4533 1 0.834616 0.64869 0.480702
4811 1 0.851565 0.651306 0.483449
4749 1 0.86416 0.642697 0.485571
5157 1 0.878038 0.648931 0.48363
4593 1 0.891287 0.658945 0.486056
4755 1 0.892921 0.645307 0.486026
4957 1 0.905475 0.651079 0.486966
4748 1 0.920395 0.64539 0.48785
4787 1 0.695897 0.667547 0.486871
4510 1 0.680802 0.670879 0.487758
4658 1 0.714222 0.668877 0.483369
5004 1 0.70702 0.677057 0.486578
4378 1 0.730856 0.668462 0.478765
4725 1 0.725039 0.679243 0.481183
4304 1 0.739787 0.677864 0.479516
4587 1 0.776922 0.672485 0.478248
4730 1 0.790883 0.667738 0.478887
4606 1 0.801668 0.676591 0.480245
4663 1 0.807381 0.664963 0.478142
4454 1 0.828185 0.661716 0.480568
4303 1 0.821375 0.673562 0.480843
4604 1 0.835184 0.674506 0.483593
5158 1 0.84313 0.662501 0.481859
4808 1 0.852076 0.672974 0.484742
4742 1 0.862919 0.660964 0.485222
4526 1 0.879081 0.663674 0.485623
4801 1 0.866895 0.67854 0.486388
4810 1 0.890535 0.672426 0.486467
4673 1 0.905558 0.66932 0.48665
4783 1 0.699045 0.687842 0.486426
5058 1 0.713633 0.688705 0.483545
5068 1 0.729087 0.692423 0.482056
4655 1 0.759228 0.692368 0.480023
4447 1 0.749372 0.685695 0.480906
4727 1 0.769787 0.68429 0.47925
4665 1 0.77902 0.695405 0.479384
4654 1 0.784702 0.683144 0.479694
4728 1 0.796961 0.691194 0.479495
4657 1 0.812434 0.683869 0.480826
4741 1 0.808226 0.695873 0.482442
4672 1 0.826459 0.688594 0.481745
4875 1 0.841569 0.686844 0.483223
4802 1 0.854475 0.686196 0.484842
4523 1 0.869253 0.691532 0.484849
4883 1 0.881289 0.682715 0.486553
4739 1 0.881843 0.693354 0.48675
4582 1 0.715932 0.703548 0.484786
5003 1 0.704387 0.713808 0.487098
4928 1 0.701276 0.700024 0.486026
4651 1 0.715382 0.71625 0.48574
4656 1 0.728792 0.708742 0.482078
4588 1 0.743922 0.700639 0.482674
4726 1 0.743899 0.71569 0.484442
4711 1 0.755677 0.7058 0.481208
5143 1 0.756086 0.717919 0.48325
4729 1 0.768895 0.705536 0.481332
4232 1 0.789442 0.700972 0.480557
4589 1 0.780303 0.709587 0.482721
4872 1 0.794354 0.717848 0.481435
4601 1 0.800891 0.707016 0.479935
4652 1 0.809523 0.713793 0.48206
4878 1 0.819188 0.701115 0.481732
4718 1 0.834565 0.702118 0.483161
4660 1 0.827152 0.712921 0.482325
5009 1 0.839315 0.717304 0.483934
5229 1 0.849851 0.702363 0.483621
4732 1 0.854747 0.717796 0.484648
5020 1 0.866371 0.707906 0.484824
5369 1 0.872857 0.718816 0.485977
4950 1 0.880438 0.705892 0.486109
5007 1 0.698534 0.725075 0.488506
4929 1 0.709678 0.731134 0.487646
4733 1 0.728286 0.722412 0.485064
4858 1 0.721028 0.731543 0.487772
4798 1 0.731862 0.73873 0.485586
4228 1 0.739461 0.728029 0.485273
4720 1 0.752385 0.730406 0.484434
4719 1 0.768235 0.720019 0.482362
4721 1 0.769002 0.732817 0.482324
4724 1 0.77926 0.73854 0.48274
4600 1 0.78151 0.721556 0.482428
4930 1 0.789261 0.733387 0.482097
4598 1 0.803524 0.727538 0.481407
4722 1 0.813058 0.735079 0.483155
4661 1 0.822775 0.7272 0.482654
4861 1 0.833531 0.731886 0.483705
5219 1 0.84537 0.732952 0.48398
4736 1 0.856618 0.735032 0.485451
5227 1 0.867625 0.729646 0.4854
4945 1 0.885067 0.72086 0.488032
4868 1 0.732973 0.752044 0.486792
4866 1 0.743401 0.743495 0.485571
4993 1 0.754325 0.755107 0.484278
4512 1 0.761817 0.74406 0.483454
4931 1 0.771413 0.75256 0.480939
4999 1 0.784523 0.750119 0.481811
4805 1 0.798405 0.741875 0.481993
4734 1 0.796841 0.756838 0.482212
4735 1 0.810593 0.752619 0.481813
4870 1 0.826201 0.744245 0.483358
5011 1 0.834226 0.756728 0.483513
4723 1 0.84188 0.745625 0.483825
4662 1 0.853683 0.749792 0.485205
4666 1 0.866718 0.745288 0.486724
4865 1 0.733959 0.76897 0.488045
4794 1 0.74438 0.763108 0.486065
4922 1 0.757131 0.770609 0.486494
5283 1 0.747743 0.779917 0.487673
4797 1 0.766486 0.762077 0.48411
4584 1 0.773724 0.771199 0.483617
4867 1 0.765155 0.779307 0.487079
4873 1 0.783725 0.764703 0.482217
4664 1 0.795322 0.769875 0.482772
5071 1 0.807238 0.767306 0.483007
4943 1 0.813766 0.779865 0.485074
4795 1 0.822831 0.76125 0.484878
5225 1 0.838247 0.77181 0.48427
5224 1 0.824191 0.772355 0.485428
4937 1 0.847749 0.762278 0.483917
5155 1 0.855482 0.774838 0.486685
5083 1 0.861763 0.760195 0.485341
5160 1 0.873157 0.765705 0.487983
4799 1 0.754784 0.788262 0.488044
4803 1 0.772866 0.788679 0.486294
4864 1 0.763563 0.799006 0.486618
4586 1 0.778488 0.799816 0.485826
4738 1 0.782805 0.780832 0.483878
4792 1 0.789874 0.792399 0.484094
5074 1 0.797858 0.781826 0.484944
5081 1 0.80642 0.792415 0.485868
5010 1 0.831664 0.786259 0.486883
5086 1 0.820542 0.796318 0.488153
5233 1 0.84326 0.781147 0.486943
4940 1 0.850776 0.791184 0.488628
5165 1 0.863654 0.791568 0.487824
4869 1 0.762457 0.812704 0.487394
5287 1 0.775194 0.811258 0.486793
5015 1 0.789234 0.812646 0.486067
5156 1 0.796075 0.802388 0.485712
5077 1 0.810756 0.809878 0.487385
4874 1 0.801998 0.818345 0.487142
4988 1 0.754879 0.823387 0.487028
4944 1 0.77269 0.825233 0.48692
5151 1 0.774516 0.836829 0.488008
5295 1 0.786328 0.824525 0.488293
4942 1 0.787072 0.838836 0.487745
5363 1 0.812756 0.830126 0.488335
4012 1 0.594032 0.51522 0.49914
4153 1 0.610697 0.510921 0.495226
4019 1 0.602696 0.501565 0.497668
4083 1 0.623257 0.510348 0.492326
3960 1 0.607171 0.524483 0.497877
4090 1 0.615049 0.539223 0.495569
4223 1 0.622341 0.52375 0.492675
4016 1 0.625892 0.537997 0.49279
4287 1 0.604788 0.555084 0.4978
4356 1 0.601374 0.540136 0.498467
4082 1 0.620912 0.554852 0.493949
4220 1 0.631443 0.549432 0.489788
4169 1 0.640934 0.559629 0.490572
4503 1 0.615361 0.568999 0.497336
4429 1 0.601966 0.569953 0.499885
4437 1 0.629462 0.565432 0.493563
4367 1 0.63894 0.574304 0.491662
4784 1 0.616573 0.58135 0.499331
4857 1 0.616677 0.596633 0.499519
4715 1 0.626304 0.583254 0.495131
4717 1 0.631798 0.597392 0.495835
4295 1 0.641697 0.589393 0.491581
4463 1 0.998394 0.584122 0.488649
4613 1 0.986682 0.596605 0.488777
4860 1 0.624553 0.610518 0.499256
4923 1 0.638239 0.612458 0.494976
4441 1 0.64899 0.602631 0.491257
4230 1 0.660572 0.609774 0.489605
4881 1 0.941869 0.617394 0.488688
1690 1 0.980032 0.610781 0.489852
1479 1 0.996365 0.609673 0.493211
4708 1 0.631669 0.622581 0.497638
4716 1 0.634348 0.638127 0.498418
4785 1 0.648586 0.620096 0.492048
4366 1 0.645731 0.632759 0.495893
4298 1 0.658268 0.632854 0.492667
4645 1 0.66795 0.622319 0.49069
4513 1 0.668669 0.638865 0.491462
4406 1 0.943948 0.630961 0.48905
1544 1 0.975235 0.626632 0.48997
4760 1 0.998741 0.634606 0.496843
4408 1 0.98887 0.625253 0.492736
4446 1 0.636061 0.648847 0.498498
4793 1 0.648971 0.64684 0.49598
4935 1 0.660791 0.651177 0.492556
4509 1 0.673852 0.649849 0.490114
4743 1 0.917224 0.658772 0.48957
4542 1 0.936942 0.644259 0.488794
1688 1 0.932245 0.659551 0.490457
4540 1 0.953906 0.642882 0.490563
4407 1 0.944283 0.656523 0.49188
4619 1 0.958651 0.65684 0.492076
4468 1 0.966809 0.64011 0.489854
1683 1 0.969466 0.651207 0.49169
4617 1 0.979216 0.656104 0.495482
4473 1 0.984265 0.640981 0.494036
4475 1 0.99321 0.651741 0.49988
4778 1 0.638087 0.660149 0.498901
4862 1 0.65034 0.661239 0.495286
4991 1 0.646514 0.674148 0.499107
4919 1 0.65743 0.672927 0.495102
4710 1 0.676836 0.660371 0.489895
4989 1 0.66482 0.662621 0.492121
5142 1 0.67015 0.676481 0.493167
4871 1 0.918457 0.669913 0.489195
4953 1 0.931799 0.671195 0.491827
4462 1 0.958715 0.668883 0.494176
4479 1 0.943921 0.669875 0.493505
4548 1 0.970365 0.665517 0.495426
4545 1 0.979589 0.671152 0.499529
4615 1 0.969543 0.677947 0.499527
4852 1 0.650199 0.686963 0.498406
4781 1 0.66662 0.687336 0.496629
4776 1 0.676536 0.697842 0.492904
4236 1 0.690226 0.680218 0.490005
4863 1 0.681492 0.688128 0.490663
4782 1 0.689306 0.695562 0.488846
5088 1 0.895316 0.683897 0.489125
5017 1 0.895719 0.697012 0.490087
4880 1 0.907417 0.682894 0.490625
4602 1 0.911947 0.69592 0.492071
4680 1 0.921269 0.683734 0.49227
4817 1 0.929654 0.695336 0.492951
4480 1 0.957069 0.681655 0.496424
4607 1 0.940945 0.684979 0.495011
4892 1 0.953199 0.698172 0.495395
4962 1 0.965036 0.695291 0.498429
5052 1 0.652296 0.714291 0.498414
4853 1 0.645973 0.701956 0.499987
4932 1 0.66036 0.701635 0.49861
4701 1 0.666557 0.710933 0.496568
4997 1 0.681264 0.708296 0.492479
4926 1 0.690932 0.713536 0.489225
5018 1 0.893512 0.711827 0.489329
4537 1 0.906251 0.709322 0.490023
4889 1 0.92163 0.706633 0.491797
4815 1 0.933754 0.715454 0.493589
4877 1 0.940998 0.700449 0.495329
4544 1 0.949915 0.715073 0.497034
4753 1 0.959654 0.709276 0.49657
4882 1 0.969936 0.708689 0.499712
4846 1 0.659009 0.72696 0.498948
5120 1 0.673936 0.720775 0.494764
5117 1 0.670199 0.732916 0.496297
5065 1 0.682566 0.728133 0.492139
4649 1 0.697283 0.736168 0.491061
4670 1 0.879041 0.734897 0.488762
5235 1 0.891808 0.732699 0.490435
5159 1 0.902424 0.721848 0.490024
4681 1 0.91988 0.720351 0.491244
4890 1 0.90839 0.731493 0.492277
5087 1 0.918735 0.739382 0.493391
4814 1 0.928319 0.728208 0.494456
5095 1 0.936114 0.739076 0.495954
4879 1 0.945711 0.727978 0.496772
4744 1 0.953195 0.736942 0.498617
4610 1 0.959722 0.722872 0.497899
5150 1 0.669454 0.748937 0.496505
5139 1 0.667472 0.759839 0.498377
4985 1 0.684493 0.742216 0.494059
5005 1 0.681504 0.758765 0.495373
5281 1 0.696764 0.754723 0.491813
4855 1 0.709643 0.743134 0.489421
4941 1 0.709544 0.758316 0.491038
4796 1 0.721478 0.745366 0.488807
4938 1 0.723276 0.758477 0.489973
5014 1 0.876857 0.752055 0.488955
5232 1 0.889916 0.750394 0.490885
4740 1 0.901241 0.759867 0.49397
5089 1 0.902471 0.743675 0.492257
4804 1 0.913084 0.752596 0.493336
4674 1 0.92834 0.747809 0.495756
5035 1 0.934491 0.758735 0.496459
4946 1 0.943983 0.750991 0.497524
5066 1 0.676469 0.770281 0.498346
4934 1 0.694738 0.766802 0.494166
5060 1 0.687873 0.775725 0.497585
5000 1 0.710292 0.772391 0.493298
4925 1 0.721433 0.776401 0.491577
5012 1 0.870401 0.777105 0.488786
5161 1 0.885719 0.764034 0.490949
4806 1 0.89743 0.776831 0.493539
4947 1 0.883406 0.779823 0.490934
5093 1 0.910907 0.768539 0.494622
4964 1 0.925791 0.777377 0.498178
5308 1 0.923534 0.764271 0.494645
4807 1 0.938903 0.768996 0.498212
5026 1 0.952061 0.763241 0.499778
5070 1 0.672852 0.797794 0.499783
4854 1 0.683291 0.787666 0.498898
4936 1 0.695926 0.794416 0.495633
5355 1 0.698189 0.781384 0.494843
5008 1 0.711248 0.785548 0.493117
5075 1 0.708007 0.796578 0.492909
5001 1 0.735497 0.781741 0.489417
5138 1 0.725295 0.790603 0.491705
4924 1 0.744042 0.795966 0.489516
5073 1 0.83706 0.796622 0.489233
5164 1 0.875519 0.795274 0.4918
5228 1 0.890914 0.793502 0.493125
5166 1 0.902836 0.795953 0.496793
4948 1 0.910714 0.781872 0.495504
5032 1 0.915628 0.795031 0.498649
5069 1 0.687305 0.803295 0.499663
5202 1 0.690754 0.81812 0.499047
5422 1 0.702461 0.809695 0.49567
5148 1 0.719389 0.806463 0.493024
5207 1 0.713036 0.816939 0.494778
5072 1 0.734373 0.803812 0.492552
5350 1 0.730856 0.814725 0.492583
4876 1 0.748097 0.808371 0.488728
5291 1 0.818712 0.819123 0.489251
5147 1 0.825901 0.807892 0.489733
5084 1 0.835747 0.815653 0.489524
5220 1 0.844808 0.807375 0.491158
5222 1 0.858054 0.80374 0.489681
5306 1 0.855449 0.818028 0.493488
5096 1 0.870598 0.808304 0.491622
5162 1 0.881015 0.815171 0.493488
5442 1 0.889274 0.805964 0.492883
5508 1 0.90026 0.810045 0.496934
4959 1 0.912424 0.807183 0.499765
5201 1 0.701737 0.824937 0.497423
5061 1 0.711774 0.837263 0.497726
5213 1 0.723483 0.827003 0.493265
5273 1 0.735724 0.831591 0.493943
5146 1 0.742655 0.82185 0.491204
5211 1 0.749377 0.835161 0.49102
5006 1 0.762715 0.833149 0.489714
5082 1 0.799458 0.830952 0.488928
5080 1 0.830026 0.82796 0.489674
5152 1 0.823755 0.839077 0.491975
4958 1 0.844089 0.825727 0.491763
5221 1 0.856488 0.834067 0.495017
5099 1 0.869039 0.824212 0.492595
5163 1 0.869265 0.835522 0.494615
5297 1 0.892896 0.821274 0.497638
5237 1 0.881402 0.829535 0.49527
5103 1 0.894565 0.836013 0.498586
5269 1 0.702581 0.843978 0.498787
5405 1 0.71255 0.852333 0.499258
5417 1 0.725393 0.856 0.496191
5277 1 0.727332 0.842736 0.496949
5284 1 0.737821 0.858316 0.496273
5552 1 0.740907 0.846102 0.49391
4800 1 0.751014 0.852407 0.493667
5079 1 0.761112 0.848296 0.490216
5208 1 0.777547 0.851647 0.490236
5215 1 0.793616 0.849271 0.490285
5128 1 0.786551 0.85998 0.492396
5016 1 0.804926 0.843299 0.489951
4939 1 0.814759 0.854744 0.491904
5354 1 0.803202 0.859233 0.49303
5230 1 0.83411 0.849123 0.494433
5022 1 0.842587 0.840297 0.493532
5223 1 0.845437 0.855506 0.494843
5373 1 0.854605 0.847849 0.495715
5303 1 0.86641 0.847625 0.49619
5153 1 0.868092 0.85846 0.499522
5248 1 0.880549 0.858859 0.49973
5510 1 0.880579 0.842987 0.49756
5198 1 0.712784 0.866524 0.499481
5491 1 0.727781 0.872925 0.496933
5415 1 0.739604 0.872452 0.49697
5137 1 0.751766 0.865686 0.494994
5282 1 0.7658 0.860691 0.492052
5275 1 0.760724 0.874396 0.493108
5209 1 0.777957 0.87051 0.492695
5205 1 0.791713 0.873714 0.495119
5218 1 0.804699 0.875316 0.493888
5013 1 0.816966 0.872316 0.494191
5364 1 0.827514 0.864227 0.493047
5438 1 0.855608 0.860985 0.498197
5299 1 0.841356 0.86717 0.495282
4955 1 0.853089 0.875459 0.49877
5296 1 0.86532 0.871433 0.499845
5410 1 0.715726 0.882192 0.498892
5272 1 0.7225 0.892787 0.498002
5127 1 0.731485 0.887431 0.496746
5466 1 0.749299 0.885398 0.494303
5418 1 0.740893 0.897892 0.495126
5420 1 0.766477 0.886236 0.493563
5286 1 0.771089 0.89852 0.494506
5062 1 0.780781 0.888116 0.494934
5140 1 0.794802 0.889077 0.49575
5212 1 0.805155 0.898527 0.495892
5063 1 0.812774 0.888782 0.495624
5302 1 0.839406 0.882245 0.498128
5288 1 0.826056 0.880546 0.496199
5356 1 0.825361 0.8942 0.498477
5078 1 0.840037 0.894633 0.498986
5064 1 0.720621 0.914002 0.498735
5413 1 0.731899 0.903522 0.498696
5336 1 0.738003 0.916057 0.498313
5203 1 0.756146 0.90021 0.495257
5342 1 0.749551 0.909951 0.496451
5324 1 0.765516 0.914229 0.497001
5216 1 0.788819 0.901109 0.493814
5085 1 0.797956 0.909953 0.494723
5204 1 0.780867 0.909198 0.495747
5416 1 0.813358 0.905858 0.498406
5490 1 0.830862 0.907563 0.499016
2817 1 0.710946 0.92109 0.499598
5421 1 0.728102 0.927208 0.499496
5397 1 0.758106 0.936176 0.497315
5484 1 0.754387 0.923407 0.498419
2889 1 0.743046 0.930512 0.498868
5419 1 0.770955 0.926006 0.497638
5352 1 0.772736 0.937922 0.497317
5550 1 0.782206 0.922913 0.496247
5483 1 0.796226 0.934749 0.496946
5503 1 0.794379 0.921159 0.496481
5348 1 0.784425 0.936661 0.497794
5285 1 0.809796 0.92314 0.496686
5485 1 0.810209 0.934124 0.499264
5351 1 0.824375 0.921511 0.499146
4994 1 0.704797 0.956678 0.499785
5554 1 0.702202 0.943721 0.499766
5477 1 0.720143 0.94969 0.497861
5482 1 0.731987 0.941522 0.498641
5423 1 0.738495 0.956 0.498702
5134 1 0.755994 0.959685 0.497515
5476 1 0.748967 0.945842 0.49885
5489 1 0.765333 0.946652 0.498789
5412 1 0.777483 0.951363 0.49858
5493 1 0.788872 0.95067 0.496704
5135 1 0.804471 0.948567 0.498709
5495 1 0.714775 0.967011 0.498229
2897 1 0.726863 0.960579 0.49848
2828 1 0.730044 0.975562 0.497356
5276 1 0.757167 0.978747 0.496773
5487 1 0.742162 0.968304 0.497607
5488 1 0.772737 0.978904 0.497931
5492 1 0.765524 0.964976 0.49852
5430 1 0.77773 0.96281 0.496024
5567 1 0.785811 0.97274 0.496738
2965 1 0.796168 0.960698 0.497899
5414 1 0.801276 0.974053 0.497487
5565 1 0.814458 0.975363 0.499032
5557 1 0.808624 0.961635 0.499716
5578 1 0.925349 0.973446 0.499774
2973 1 0.716147 0.982794 0.497634
2821 1 0.721252 0.993887 0.497737
2839 1 0.731223 0.986892 0.496061
5425 1 0.739481 0.997365 0.49539
2827 1 0.744769 0.98008 0.496848
2975 1 0.750164 0.991538 0.494593
5360 1 0.76532 0.991211 0.494714
5563 1 0.794004 0.982525 0.495682
5566 1 0.78228 0.989074 0.495852
5280 1 0.806431 0.988228 0.497795
5366 1 0.837661 0.991663 0.499142
2841 1 0.820521 0.996394 0.497795
2976 1 0.824749 0.983169 0.496747
2852 1 0.848869 0.99925 0.498903
4 1 0.970634 0.994182 0.499549
1 1 0.983245 0.999299 0.499656
4289 1 0.55588 0.51691 0.508804
4204 1 0.556912 0.501454 0.507733
4147 1 0.570318 0.513072 0.505796
3958 1 0.584899 0.503166 0.503283
4155 1 0.582733 0.519854 0.502593
4079 1 0.556364 0.534456 0.507187
4145 1 0.567142 0.526028 0.505363
3868 1 0.575846 0.536843 0.505065
4023 1 0.585116 0.536604 0.501723
4168 1 0.593669 0.529249 0.5004
4573 1 0.565282 0.543172 0.507651
4433 1 0.565902 0.556034 0.508168
4221 1 0.577504 0.551634 0.504986
4210 1 0.590398 0.547613 0.502036
4152 1 0.569837 0.567922 0.507818
4359 1 0.578956 0.579028 0.506794
4297 1 0.5798 0.566158 0.503532
3943 1 0.590318 0.561112 0.501904
4009 1 0.592073 0.577441 0.503356
4224 1 0.575657 0.593149 0.510536
4293 1 0.590892 0.590538 0.504884
4435 1 0.602281 0.597584 0.502058
4496 1 0.604543 0.583492 0.500091
4574 1 0.572716 0.606342 0.51039
4093 1 0.588689 0.603482 0.50622
4021 1 0.58256 0.616984 0.506858
4500 1 0.594108 0.613044 0.502269
4511 1 0.607027 0.610186 0.50187
4436 1 0.573458 0.636727 0.508753
4508 1 0.568628 0.624217 0.510162
4501 1 0.582826 0.629504 0.506332
4355 1 0.596914 0.624801 0.503127
4648 1 0.594273 0.638747 0.50396
4291 1 0.605644 0.635914 0.502191
4646 1 0.614406 0.623184 0.500977
4643 1 0.620884 0.636098 0.500786
4505 1 0.583602 0.644913 0.507284
4585 1 0.597734 0.65148 0.505378
4859 1 0.608933 0.647125 0.501981
4927 1 0.622155 0.650919 0.500564
4642 1 0.575011 0.66911 0.51108
4581 1 0.587293 0.661969 0.508623
4640 1 0.587623 0.673761 0.507097
4788 1 0.599637 0.666808 0.505625
4713 1 0.608268 0.678313 0.504292
4572 1 0.619408 0.672749 0.503717
4790 1 0.612035 0.66072 0.50299
4650 1 0.635012 0.67757 0.50173
4644 1 0.625879 0.66389 0.501376
1619 1 0.98946 0.666252 0.500151
1895 1 0.997862 0.677628 0.505394
4920 1 0.578136 0.682392 0.509667
4851 1 0.586319 0.691389 0.507899
4773 1 0.597223 0.683802 0.5063
4777 1 0.603299 0.697126 0.505892
4780 1 0.614545 0.690223 0.503368
4786 1 0.628859 0.693858 0.501104
4856 1 0.624463 0.683151 0.503679
4987 1 0.64022 0.689858 0.501155
5023 1 0.978547 0.698908 0.502998
4823 1 0.975103 0.688343 0.501709
4686 1 0.991319 0.69183 0.506529
4757 1 0.985146 0.682215 0.504125
4769 1 0.593387 0.70157 0.50871
4981 1 0.598855 0.714322 0.508269
4844 1 0.589071 0.718926 0.510714
5059 1 0.6082 0.708316 0.505991
5053 1 0.617243 0.717225 0.505833
4850 1 0.620549 0.703614 0.504505
4641 1 0.63266 0.706825 0.502598
4849 1 0.64211 0.719059 0.501666
4819 1 0.994669 0.703854 0.508152
4884 1 0.992777 0.714961 0.509013
5025 1 0.981574 0.712692 0.504353
4848 1 0.59226 0.729605 0.510542
5123 1 0.604234 0.726016 0.507907
4580 1 0.617522 0.734138 0.50697
4990 1 0.601879 0.738853 0.510009
5002 1 0.628088 0.72052 0.503884
4918 1 0.633258 0.732123 0.506101
5214 1 0.645353 0.731907 0.503081
4949 1 0.973735 0.72419 0.500767
5092 1 0.967147 0.736115 0.500475
5385 1 0.979911 0.736944 0.505322
4896 1 0.988501 0.726365 0.506477
1963 1 0.993563 0.739083 0.50846
4886 1 0.998671 0.729547 0.509866
4626 1 0.599386 0.752292 0.510514
5115 1 0.615261 0.748444 0.508218
4974 1 0.630112 0.746018 0.505131
4917 1 0.638431 0.758739 0.503393
5210 1 0.645334 0.745067 0.503944
4996 1 0.654162 0.75607 0.502252
5048 1 0.65663 0.744015 0.500072
4816 1 0.959731 0.750274 0.500563
5091 1 0.974867 0.750053 0.504733
4891 1 0.986889 0.751305 0.508089
4984 1 0.597396 0.767879 0.510382
2519 1 0.609359 0.763997 0.508881
5144 1 0.61601 0.776596 0.507845
5116 1 0.600776 0.77922 0.509497
4842 1 0.624689 0.761639 0.50719
5054 1 0.634238 0.775883 0.50551
4843 1 0.647126 0.771327 0.502742
5122 1 0.661642 0.7699 0.500707
5238 1 0.950127 0.779316 0.500629
4887 1 0.963589 0.769746 0.500894
5100 1 0.975691 0.765676 0.505707
4961 1 0.974137 0.779927 0.505719
5314 1 0.98695 0.766264 0.509481
4903 1 0.597409 0.796228 0.509191
4905 1 0.614609 0.790296 0.507209
5118 1 0.626997 0.784969 0.506178
2515 1 0.632206 0.794944 0.506657
2310 1 0.643678 0.785199 0.504639
5119 1 0.646966 0.797296 0.505257
5045 1 0.654317 0.782007 0.503288
4986 1 0.659145 0.793933 0.502328
5067 1 0.670906 0.781339 0.500241
5097 1 0.936514 0.782816 0.500764
5174 1 0.925016 0.790613 0.500494
5037 1 0.942088 0.793621 0.503424
4885 1 0.954737 0.791413 0.504185
4966 1 0.963976 0.783454 0.503308
5031 1 0.971251 0.792166 0.507837
5239 1 0.987129 0.781568 0.510092
4827 1 0.982184 0.793245 0.51136
5041 1 0.570056 0.818671 0.511059
5253 1 0.583982 0.817571 0.509997
5129 1 0.591865 0.808253 0.510391
5331 1 0.609806 0.805524 0.508752
5185 1 0.616159 0.818737 0.508711
5111 1 0.622454 0.803534 0.50782
5057 1 0.628471 0.813451 0.508809
5126 1 0.640743 0.809024 0.507834
4916 1 0.656588 0.80551 0.505733
4982 1 0.652557 0.819339 0.505345
5047 1 0.667299 0.809363 0.502304
4992 1 0.678949 0.812673 0.500225
4951 1 0.919505 0.818667 0.502502
5167 1 0.932993 0.800559 0.500935
5021 1 0.926487 0.808417 0.503923
5316 1 0.936266 0.817287 0.505939
5305 1 0.956533 0.800748 0.506732
5029 1 0.944032 0.805596 0.506619
5098 1 0.953891 0.816372 0.509501
5317 1 0.96856 0.804448 0.510542
5112 1 0.568388 0.831599 0.508766
5186 1 0.599412 0.821084 0.510198
5274 1 0.580847 0.830615 0.508518
5191 1 0.5941 0.834852 0.509346
5271 1 0.609842 0.832475 0.50808
5050 1 0.624916 0.83163 0.507559
5131 1 0.63591 0.824614 0.506739
5133 1 0.653523 0.835118 0.507052
5206 1 0.663718 0.821672 0.503423
5145 1 0.666604 0.837109 0.505068
5265 1 0.677493 0.828229 0.503544
5141 1 0.691816 0.835815 0.501356
5311 1 0.915486 0.83563 0.502343
5090 1 0.90522 0.824077 0.500331
5101 1 0.927088 0.827426 0.505495
5456 1 0.940112 0.834937 0.50805
5226 1 0.94997 0.828066 0.507821
5320 1 0.96118 0.837011 0.510458
5263 1 0.558638 0.850398 0.51102
5329 1 0.571603 0.846795 0.508142
2659 1 0.574302 0.859064 0.509511
2376 1 0.586049 0.844764 0.507762
5473 1 0.591901 0.857615 0.509885
5125 1 0.614283 0.846313 0.509885
5341 1 0.600244 0.846793 0.50853
5195 1 0.61196 0.856779 0.509506
5267 1 0.639075 0.841673 0.509098
5130 1 0.626321 0.844916 0.509689
5333 1 0.628068 0.858848 0.509403
5257 1 0.642926 0.854817 0.508563
5056 1 0.653962 0.846754 0.507197
5121 1 0.679408 0.846097 0.506215
5199 1 0.666522 0.853275 0.505605
5194 1 0.691494 0.848734 0.501489
5175 1 0.893773 0.851592 0.500497
5381 1 0.903689 0.843227 0.500406
5242 1 0.909137 0.855146 0.503319
5246 1 0.920251 0.84922 0.504682
5236 1 0.928857 0.841544 0.506042
5173 1 0.935702 0.852698 0.50731
5387 1 0.948356 0.845507 0.508773
5455 1 0.960045 0.853632 0.51066
5447 1 0.973238 0.857724 0.510886
5268 1 0.555219 0.877394 0.510836
5260 1 0.569765 0.875794 0.510502
5401 1 0.583963 0.868949 0.510139
5480 1 0.595828 0.874994 0.509451
5395 1 0.603284 0.864817 0.509452
5411 1 0.611618 0.874779 0.51052
5407 1 0.622573 0.870475 0.509613
5326 1 0.631989 0.878253 0.508817
5266 1 0.638936 0.870293 0.506801
5196 1 0.655071 0.864164 0.506419
5343 1 0.650731 0.879475 0.505703
5330 1 0.665954 0.875943 0.503925
5339 1 0.672828 0.865361 0.504517
5345 1 0.698933 0.861852 0.501245
5270 1 0.685277 0.878171 0.502891
5132 1 0.684745 0.861315 0.504022
5187 1 0.699927 0.878439 0.501681
5149 1 0.877756 0.871242 0.501499
5019 1 0.890799 0.869241 0.503544
5315 1 0.89897 0.862314 0.501962
5243 1 0.891637 0.879995 0.504659
5516 1 0.915719 0.867032 0.504269
5443 1 0.905831 0.874676 0.504883
5171 1 0.928446 0.862216 0.504963
5094 1 0.925549 0.875959 0.505546
2737 1 0.939146 0.869753 0.507051
5240 1 0.952141 0.875443 0.509434
5241 1 0.946465 0.86098 0.509179
5511 1 0.962194 0.864617 0.511323
5382 1 0.976855 0.870581 0.510608
5513 1 0.967903 0.877537 0.508784
2660 1 0.578494 0.899842 0.511019
5402 1 0.579843 0.883539 0.510134
5349 1 0.590829 0.890473 0.509365
65 1 0.606394 0.886114 0.509166
5408 1 0.605975 0.897401 0.509956
5327 1 0.62056 0.887437 0.508376
5347 1 0.632627 0.896956 0.509139
5538 1 0.641527 0.88838 0.508689
5264 1 0.657847 0.89259 0.504752
5467 1 0.67316 0.885178 0.503221
5124 1 0.679208 0.89628 0.505124
5340 1 0.691349 0.890914 0.50183
5409 1 0.706362 0.892656 0.50067
5424 1 0.8515 0.886936 0.500009
5217 1 0.857766 0.899351 0.50161
5378 1 0.864957 0.88455 0.502087
5076 1 0.872121 0.895613 0.504045
5301 1 0.880379 0.883694 0.504658
5298 1 0.888678 0.895326 0.507509
5234 1 0.902452 0.887514 0.506397
5027 1 0.913648 0.885674 0.504712
5581 1 0.915419 0.899802 0.506026
5590 1 0.93576 0.884652 0.507188
5374 1 0.928488 0.893901 0.505986
5584 1 0.943794 0.897969 0.507405
5168 1 0.948638 0.885597 0.506405
2848 1 0.96062 0.891833 0.508482
5515 1 0.975749 0.892789 0.509484
5587 1 0.983846 0.883432 0.510423
5448 1 0.985283 0.89928 0.509994
5400 1 0.59228 0.903153 0.509859
5392 1 0.584149 0.915576 0.509794
5534 1 0.599334 0.913549 0.509515
5332 1 0.619841 0.901829 0.509804
5544 1 0.610915 0.911467 0.509261
5262 1 0.637693 0.90739 0.508125
5548 1 0.627649 0.915302 0.508801
4995 1 0.647491 0.900977 0.506407
5344 1 0.655033 0.909658 0.505459
5404 1 0.642698 0.918824 0.505962
5338 1 0.668644 0.917825 0.505251
5335 1 0.667125 0.902623 0.505435
5337 1 0.679398 0.911487 0.503093
5258 1 0.695385 0.90243 0.50291
5334 1 0.693541 0.917491 0.501463
5469 1 0.715638 0.903426 0.500313
5197 1 0.703772 0.91109 0.50046
5432 1 0.846162 0.906924 0.500284
5136 1 0.855245 0.916458 0.50288
5435 1 0.864764 0.90932 0.504287
5154 1 0.874884 0.918193 0.5052
5370 1 0.881018 0.907807 0.507226
5514 1 0.892132 0.913191 0.50708
5024 1 0.901349 0.90232 0.507561
5445 1 0.904524 0.91541 0.506979
5231 1 0.919483 0.913396 0.506311
5506 1 0.93055 0.904957 0.506956
5365 1 0.951813 0.905399 0.507175
5436 1 0.958447 0.916729 0.507645
5307 1 0.941487 0.912275 0.505898
5377 1 0.966551 0.906174 0.508971
5522 1 0.981832 0.910373 0.508784
5520 1 0.992536 0.917352 0.51048
5525 1 0.99869 0.904924 0.51048
2811 1 0.57088 0.924477 0.511038
2943 1 0.584792 0.928407 0.510809
2819 1 0.598121 0.925687 0.509401
5474 1 0.615665 0.926349 0.510276
5475 1 0.6279 0.928784 0.507783
2823 1 0.656707 0.924586 0.505148
5553 1 0.645019 0.933786 0.506838
2888 1 0.661225 0.937495 0.506268
2822 1 0.672413 0.931701 0.504261
5391 1 0.683045 0.925179 0.501535
2883 1 0.690528 0.935458 0.501756
5551 1 0.700641 0.930313 0.50043
5200 1 0.716248 0.934288 0.500236
5361 1 0.838558 0.920485 0.502593
5289 1 0.836322 0.934595 0.50133
5357 1 0.82283 0.934023 0.500344
5294 1 0.851038 0.930009 0.503412
5353 1 0.866219 0.92779 0.503867
5358 1 0.876565 0.9358 0.505665
5304 1 0.886319 0.926715 0.50677
5359 1 0.888758 0.939133 0.504525
5293 1 0.902203 0.928162 0.505209
5368 1 0.915013 0.925963 0.506073
5573 1 0.923767 0.935814 0.506094
5562 1 0.931671 0.923193 0.507921
5579 1 0.938181 0.933535 0.506018
5446 1 0.949813 0.923392 0.505407
5577 1 0.960699 0.933403 0.506893
2849 1 0.969857 0.923918 0.508778
2853 1 0.971968 0.93962 0.506681
5375 1 0.982734 0.928284 0.508114
5451 1 0.997025 0.930439 0.510785
2816 1 0.591388 0.941568 0.511358
5547 1 0.596113 0.954033 0.51073
5539 1 0.606067 0.941335 0.510003
5406 1 0.619479 0.943349 0.509484
3102 1 0.607482 0.956818 0.509506
5543 1 0.634079 0.943549 0.508216
2884 1 0.622086 0.95931 0.509389
2886 1 0.639938 0.959294 0.508508
2824 1 0.651328 0.945537 0.508406
5471 1 0.675775 0.941606 0.502657
2881 1 0.663052 0.950947 0.505879
2961 1 0.68033 0.955531 0.504223
5479 1 0.690547 0.947491 0.502243
5556 1 0.819048 0.950094 0.500842
5427 1 0.831936 0.947687 0.502656
5558 1 0.847263 0.946775 0.50238
5292 1 0.86027 0.944202 0.503924
5433 1 0.860098 0.955443 0.502539
5300 1 0.873787 0.949303 0.504169
5434 1 0.888266 0.952018 0.502967
5509 1 0.903192 0.954405 0.503721
5439 1 0.905612 0.94217 0.50473
5502 1 0.916598 0.947443 0.504591
5568 1 0.930578 0.947541 0.504537
5371 1 0.943859 0.94632 0.504328
2861 1 0.952545 0.94052 0.506807
5444 1 0.9446 0.957196 0.502574
5376 1 0.962484 0.949233 0.506369
5598 1 0.975771 0.953821 0.503366
5599 1 0.996465 0.946994 0.507668
3009 1 0.984536 0.943475 0.505917
5572 1 0.989702 0.95912 0.504111
2875 1 0.585639 0.96683 0.510542
70 1 0.600804 0.97076 0.510664
5403 1 0.614062 0.971657 0.510784
2887 1 0.630682 0.971944 0.509034
3110 1 0.654375 0.963699 0.507637
2959 1 0.646031 0.975514 0.508751
5549 1 0.668241 0.965553 0.506506
2892 1 0.661804 0.977644 0.506794
3031 1 0.693357 0.961502 0.501629
2968 1 0.680402 0.969741 0.504424
5426 1 0.692063 0.97452 0.503674
5278 1 0.703333 0.973585 0.501312
5428 1 0.836716 0.962251 0.501927
5290 1 0.834365 0.975172 0.501034
5279 1 0.82268 0.963857 0.500397
2832 1 0.84972 0.964878 0.502097
5346 1 0.847361 0.979467 0.501469
5367 1 0.860759 0.975074 0.503177
5501 1 0.870715 0.961632 0.504035
5440 1 0.875066 0.978653 0.503109
5560 1 0.885687 0.965403 0.50354
5569 1 0.899617 0.968462 0.502053
5372 1 0.916125 0.961457 0.503091
5575 1 0.913645 0.975036 0.502841
5504 1 0.930304 0.962366 0.50324
5512 1 0.942101 0.969968 0.501702
5380 1 0.959547 0.960622 0.501919
5527 1 0.957562 0.974203 0.502682
5530 1 0.973897 0.968008 0.502795
5600 1 0.969082 0.979666 0.501618
5441 1 0.986376 0.969946 0.502849
5517 1 0.996965 0.977008 0.502869
2891 1 0.613067 0.992135 0.511253
2964 1 0.621262 0.983439 0.510054
2818 1 0.626071 0.997367 0.509703
3029 1 0.637347 0.985242 0.508824
3020 1 0.652955 0.992384 0.507306
3036 1 0.677688 0.984985 0.505309
3168 1 0.669068 0.994592 0.504999
3043 1 0.685056 0.998751 0.504161
2896 1 0.691613 0.987945 0.503899
5486 1 0.705471 0.987447 0.503056
5564 1 0.859631 0.988116 0.500556
5505 1 0.875317 0.992535 0.501453
5498 1 0.891594 0.980192 0.503848
5523 1 0.890452 0.99891 0.501083
2851 1 0.904326 0.985813 0.502445
2857 1 0.920256 0.987681 0.501692
2847 1 0.933439 0.983779 0.501908
2862 1 0.927834 0.998966 0.500009
2864 1 0.941879 0.997424 0.501068
2935 1 0.945553 0.983562 0.500723
2997 1 0.959208 0.989235 0.500132
2738 1 0.995692 0.989255 0.501579
2936 1 0.981536 0.984061 0.500121
1814 1 0.509579 0.507294 0.520497
1538 1 0.523225 0.508003 0.518056
1465 1 0.534385 0.510012 0.514834
4217 1 0.54604 0.511194 0.512189
4345 1 0.510487 0.535839 0.521309
4346 1 0.510007 0.52029 0.519557
4276 1 0.534577 0.521838 0.515376
4211 1 0.523203 0.520964 0.518619
1609 1 0.527262 0.534608 0.518101
4358 1 0.539156 0.535885 0.51357
4208 1 0.548518 0.526029 0.512957
4215 1 0.53583 0.547609 0.516955
4362 1 0.523696 0.546724 0.5208
4283 1 0.549957 0.543986 0.512782
4216 1 0.555114 0.557218 0.512429
4081 1 0.541155 0.557329 0.515621
4280 1 0.529778 0.563003 0.518708
4361 1 0.533517 0.573443 0.520645
4504 1 0.555225 0.571834 0.513204
4639 1 0.545041 0.577471 0.517384
4575 1 0.53351 0.586741 0.52013
4498 1 0.530666 0.59994 0.521133
4426 1 0.552571 0.587624 0.515925
4499 1 0.544053 0.594251 0.517238
4411 1 0.567162 0.584163 0.511553
4365 1 0.560585 0.598035 0.513261
4712 1 0.539546 0.609935 0.51856
4507 1 0.550954 0.606124 0.515382
4370 1 0.561583 0.614898 0.514655
4497 1 0.544762 0.63638 0.521593
4428 1 0.549743 0.62248 0.517239
4557 1 0.558842 0.630985 0.515243
4342 1 0.552046 0.643832 0.517374
4277 1 0.559045 0.65533 0.515326
4638 1 0.572724 0.655316 0.511718
4628 1 0.564558 0.64112 0.512251
4775 1 0.545394 0.664305 0.52174
4569 1 0.540699 0.677911 0.519993
4421 1 0.560032 0.670314 0.515753
4768 1 0.539004 0.693448 0.522595
4415 1 0.553288 0.680795 0.51875
4427 1 0.549492 0.694022 0.518932
4921 1 0.567527 0.6824 0.512304
4631 1 0.574511 0.697413 0.512255
4703 1 0.561671 0.691357 0.516039
4779 1 0.538143 0.705252 0.522044
4434 1 0.551308 0.707956 0.518966
4633 1 0.546837 0.719196 0.520412
4634 1 0.563953 0.703794 0.515516
4847 1 0.570651 0.714176 0.51583
4771 1 0.581818 0.709395 0.512091
4709 1 0.537053 0.731961 0.522713
4562 1 0.550541 0.732901 0.521279
4714 1 0.561441 0.723323 0.517519
4577 1 0.576669 0.727021 0.514348
4571 1 0.563312 0.73726 0.518391
4702 1 0.548676 0.745396 0.521133
4839 1 0.541616 0.757878 0.521315
4697 1 0.557954 0.750297 0.519066
4772 1 0.575707 0.744771 0.515768
4902 1 0.568177 0.757931 0.515202
2022 1 0.586098 0.759497 0.51334
5046 1 0.587039 0.742172 0.512753
4908 1 0.532484 0.771565 0.521418
4561 1 0.554562 0.762364 0.518193
4845 1 0.548023 0.770609 0.517848
4915 1 0.564951 0.772408 0.515079
4980 1 0.580228 0.771223 0.5129
4979 1 0.53468 0.798538 0.520954
4978 1 0.540748 0.78409 0.519265
2308 1 0.556382 0.780113 0.516801
4637 1 0.550318 0.790524 0.519799
4774 1 0.562033 0.792755 0.516672
2240 1 0.57286 0.786554 0.513365
5259 1 0.587805 0.785336 0.512839
4976 1 0.582067 0.798308 0.513427
5179 1 0.994075 0.791908 0.51343
5255 1 0.512609 0.817836 0.521836
4840 1 0.520684 0.802359 0.522383
5049 1 0.525999 0.814168 0.522431
5044 1 0.558055 0.808063 0.516282
5055 1 0.547006 0.804929 0.518433
4906 1 0.540204 0.818041 0.518958
5190 1 0.553568 0.8192 0.514427
4914 1 0.571788 0.804606 0.513621
4954 1 0.974527 0.815514 0.515565
5170 1 0.983549 0.804574 0.513673
2454 1 0.987695 0.819822 0.515265
2456 1 0.993768 0.803354 0.516474
2721 1 0.500676 0.831682 0.521993
2166 1 0.514805 0.833262 0.521854
4909 1 0.527911 0.828071 0.520276
4972 1 0.535336 0.838506 0.519093
2379 1 0.545282 0.83166 0.515672
5251 1 0.556548 0.832433 0.511942
5586 1 0.965439 0.823125 0.51155
4960 1 0.976149 0.829441 0.513492
4956 1 0.993236 0.832272 0.514589
5322 1 0.505513 0.846215 0.52072
2516 1 0.518303 0.855349 0.518946
5189 1 0.505188 0.859343 0.520577
2305 1 0.521998 0.842639 0.520208
2377 1 0.535549 0.850239 0.515501
5261 1 0.546104 0.847102 0.511846
5193 1 0.548331 0.859911 0.512902
5384 1 0.970466 0.844613 0.512769
5595 1 0.985337 0.845342 0.512794
5583 1 0.988275 0.859428 0.512246
2372 1 0.506278 0.871362 0.51878
5042 1 0.532202 0.865659 0.515173
5192 1 0.520281 0.868448 0.518119
2518 1 0.532824 0.879186 0.514773
2513 1 0.545307 0.874771 0.513912
5394 1 0.561152 0.862716 0.511628
5310 1 0.994202 0.874325 0.513601
2655 1 0.519584 0.882452 0.517318
5183 1 0.507887 0.885306 0.51883
2589 1 0.510437 0.899251 0.518182
5188 1 0.536884 0.89665 0.516568
2590 1 0.524007 0.89431 0.516097
2520 1 0.549327 0.88831 0.512782
5470 1 0.564758 0.890754 0.511765
5450 1 0.994836 0.893159 0.512035
5256 1 0.508893 0.912126 0.518166
5541 1 0.521255 0.907523 0.516265
2652 1 0.535315 0.90853 0.516056
5254 1 0.549089 0.9007 0.513946
2730 1 0.546596 0.916941 0.514681
5540 1 0.557827 0.916064 0.51344
5399 1 0.561087 0.902178 0.513237
5325 1 0.571615 0.910953 0.511868
62 1 0.505917 0.936642 0.518766
55 1 0.503981 0.923882 0.518423
2717 1 0.519715 0.921044 0.516174
2729 1 0.532957 0.922183 0.516897
2658 1 0.534715 0.933067 0.515743
5393 1 0.521876 0.935179 0.517808
5252 1 0.544903 0.930427 0.515444
5464 1 0.558771 0.930787 0.514107
5536 1 0.572922 0.937815 0.512698
127 1 0.501475 0.952334 0.520499
5323 1 0.513149 0.950252 0.518335
2793 1 0.523625 0.952352 0.516285
5114 1 0.534869 0.946046 0.515284
5396 1 0.548129 0.944778 0.512986
5462 1 0.550776 0.958618 0.513966
2813 1 0.579972 0.950475 0.512535
5461 1 0.56339 0.947568 0.514031
5321 1 0.512701 0.965047 0.519808
5398 1 0.538408 0.960678 0.514774
2789 1 0.525918 0.967466 0.518582
5465 1 0.54188 0.974247 0.516474
59 1 0.558373 0.971617 0.514355
2880 1 0.569232 0.961573 0.513333
5537 1 0.572614 0.975203 0.512254
2649 1 0.53225 0.983352 0.521633
2809 1 0.541704 0.99034 0.520757
5546 1 0.551578 0.983553 0.516254
2815 1 0.55829 0.99638 0.518343
2882 1 0.569895 0.989025 0.515699
2800 1 0.581446 0.989086 0.516906
3028 1 0.586951 0.980375 0.512357
2949 1 0.596632 0.993623 0.514767
5472 1 0.604016 0.983983 0.51275
1328 1 0.500971 0.508678 0.524682
4294 1 0.501155 0.52293 0.526099
4351 1 0.501603 0.556275 0.528146
4085 1 0.512923 0.547848 0.52439
4360 1 0.518908 0.560891 0.52476
4431 1 0.506787 0.569654 0.528048
4424 1 0.521257 0.57679 0.523686
4357 1 0.506011 0.585925 0.528686
4423 1 0.5107 0.599539 0.531055
4148 1 0.520684 0.592422 0.52521
4489 1 0.513749 0.617982 0.532207
4647 1 0.520324 0.607074 0.527823
4495 1 0.52877 0.616317 0.524211
4493 1 0.516682 0.635652 0.532235
4292 1 0.537361 0.624794 0.522941
4567 1 0.523004 0.623384 0.529833
4564 1 0.527609 0.633064 0.525987
4692 1 0.513808 0.653519 0.532954
4705 1 0.535139 0.643089 0.524937
4635 1 0.523307 0.646571 0.529507
4625 1 0.532949 0.659008 0.526447
4560 1 0.546085 0.652612 0.523283
2237 1 0.507867 0.676864 0.533727
2099 1 0.518465 0.663704 0.53066
4565 1 0.532877 0.671738 0.526681
2299 1 0.519247 0.680053 0.528889
4559 1 0.507944 0.689144 0.530758
2169 1 0.519151 0.694193 0.529027
4971 1 0.527797 0.687148 0.525902
2094 1 0.508742 0.714054 0.530042
4570 1 0.515016 0.703859 0.528446
4630 1 0.52443 0.717501 0.527623
4765 1 0.527667 0.703544 0.52535
4764 1 0.508753 0.732855 0.529352
4770 1 0.534279 0.720057 0.522953
2371 1 0.524107 0.732081 0.52528
2653 1 0.507612 0.747541 0.529241
4762 1 0.516052 0.757965 0.527297
4704 1 0.522219 0.746002 0.526819
4707 1 0.535664 0.745212 0.525135
4907 1 0.502245 0.762902 0.527589
4913 1 0.510972 0.769174 0.524635
5051 1 0.521076 0.774564 0.523572
2027 1 0.527671 0.760409 0.524831
4486 1 0.513868 0.79192 0.523473
4698 1 0.504258 0.797102 0.526259
4901 1 0.504363 0.782351 0.527887
4699 1 0.527786 0.787068 0.522881
4700 1 0.509313 0.807083 0.523499
2441 1 0.502132 0.821136 0.525163
5533 1 0.515417 0.977578 0.523242
197 1 0.503309 0.976569 0.526367
5463 1 0.50003 0.963462 0.524276
2797 1 0.503977 0.989727 0.528332
2725 1 0.519918 0.99456 0.5266
2794 1 0.532366 0.998582 0.526057
4487 1 0.503108 0.610934 0.534684
4553 1 0.508172 0.628542 0.534896
4706 1 0.505215 0.645546 0.534742
4624 1 0.500997 0.663934 0.535524
ITEM: TIMESTEP
400000
ITEM: NUMBER OF ATOMS
5600
ITEM: BOX BOUNDS pp pp pp
-3.6085000000000015e+01 3.6085000000000015e+01
-3.5714887652070217e+01 3.5714887652070217e+01
-6.1860000000000028e+01 6.1860000000000028e+01
ITEM: ATOMS id type xs ys zs
855 1 0.00906013 0.232408 0.431002
997 1 0.0208282 0.237287 0.430971
921 1 0.00929546 0.248339 0.427804
930 1 0.0234385 0.254316 0.430767
632 1 0.00208306 0.267295 0.426029
3430 1 0.013646 0.262388 0.42893
3779 1 0.0164625 0.27897 0.428475
853 1 0.0268651 0.27076 0.431448
843 1 0.0162068 0.292492 0.424277
1051 1 0.00321739 0.295889 0.423053
841 1 0.00314626 0.281278 0.423741
987 1 0.0313849 0.283233 0.429917
1004 1 0.0281408 0.296586 0.428544
1055 1 0.0398892 0.299616 0.4296
994 1 0.0177878 0.309836 0.425
918 1 0.00326583 0.309203 0.42434
846 1 0.0323547 0.30885 0.42839
1009 1 0.0448953 0.3156 0.431825
990 1 0.017801 0.322641 0.425337
1091 1 0.0184195 0.33609 0.425632
844 1 0.00541575 0.33329 0.424082
915 1 0.00363899 0.321126 0.42517
919 1 0.0300031 0.322234 0.428047
1152 1 0.0302775 0.336774 0.428265
1015 1 0.0418428 0.328304 0.43103
1082 1 0.00969878 0.345529 0.423025
1014 1 0.0219576 0.34774 0.427185
1147 1 0.036057 0.352355 0.429149
932 1 0.0433438 0.34196 0.430892
4055 1 0.00237896 0.361181 0.424663
993 1 0.0165316 0.360065 0.425862
1054 1 0.0127383 0.373323 0.427277
3911 1 -0.000398003 0.373152 0.425617
914 1 0.0268176 0.374945 0.430149
3848 1 0.0271242 0.362661 0.428838
1077 1 0.0382565 0.369616 0.43038
1071 1 -0.000945611 0.399107 0.43184
1061 1 0.0118901 0.386172 0.430643
1204 1 0.0129898 0.398527 0.430551
912 1 0.0237302 0.387089 0.431972
790 1 0.0102235 0.193651 0.441609
926 1 0.000227824 0.203738 0.438289
581 1 0.0147115 0.207056 0.43648
856 1 0.00125874 0.217832 0.433264
927 1 0.0247907 0.199163 0.440039
850 1 0.0290362 0.213928 0.435507
647 1 0.0393918 0.205651 0.439463
502 1 0.0538522 0.204392 0.442689
851 1 0.0565577 0.214764 0.43857
1001 1 0.0438513 0.217773 0.436195
1013 1 0.0670495 0.215656 0.441427
857 1 0.06588 0.202336 0.443038
798 1 0.0933158 0.217589 0.44426
725 1 0.0157795 0.220782 0.433069
580 1 0.0286633 0.228388 0.434415
797 1 0.043688 0.231669 0.433614
849 1 0.0587798 0.226625 0.436032
871 1 0.0714003 0.226561 0.438405
783 1 0.0626251 0.239997 0.436035
1003 1 0.0828716 0.230994 0.440262
728 1 0.0963945 0.230506 0.44166
867 1 0.0388317 0.257564 0.432991
924 1 0.0335458 0.245321 0.43127
780 1 0.0491577 0.247315 0.433721
939 1 0.0645161 0.254303 0.43568
800 1 0.0751471 0.244007 0.43715
1005 1 0.079382 0.259382 0.43578
787 1 0.0878118 0.244314 0.439583
642 1 0.0986695 0.243954 0.44165
729 1 0.0903986 0.256948 0.438258
863 1 0.103446 0.254973 0.441531
775 1 0.0400512 0.270916 0.433282
771 1 0.0543344 0.27957 0.434991
1007 1 0.0508522 0.261104 0.434003
865 1 0.0653966 0.267481 0.434802
3709 1 0.0688837 0.28116 0.435176
847 1 0.08047 0.27362 0.435551
931 1 0.0945608 0.271562 0.437524
727 1 0.105377 0.265484 0.439717
733 1 0.116319 0.26476 0.442957
868 1 0.0443031 0.28832 0.433054
854 1 0.0536814 0.299606 0.43219
848 1 0.0643903 0.293691 0.434541
726 1 0.0781645 0.291364 0.436272
1008 1 0.0889388 0.283826 0.438402
1000 1 0.098757 0.296079 0.439175
1154 1 0.105596 0.280038 0.439752
862 1 0.112142 0.292587 0.442309
1011 1 0.0610251 0.315618 0.434596
3920 1 0.0691364 0.306832 0.435489
773 1 0.0754966 0.317506 0.438283
872 1 0.0863777 0.303826 0.439446
1081 1 0.0901339 0.318754 0.44088
916 1 0.102283 0.306518 0.443219
938 1 0.0552785 0.329912 0.432415
917 1 0.0675251 0.325769 0.435581
929 1 0.0660763 0.337452 0.436065
923 1 0.0827505 0.333896 0.438973
1006 1 0.096317 0.329733 0.442932
714 1 0.0525085 0.346174 0.432933
1143 1 0.0520293 0.359221 0.433012
928 1 0.0634058 0.355312 0.437611
1217 1 0.0772253 0.347899 0.437842
1354 1 0.0911597 0.344476 0.441637
1073 1 0.0865092 0.357853 0.439939
1219 1 0.10019 0.355522 0.441948
922 1 0.0488897 0.375978 0.433405
1497 1 0.0609211 0.370138 0.43608
1150 1 0.0725098 0.36382 0.438419
1140 1 0.0747786 0.377353 0.440352
1084 1 0.0864846 0.370885 0.442262
1067 1 0.0379423 0.388588 0.43215
991 1 0.0240172 0.399099 0.434512
1064 1 0.0504156 0.389782 0.436277
934 1 0.0601119 0.396374 0.441487
1141 1 0.061543 0.381323 0.439189
1062 1 0.00455397 0.408902 0.433176
1132 1 0.0177119 0.414283 0.435971
1125 1 0.0377557 0.399794 0.437448
1068 1 0.0313618 0.412048 0.438007
985 1 0.0389727 0.41919 0.44024
1491 1 0.0505992 0.406751 0.441616
1202 1 0.0123536 0.426113 0.437983
1056 1 -0.000752902 0.437842 0.4398
1197 1 0.0273152 0.428077 0.439902
435 1 0.0173275 0.158161 0.454689
503 1 0.00838784 0.167879 0.45134
713 1 0.0108965 0.183114 0.447111
504 1 0.0236234 0.173217 0.451301
568 1 0.0425293 0.170379 0.452575
864 1 0.0549313 0.168306 0.453666
721 1 0.0489623 0.180876 0.448542
648 1 0.0630207 0.180081 0.44963
576 1 0.0830272 0.1764 0.454085
935 1 0.0209498 0.186807 0.444583
866 1 0.0369857 0.192969 0.445627
500 1 0.0345019 0.179893 0.448063
940 1 0.0490544 0.191249 0.443847
719 1 0.0626272 0.190232 0.444715
942 1 0.0761546 0.190251 0.447501
724 1 0.0867589 0.191291 0.450374
651 1 0.0969974 0.184103 0.453348
439 1 0.101346 0.196189 0.450126
859 1 0.0787191 0.215135 0.442784
795 1 0.0788405 0.203604 0.445078
650 1 0.0912026 0.206039 0.44737
516 1 0.106981 0.209267 0.447963
593 1 0.115889 0.203306 0.453467
589 1 0.117618 0.214805 0.449308
586 1 0.128873 0.215274 0.453784
723 1 0.106648 0.226938 0.445743
522 1 0.119787 0.226689 0.447608
657 1 0.13167 0.225722 0.450506
739 1 0.135029 0.23683 0.448773
999 1 0.122861 0.238454 0.445381
730 1 0.147826 0.239369 0.451956
512 1 0.143954 0.2262 0.453127
597 1 0.109545 0.240312 0.445311
873 1 0.116644 0.253151 0.444782
588 1 0.129923 0.251835 0.445144
579 1 0.14228 0.254192 0.447832
735 1 0.156137 0.248931 0.45285
574 1 0.119542 0.277923 0.444143
591 1 0.127758 0.265057 0.445861
664 1 0.139473 0.268489 0.446094
1016 1 0.15036 0.266052 0.449356
937 1 0.159973 0.277419 0.452851
799 1 0.162163 0.262693 0.452047
1078 1 0.124382 0.291662 0.446023
1017 1 0.133791 0.281625 0.447978
659 1 0.149442 0.279791 0.448785
662 1 0.140501 0.295305 0.45031
858 1 0.155051 0.293693 0.453508
802 1 0.120021 0.306922 0.445019
947 1 0.107482 0.317797 0.445151
793 1 0.129963 0.30257 0.446919
941 1 0.12367 0.317798 0.447568
1155 1 0.133843 0.313112 0.449641
1010 1 0.145772 0.307422 0.451916
869 1 0.111852 0.330011 0.444741
1072 1 0.126047 0.330444 0.448352
1220 1 0.136674 0.325347 0.451657
1022 1 0.141092 0.336264 0.453745
1285 1 0.148278 0.321228 0.453293
1213 1 0.104577 0.341394 0.443506
936 1 0.119298 0.341272 0.447912
1362 1 0.112757 0.354387 0.446582
1066 1 0.130538 0.341888 0.451394
1499 1 0.123046 0.354501 0.448822
933 1 0.135612 0.355203 0.451795
1069 1 0.0982856 0.369526 0.44395
1205 1 0.113157 0.368362 0.445351
998 1 0.125489 0.366441 0.449582
1429 1 0.133891 0.379924 0.454242
1145 1 0.14219 0.366453 0.454692
1126 1 0.0706713 0.389868 0.442972
1080 1 0.0851381 0.386267 0.443058
1137 1 0.0878731 0.395241 0.449162
1423 1 0.0973889 0.381524 0.447312
1571 1 0.110787 0.380272 0.44731
1288 1 0.102234 0.395297 0.450335
1488 1 0.114095 0.39233 0.452452
943 1 0.121772 0.380676 0.450537
1431 1 0.126546 0.392115 0.454477
1134 1 0.0634389 0.408541 0.445009
1063 1 0.0768457 0.402687 0.44567
1215 1 0.0831127 0.411476 0.448691
1283 1 0.0960395 0.408957 0.449686
1495 1 0.105559 0.408269 0.453334
1191 1 0.0194032 0.44024 0.443776
1060 1 0.0364887 0.43617 0.44442
1136 1 0.0439833 0.427298 0.443614
1345 1 0.0544522 0.419909 0.444363
1144 1 0.0594409 0.431738 0.447668
1486 1 0.0707008 0.420384 0.445692
1417 1 0.0724345 0.437046 0.449572
1492 1 0.0953059 0.421439 0.451608
1139 1 0.0799555 0.427169 0.449609
989 1 0.00491392 0.447674 0.443645
1284 1 0.0173117 0.455685 0.446567
992 1 0.00221099 0.459851 0.447238
1271 1 0.0328028 0.451496 0.446979
1075 1 0.0470858 0.439423 0.444253
1272 1 0.0460076 0.453867 0.448036
1076 1 0.0595596 0.44658 0.448503
1349 1 0.0743931 0.451884 0.452667
1142 1 0.0846252 0.443575 0.453895
1192 1 0.00151403 0.472899 0.450596
1123 1 0.0164965 0.470131 0.450815
1199 1 0.0285795 0.463686 0.45119
1195 1 0.0428468 0.46796 0.450881
1206 1 0.0579106 0.460792 0.453071
1278 1 0.0182803 0.482494 0.453616
1265 1 0.00438155 0.483634 0.453821
72 1 0.0106595 0.131909 0.463622
75 1 0.0270445 0.137358 0.461944
426 1 0.0407993 0.135421 0.463434
143 1 0.0504428 0.132511 0.465303
440 1 0.0665217 0.134782 0.462653
645 1 0.00274203 0.155016 0.456843
575 1 0.0139288 0.146378 0.460183
3288 1 -0.000188232 0.141753 0.461733
636 1 0.0315128 0.152498 0.45849
501 1 0.0417283 0.147693 0.459494
711 1 0.056068 0.144839 0.45998
788 1 0.0453176 0.158289 0.455756
520 1 0.0621614 0.156594 0.456937
582 1 0.072621 0.148447 0.4596
438 1 0.0797954 0.159952 0.45754
577 1 0.0824765 0.145661 0.462969
646 1 0.0916657 0.15754 0.460485
507 1 0.108164 0.155002 0.465547
444 1 0.0990187 0.144385 0.465104
572 1 0.0343174 0.163401 0.454513
860 1 0.0710453 0.168487 0.454898
432 1 0.0905299 0.168944 0.45746
649 1 0.100164 0.172699 0.457189
595 1 0.106665 0.164894 0.46146
794 1 0.118427 0.167999 0.464008
652 1 0.110088 0.179072 0.457941
658 1 0.132488 0.168075 0.465698
519 1 0.123578 0.178828 0.4615
316 1 0.141839 0.174538 0.46436
585 1 0.109131 0.191156 0.454977
583 1 0.122454 0.191566 0.458966
456 1 0.134802 0.186347 0.461646
578 1 0.134449 0.20049 0.459593
592 1 0.150729 0.182623 0.463037
305 1 0.148643 0.199737 0.462202
450 1 0.160075 0.19091 0.465548
445 1 0.173501 0.198465 0.465384
372 1 0.12625 0.204061 0.45637
378 1 0.137142 0.216259 0.457769
518 1 0.149358 0.215269 0.45978
656 1 0.163233 0.207394 0.462105
814 1 0.174787 0.218095 0.461339
394 1 0.180582 0.209236 0.464368
809 1 0.157685 0.230303 0.456008
446 1 0.174011 0.231622 0.460206
517 1 0.165002 0.219296 0.458176
806 1 0.188793 0.220324 0.46335
524 1 0.188595 0.232429 0.461203
526 1 0.200655 0.225443 0.466308
796 1 0.165145 0.241267 0.455417
598 1 0.173945 0.256913 0.456409
1029 1 0.196432 0.239659 0.464905
736 1 0.179185 0.246234 0.458996
594 1 0.188232 0.252322 0.461132
944 1 0.201663 0.254137 0.466381
801 1 0.172525 0.273037 0.456356
737 1 0.183771 0.265001 0.458914
878 1 0.195726 0.268242 0.463966
1083 1 0.168401 0.286812 0.456824
604 1 0.183756 0.280684 0.460106
1012 1 0.180572 0.294538 0.459831
732 1 0.191319 0.293049 0.462814
808 1 0.200562 0.282185 0.464451
946 1 0.157016 0.304926 0.456279
660 1 0.15881 0.317606 0.45718
1086 1 0.169241 0.300816 0.457895
590 1 0.168951 0.316199 0.460584
803 1 0.179161 0.308655 0.462018
1090 1 0.191757 0.305734 0.463568
945 1 0.187355 0.318105 0.464651
1223 1 0.153142 0.332446 0.456645
870 1 0.177463 0.326583 0.46353
1156 1 0.165364 0.330666 0.459753
1221 1 0.14485 0.348779 0.455316
1289 1 0.157874 0.343692 0.458704
1087 1 0.153388 0.359879 0.459558
1146 1 0.17108 0.341478 0.46374
1360 1 0.168483 0.354991 0.46225
1148 1 0.14639 0.376883 0.45999
1363 1 0.161498 0.372489 0.463442
1085 1 0.141091 0.395551 0.457601
1297 1 0.154419 0.389655 0.461993
1361 1 0.117263 0.407844 0.454762
1436 1 0.129967 0.403759 0.458169
1074 1 0.128006 0.414326 0.459395
1357 1 0.149485 0.402691 0.461402
1359 1 0.14089 0.412006 0.460436
1209 1 0.0957416 0.433341 0.454798
1352 1 0.118367 0.422133 0.458038
1561 1 0.107042 0.421135 0.456459
1149 1 0.107648 0.437151 0.457768
1282 1 0.122495 0.434728 0.461932
1225 1 0.131961 0.425247 0.464583
1484 1 0.0973294 0.446835 0.457522
1135 1 0.0836082 0.4577 0.456801
1410 1 0.113174 0.446582 0.463047
4541 1 0.0304468 0.476244 0.454134
1203 1 0.0577899 0.475558 0.455699
1133 1 0.0456717 0.479369 0.455992
1270 1 0.071122 0.467031 0.45603
1489 1 0.0783701 0.472924 0.460575
1494 1 0.0899869 0.46511 0.461502
1274 1 0.102562 0.461476 0.463713
4399 1 0.00805318 0.493107 0.457288
1266 1 0.0215247 0.4918 0.457959
1210 1 0.0354105 0.489296 0.457203
1343 1 0.0460842 0.497962 0.463277
1408 1 0.0523531 0.486758 0.45949
1281 1 0.0604507 0.495002 0.464823
1418 1 0.0671597 0.480751 0.459422
1340 1 0.0735653 0.490542 0.465206
643 1 0.00192948 0.0958697 0.47505
641 1 0.0180326 0.0946873 0.474961
78 1 0.0290832 0.0870425 0.477569
493 1 0.0291032 0.100138 0.473775
144 1 0.0580388 0.0877701 0.476148
2938 1 0.0427698 0.0908962 0.476078
499 1 0.0720383 0.0865046 0.475546
570 1 0.0681142 0.0996102 0.472844
228 1 0.0851092 0.0926413 0.474616
564 1 0.0032792 0.120973 0.466769
638 1 0.0161151 0.104248 0.47051
281 1 0.00285887 0.109579 0.469398
573 1 0.0303798 0.109776 0.468662
360 1 0.0182927 0.118311 0.467701
359 1 0.0450418 0.103091 0.473119
514 1 0.0562409 0.102485 0.473089
506 1 0.0573714 0.11248 0.469054
635 1 0.0418908 0.112021 0.470155
433 1 0.0696776 0.112089 0.471279
442 1 0.0840334 0.109046 0.473009
361 1 0.0964943 0.105287 0.476114
653 1 0.0979489 0.116599 0.472928
225 1 0.108765 0.106438 0.477154
571 1 0.0351848 0.123725 0.46604
436 1 0.0468107 0.121623 0.468164
654 1 0.0781733 0.134184 0.46567
368 1 0.0613612 0.126435 0.466019
294 1 0.0731513 0.122564 0.468039
302 1 0.0857229 0.11882 0.468813
437 1 0.0891114 0.130013 0.466881
292 1 0.113313 0.120205 0.474066
584 1 0.104476 0.129906 0.468577
716 1 0.120556 0.134426 0.470952
377 1 0.127213 0.123556 0.475106
509 1 0.137362 0.134127 0.474222
655 1 0.114633 0.143837 0.467398
285 1 0.122158 0.156196 0.466329
232 1 0.132432 0.144661 0.469323
430 1 0.140288 0.15802 0.467205
161 1 0.148264 0.146959 0.473462
248 1 0.154387 0.155721 0.470676
510 1 0.155748 0.139916 0.476993
362 1 0.16683 0.151501 0.474364
301 1 0.192764 0.156419 0.475395
449 1 0.158852 0.172742 0.46714
596 1 0.149178 0.165937 0.467659
385 1 0.165842 0.164476 0.470544
234 1 0.177576 0.171353 0.470116
380 1 0.168376 0.179538 0.468827
252 1 0.180694 0.16067 0.472727
371 1 0.194451 0.17199 0.472856
820 1 0.207706 0.163658 0.476921
452 1 0.210175 0.179914 0.472526
451 1 0.222173 0.173622 0.476226
304 1 0.176836 0.187662 0.466868
384 1 0.185107 0.18199 0.470649
807 1 0.188202 0.196161 0.46811
454 1 0.219408 0.189798 0.473189
527 1 0.201215 0.187586 0.471739
812 1 0.204042 0.199198 0.468721
603 1 0.22936 0.186217 0.476372
745 1 0.195306 0.208602 0.466384
888 1 0.207906 0.214745 0.467551
525 1 0.216759 0.202316 0.471556
668 1 0.228075 0.200152 0.475344
1105 1 0.221813 0.215759 0.470488
889 1 0.233735 0.216194 0.473975
1157 1 0.246095 0.205368 0.477151
879 1 0.21682 0.229652 0.469173
876 1 0.230197 0.227579 0.472201
1304 1 0.244302 0.223506 0.475548
881 1 0.244507 0.234789 0.476216
805 1 0.209999 0.242184 0.467229
1025 1 0.216509 0.25387 0.470125
886 1 0.223469 0.242773 0.471738
804 1 0.226874 0.256187 0.474768
742 1 0.23557 0.244636 0.47565
661 1 0.208467 0.265758 0.466964
875 1 0.213563 0.279438 0.468314
1160 1 0.219644 0.269826 0.470622
1096 1 0.232896 0.270343 0.474918
665 1 0.20403 0.29471 0.466945
587 1 0.216377 0.289852 0.470568
952 1 0.225766 0.281926 0.473118
948 1 0.226597 0.297727 0.476118
1088 1 0.201596 0.309749 0.468523
1027 1 0.214962 0.307335 0.472779
1019 1 0.226362 0.312561 0.476794
1151 1 0.196434 0.32469 0.469465
1159 1 0.184092 0.333703 0.467981
731 1 0.191118 0.335506 0.473591
1020 1 0.207095 0.318781 0.47303
1018 1 0.205249 0.334657 0.474185
880 1 0.218461 0.324825 0.477013
1358 1 0.177975 0.355682 0.467918
1292 1 0.181402 0.344629 0.469112
1287 1 0.192438 0.347436 0.473401
1364 1 0.186694 0.357948 0.474067
1293 1 0.172768 0.367156 0.468222
1224 1 0.175172 0.381498 0.473441
1290 1 0.1828 0.36985 0.475206
1435 1 0.167566 0.384346 0.46771
1575 1 0.163018 0.398481 0.467073
1355 1 0.17135 0.398399 0.472172
1366 1 0.18488 0.389429 0.475405
1216 1 0.153333 0.410901 0.467024
1291 1 0.166821 0.410418 0.472537
1346 1 0.13753 0.436398 0.468902
1426 1 0.148001 0.424126 0.467404
1079 1 0.151621 0.435799 0.47395
1218 1 0.158296 0.422786 0.473359
1350 1 0.126373 0.447022 0.466885
1428 1 0.13915 0.450115 0.474357
1351 1 0.132175 0.461195 0.472459
1425 1 0.0977954 0.475957 0.467467
1413 1 0.0853657 0.481252 0.465798
1138 1 0.118045 0.461033 0.466714
1419 1 0.109298 0.471837 0.468584
1153 1 0.122126 0.472362 0.471174
1564 1 0.131176 0.474056 0.476776
1131 1 0.0758352 0.500333 0.469443
1332 1 0.0882528 0.491592 0.469213
4338 1 0.102826 0.486925 0.470732
1280 1 0.114278 0.482904 0.471246
1412 1 0.0975083 0.499249 0.475431
2750 1 0.102184 0.0575441 0.487157
77 1 0.120323 0.0588445 0.48811
3148 1 0.00164513 0.0621865 0.486858
365 1 0.0180009 0.0619473 0.486587
295 1 0.0126983 0.0732846 0.482145
427 1 0.0344729 0.0650847 0.486511
497 1 0.0259362 0.0746109 0.481625
366 1 0.0498446 0.0632263 0.486952
291 1 0.0404361 0.0753661 0.481246
357 1 0.0531 0.0777035 0.480412
157 1 0.0710177 0.0607515 0.487113
505 1 0.0672602 0.0751211 0.480995
284 1 0.0591027 0.0663776 0.483315
26 1 0.0774558 0.0703911 0.48265
11 1 0.0915464 0.0645321 0.484233
3150 1 0.0852797 0.0804143 0.480763
293 1 0.101276 0.0737222 0.48353
367 1 0.109492 0.0660949 0.486053
569 1 0.118675 0.0743436 0.484829
155 1 0.128625 0.0704589 0.486037
95 1 0.138271 0.0626474 0.4871
158 1 0.146206 0.0740488 0.486468
246 1 0.157402 0.067249 0.48837
92 1 0.169021 0.0753111 0.486363
235 1 0.182721 0.0705945 0.489127
282 1 0.000345307 0.0831992 0.477437
356 1 0.0118521 0.0839504 0.477817
287 1 0.0977658 0.0922236 0.479208
17 1 0.115919 0.0972212 0.479975
448 1 0.108507 0.082435 0.48216
172 1 0.135078 0.0812787 0.484594
373 1 0.134042 0.0988338 0.480117
10 1 0.12451 0.0856865 0.48299
148 1 0.144308 0.0917162 0.484521
87 1 0.154854 0.0819119 0.484671
300 1 0.163732 0.0881825 0.48363
94 1 0.17701 0.0876421 0.484074
14 1 0.19139 0.0845873 0.486029
102 1 0.1941 0.0978333 0.484621
166 1 0.20615 0.0898972 0.488318
224 1 0.12842 0.110335 0.479282
82 1 0.156272 0.101435 0.481794
374 1 0.144004 0.107455 0.480599
2747 1 0.141889 0.119274 0.478457
223 1 0.156327 0.116935 0.480606
230 1 0.16923 0.104098 0.482034
434 1 0.173672 0.117489 0.481597
229 1 0.18182 0.101453 0.483483
370 1 0.18893 0.114656 0.482452
156 1 0.213532 0.102922 0.485777
233 1 0.20224 0.109117 0.484956
226 1 0.211252 0.117275 0.484871
180 1 0.222332 0.111044 0.488149
299 1 0.149431 0.129962 0.478876
443 1 0.168388 0.139596 0.478045
154 1 0.164958 0.127785 0.481023
89 1 0.183508 0.13083 0.480828
508 1 0.198277 0.126364 0.482167
240 1 0.213333 0.134213 0.483596
236 1 0.223589 0.12662 0.485085
744 1 0.235281 0.134045 0.485738
375 1 0.181922 0.146058 0.477387
376 1 0.198507 0.141447 0.479982
317 1 0.212251 0.149682 0.482423
389 1 0.225467 0.143228 0.483216
90 1 0.22337 0.159633 0.480232
521 1 0.239727 0.150429 0.48337
379 1 0.247217 0.140662 0.488646
601 1 0.251378 0.158227 0.485182
388 1 0.260884 0.14868 0.489645
667 1 0.240004 0.161252 0.479754
453 1 0.235337 0.171968 0.47805
1030 1 0.245436 0.180059 0.478568
670 1 0.25248 0.169971 0.482219
671 1 0.26626 0.158954 0.485925
815 1 0.265396 0.17397 0.485826
513 1 0.242956 0.192032 0.477925
747 1 0.25673 0.186582 0.48089
1093 1 0.257546 0.200462 0.480796
734 1 0.265953 0.193073 0.484766
750 1 0.256443 0.21758 0.480069
672 1 0.264185 0.212995 0.484232
1031 1 0.269396 0.205023 0.487846
950 1 0.256968 0.230916 0.481445
608 1 0.267782 0.225305 0.485347
756 1 0.27351 0.234962 0.488427
746 1 0.252813 0.24762 0.480499
1158 1 0.242734 0.258686 0.478727
960 1 0.263036 0.241359 0.483871
1026 1 0.266249 0.253371 0.48645
810 1 0.257528 0.260966 0.482943
1227 1 0.245081 0.272761 0.480459
534 1 0.253433 0.27322 0.485155
822 1 0.266076 0.27135 0.486591
953 1 0.234144 0.28371 0.47844
1167 1 0.247259 0.288059 0.48215
955 1 0.254472 0.298963 0.485727
1095 1 0.262106 0.288146 0.4867
663 1 0.238571 0.300533 0.479932
1299 1 0.236057 0.3158 0.480809
874 1 0.249607 0.311228 0.484747
1021 1 0.263544 0.31007 0.487727
1230 1 0.213505 0.334312 0.479491
949 1 0.229321 0.328662 0.48225
1226 1 0.242851 0.325109 0.48628
1447 1 0.25514 0.321681 0.488995
1305 1 0.200965 0.348499 0.478106
877 1 0.213846 0.347474 0.481533
1092 1 0.235056 0.341944 0.486701
954 1 0.223859 0.338451 0.482819
957 1 0.223315 0.353924 0.485477
1023 1 0.197929 0.360229 0.477886
1222 1 0.194926 0.373847 0.479241
1089 1 0.208225 0.362113 0.481668
1024 1 0.205583 0.378369 0.484221
1237 1 0.216121 0.369427 0.486481
1303 1 0.199907 0.392971 0.482845
1301 1 0.211781 0.39083 0.488042
1372 1 0.179395 0.404419 0.477443
1300 1 0.182199 0.416254 0.481919
1505 1 0.190052 0.402437 0.481601
1440 1 0.195377 0.408148 0.486408
1365 1 0.20451 0.400565 0.487533
1503 1 0.162856 0.433942 0.478787
1424 1 0.17117 0.421023 0.478186
1581 1 0.177265 0.432929 0.483624
1507 1 0.188702 0.425697 0.486471
1214 1 0.152018 0.449332 0.47879
1570 1 0.159737 0.457973 0.481756
1356 1 0.167821 0.445172 0.483193
1504 1 0.172122 0.45755 0.48798
1498 1 0.180489 0.443769 0.488703
1344 1 0.144498 0.464984 0.478863
1353 1 0.154794 0.469427 0.482091
1407 1 0.144149 0.478399 0.480305
1557 1 0.16736 0.467335 0.485726
1339 1 0.114418 0.497134 0.478038
1421 1 0.125831 0.487814 0.477244
1477 1 0.138935 0.491883 0.482225
1415 1 0.152848 0.482688 0.485056
1639 1 0.149004 0.492597 0.486604
1541 1 0.16512 0.482611 0.489813
3077 1 0.00490861 0.0156623 0.49805
150 1 0.0178379 0.0225028 0.497336
71 1 0.00827086 0.0311255 0.493909
216 1 0.0178233 0.0407078 0.491271
561 1 0.02484 0.0333823 0.494704
218 1 0.0365253 0.0266999 0.496158
2661 1 0.0498205 0.0342877 0.495727
298 1 0.0502718 0.0229709 0.500476
2735 1 0.0617938 0.0268547 0.498912
363 1 0.066225 0.0401436 0.495418
3080 1 0.0791049 0.0319547 0.499549
2752 1 0.0952731 0.0327767 0.497776
220 1 0.0860031 0.0393739 0.494515
219 1 0.108535 0.0376789 0.495911
8 1 0.122078 0.0326452 0.498422
491 1 0.0101321 0.0503456 0.488309
2933 1 -0.00144215 0.0431102 0.492367
222 1 0.037329 0.0420108 0.491531
227 1 0.0268336 0.0471492 0.489195
423 1 0.0430483 0.0547993 0.488444
2673 1 0.0511273 0.0482019 0.4927
428 1 0.0598142 0.0543056 0.489199
289 1 0.075729 0.048721 0.49235
429 1 0.0876367 0.0553281 0.488232
364 1 0.0961459 0.0477177 0.49273
74 1 0.114263 0.0486379 0.492073
2687 1 0.137501 0.0416833 0.497461
18 1 0.125102 0.0451189 0.495391
2749 1 0.133603 0.0514653 0.490211
231 1 0.158614 0.044925 0.497334
447 1 0.145109 0.0481303 0.492919
93 1 0.151167 0.0569319 0.488837
173 1 0.172773 0.0393073 0.498905
86 1 0.165586 0.0507203 0.493402
100 1 0.176381 0.0514511 0.496322
245 1 0.191633 0.0533709 0.498451
107 1 0.205772 0.0527637 0.499192
297 1 0.170822 0.0623417 0.489773
239 1 0.198351 0.0629181 0.493367
37 1 0.185095 0.0606301 0.494142
2616 1 0.195491 0.073147 0.490628
103 1 0.214842 0.065711 0.495688
174 1 0.207843 0.0751254 0.490221
153 1 0.21835 0.0819752 0.492963
167 1 0.227615 0.0758183 0.49549
308 1 0.237773 0.0697477 0.498882
105 1 0.245465 0.0799958 0.497399
168 1 0.22345 0.0929715 0.490567
164 1 0.235883 0.0882058 0.494503
307 1 0.24667 0.0973017 0.494714
249 1 0.256777 0.0895267 0.497321
321 1 0.26747 0.0908923 0.499246
390 1 0.281976 0.0960608 0.499893
303 1 0.235391 0.118084 0.488292
472 1 0.233592 0.103849 0.489685
515 1 0.250275 0.112165 0.492516
244 1 0.259136 0.103195 0.494872
320 1 0.26262 0.117292 0.494671
395 1 0.271486 0.10221 0.497425
238 1 0.275059 0.112657 0.495285
309 1 0.288836 0.107843 0.498931
312 1 0.284589 0.12019 0.496314
381 1 0.299853 0.115826 0.499372
457 1 0.247793 0.125452 0.491249
602 1 0.258462 0.132239 0.490771
441 1 0.271371 0.138904 0.491675
171 1 0.272872 0.125295 0.492727
543 1 0.296929 0.127199 0.496349
322 1 0.285141 0.135985 0.494853
530 1 0.308729 0.128421 0.498901
242 1 0.275994 0.152749 0.492706
666 1 0.287826 0.149991 0.49513
738 1 0.299427 0.142764 0.496448
533 1 0.310723 0.142727 0.499753
460 1 0.301126 0.157622 0.498353
606 1 0.277273 0.165519 0.491791
813 1 0.274215 0.178005 0.489924
386 1 0.287034 0.17778 0.49519
387 1 0.289579 0.164345 0.495882
743 1 0.301206 0.172452 0.499439
528 1 0.275659 0.190661 0.491031
532 1 0.290771 0.192129 0.496146
885 1 0.280221 0.205878 0.491486
1098 1 0.291167 0.208399 0.496324
610 1 0.301174 0.218311 0.500493
676 1 0.279736 0.221127 0.489617
758 1 0.283436 0.235599 0.493266
673 1 0.288196 0.218245 0.494681
623 1 0.297416 0.232706 0.498209
884 1 0.277346 0.248652 0.489411
690 1 0.290311 0.243722 0.497301
759 1 0.286267 0.253644 0.493616
824 1 0.298832 0.253224 0.498973
823 1 0.276296 0.262555 0.490834
599 1 0.283711 0.271643 0.493647
890 1 0.293442 0.264449 0.49826
1162 1 0.273423 0.280202 0.491335
1161 1 0.269397 0.297878 0.490099
1165 1 0.279745 0.290818 0.493541
620 1 0.289498 0.283364 0.496761
887 1 0.294301 0.297288 0.498361
882 1 0.274477 0.309291 0.492892
1169 1 0.283383 0.302574 0.494691
825 1 0.290236 0.314874 0.496098
962 1 0.300655 0.309119 0.498946
1228 1 0.246717 0.335759 0.490512
1232 1 0.258031 0.334307 0.493103
951 1 0.279376 0.322534 0.494155
1097 1 0.268005 0.324281 0.491173
1176 1 0.271331 0.336021 0.495843
1173 1 0.294982 0.325288 0.498294
1106 1 0.284713 0.332839 0.498215
1229 1 0.238196 0.356697 0.489065
1239 1 0.24823 0.349046 0.494404
1164 1 0.258923 0.35929 0.496873
1375 1 0.262299 0.346114 0.494859
1028 1 0.27366 0.348825 0.498533
1302 1 0.228487 0.367479 0.489848
1231 1 0.231179 0.376884 0.492552
1295 1 0.244905 0.366631 0.495371
1234 1 0.257224 0.37401 0.497754
1483 1 0.218175 0.398451 0.492179
1501 1 0.219797 0.38221 0.490506
1298 1 0.227188 0.391412 0.49561
1379 1 0.245888 0.383316 0.49798
1238 1 0.239618 0.395667 0.499806
1576 1 0.198855 0.420291 0.489433
1514 1 0.208608 0.413186 0.49163
1308 1 0.220357 0.409668 0.494549
1286 1 0.232292 0.407051 0.498013
1433 1 0.228864 0.419012 0.498674
1427 1 0.191495 0.435897 0.490022
1573 1 0.202701 0.431636 0.492638
1367 1 0.21459 0.42555 0.495467
1406 1 0.186249 0.452707 0.493399
1510 1 0.196441 0.44639 0.49481
1370 1 0.210698 0.443853 0.499308
1279 1 0.204431 0.456987 0.499316
1709 1 0.176322 0.476874 0.491275
1485 1 0.188863 0.475591 0.494082
1493 1 0.194361 0.461425 0.496011
1409 1 0.180816 0.464739 0.49298
1566 1 0.157862 0.495427 0.490336
1723 1 0.171783 0.494244 0.49341
1783 1 0.198974 0.48635 0.499131
1560 1 0.18956 0.497054 0.497795
1338 1 0.182077 0.48657 0.495343
213 1 0.0155119 0.00591032 0.501116
76 1 0.0302248 0.0031958 0.504669
5 1 0.0278865 0.015124 0.501177
85 1 0.0440021 -0.000831192 0.506547
151 1 0.0569713 0.0107917 0.503003
2664 1 0.0421778 0.0137077 0.502641
2663 1 0.0727695 0.00591336 0.505914
2741 1 0.0710885 0.0195358 0.50177
2468 1 0.060964 0.00166331 0.507901
5452 1 0.0947571 0.00707594 0.507407
2522 1 0.0838062 0.0121351 0.503993
2742 1 0.100302 0.0173417 0.503394
215 1 0.112357 0.012733 0.505343
2611 1 0.124373 0.00848258 0.50911
2746 1 0.139662 0.00583933 0.510252
169 1 0.126045 0.0184408 0.50405
2537 1 0.14105 0.0178063 0.505833
13 1 0.156923 0.0211477 0.504357
2688 1 0.153519 0.00923326 0.509305
2398 1 0.169996 0.0167725 0.505771
2759 1 0.166781 0.00365675 0.51154
243 1 0.183643 0.0123719 0.508571
25 1 0.197083 0.0143487 0.509841
369 1 0.21027 0.0190159 0.509839
2613 1 0.223831 0.019443 0.508905
2330 1 0.234711 0.0203616 0.510518
146 1 0.0889254 0.0222587 0.500748
2470 1 0.115673 0.0226371 0.501196
23 1 0.105285 0.0276988 0.500648
2692 1 0.132853 0.0277243 0.501073
163 1 0.147397 0.0313527 0.502122
96 1 0.163109 0.032118 0.502435
28 1 0.179134 0.027013 0.50462
98 1 0.194718 0.0243211 0.505238
296 1 0.187392 0.03863 0.5004
2624 1 0.200434 0.0394128 0.501834
241 1 0.204727 0.0295361 0.505048
152 1 0.213439 0.0393646 0.50282
29 1 0.219339 0.0303825 0.506219
2469 1 0.232033 0.0295975 0.506205
2690 1 0.2451 0.0279189 0.509027
162 1 0.247333 0.0395393 0.50583
21 1 0.275982 0.0397458 0.510691
30 1 0.229113 0.0430023 0.506035
160 1 0.238669 0.0520959 0.502394
97 1 0.219523 0.0511674 0.501712
35 1 0.255668 0.0518442 0.505025
237 1 0.265761 0.0455786 0.507263
531 1 0.277642 0.0543242 0.509388
175 1 0.289482 0.0595359 0.508706
2691 1 0.28817 0.0446149 0.511058
247 1 0.301077 0.0509958 0.510076
2765 1 0.317058 0.0581587 0.511828
319 1 0.228488 0.0604506 0.500371
176 1 0.246781 0.0639143 0.501892
311 1 0.255893 0.0774712 0.502389
314 1 0.279584 0.0686592 0.506771
34 1 0.263219 0.0656994 0.504688
170 1 0.292219 0.0750722 0.506275
326 1 0.30536 0.0665862 0.50968
2764 1 0.317841 0.072478 0.509469
106 1 0.330622 0.0711608 0.510906
2760 1 0.268691 0.0791926 0.502477
99 1 0.284345 0.0852327 0.503079
306 1 0.295583 0.0898413 0.503535
462 1 0.308005 0.079468 0.506237
382 1 0.309995 0.0970052 0.503228
393 1 0.32355 0.0888414 0.508407
183 1 0.338854 0.0837525 0.510947
110 1 0.334329 0.0958258 0.509858
458 1 0.297705 0.101979 0.5019
461 1 0.311783 0.108713 0.501626
325 1 0.317151 0.118134 0.502415
687 1 0.323327 0.102354 0.505239
463 1 0.331085 0.110935 0.507122
397 1 0.344247 0.108895 0.508881
111 1 0.328815 0.124386 0.504292
324 1 0.322862 0.138727 0.50343
617 1 0.335562 0.138145 0.505582
318 1 0.342713 0.124512 0.508056
396 1 0.352095 0.132371 0.50964
467 1 0.316233 0.15612 0.501324
459 1 0.328886 0.151224 0.503975
404 1 0.340091 0.147904 0.508589
333 1 0.355057 0.145509 0.509346
600 1 0.313159 0.171206 0.502523
401 1 0.338643 0.162611 0.505396
391 1 0.338176 0.177779 0.508409
159 1 0.325107 0.169092 0.503675
250 1 0.351037 0.160827 0.50853
383 1 0.35164 0.174079 0.510564
605 1 0.313696 0.183834 0.503064
749 1 0.314881 0.196366 0.50415
740 1 0.300005 0.188064 0.499068
669 1 0.327291 0.183281 0.505554
529 1 0.326375 0.195489 0.505912
266 1 0.342793 0.188419 0.510654
470 1 0.355411 0.19725 0.512299
523 1 0.304526 0.20074 0.500562
536 1 0.313187 0.214659 0.502965
455 1 0.325491 0.207874 0.506531
741 1 0.335809 0.213542 0.509127
182 1 0.339017 0.20108 0.508631
398 1 0.310241 0.227567 0.503496
819 1 0.323132 0.238912 0.505451
607 1 0.336966 0.227105 0.509261
679 1 0.325568 0.225948 0.506642
609 1 0.347523 0.221857 0.510962
674 1 0.308043 0.240744 0.501009
678 1 0.314059 0.252962 0.504332
336 1 0.336867 0.240194 0.509457
685 1 0.329995 0.253638 0.506011
539 1 0.3454 0.25558 0.510563
751 1 0.357464 0.24868 0.512159
816 1 0.306823 0.267413 0.499719
682 1 0.322963 0.268244 0.502579
754 1 0.338953 0.265348 0.506529
559 1 0.355299 0.265106 0.508295
556 1 0.366173 0.261955 0.511516
681 1 0.317202 0.283817 0.501984
883 1 0.305417 0.292024 0.501419
892 1 0.299962 0.280908 0.500757
476 1 0.331601 0.280755 0.504901
748 1 0.326482 0.29541 0.503153
680 1 0.339789 0.293865 0.50561
625 1 0.347088 0.280375 0.505847
760 1 0.355165 0.294396 0.508594
821 1 0.361374 0.27999 0.51018
688 1 0.368861 0.293259 0.51051
675 1 0.312613 0.302417 0.500658
1174 1 0.316888 0.314791 0.501463
831 1 0.327809 0.309692 0.503572
753 1 0.342458 0.306338 0.506491
964 1 0.354338 0.306531 0.507204
684 1 0.342817 0.31984 0.50564
891 1 0.366338 0.307068 0.509188
3361 1 0.378347 0.301156 0.510875
963 1 0.317729 0.331186 0.504266
956 1 0.306895 0.322425 0.500906
959 1 0.300238 0.336745 0.50266
761 1 0.331059 0.322373 0.503992
697 1 0.328876 0.338454 0.50757
1175 1 0.342568 0.332362 0.508248
830 1 0.353528 0.333269 0.510305
765 1 0.353244 0.320249 0.507614
958 1 0.367451 0.323771 0.508821
811 1 0.300119 0.354164 0.50328
1244 1 0.286303 0.34829 0.500975
1101 1 0.313606 0.344639 0.504705
968 1 0.312535 0.358658 0.504334
827 1 0.325834 0.353492 0.508
1310 1 0.340422 0.346219 0.509567
1166 1 0.272085 0.364183 0.500111
1170 1 0.268958 0.378967 0.500531
1102 1 0.286214 0.364489 0.502091
961 1 0.285728 0.377183 0.503301
826 1 0.299319 0.366915 0.504343
1036 1 0.313059 0.372883 0.507313
828 1 0.325035 0.37059 0.509356
896 1 0.334905 0.36335 0.511093
967 1 0.348254 0.360253 0.512795
1515 1 0.257133 0.387882 0.500438
1094 1 0.274154 0.391735 0.503672
1296 1 0.289993 0.391942 0.5076
1172 1 0.298241 0.380846 0.506593
1309 1 0.30181 0.396388 0.510874
1307 1 0.313371 0.386478 0.511601
1163 1 0.242813 0.414334 0.502764
1445 1 0.252143 0.400045 0.501355
1587 1 0.256499 0.415348 0.503678
1236 1 0.26528 0.404758 0.505022
1374 1 0.273681 0.412374 0.508877
1313 1 0.282118 0.402195 0.508116
1657 1 0.222889 0.433787 0.500632
1509 1 0.239256 0.428013 0.504768
966 1 0.251994 0.430534 0.508553
1294 1 0.266249 0.424689 0.509275
1647 1 0.216702 0.459587 0.502359
1439 1 0.234834 0.444742 0.504045
1577 1 0.224138 0.449515 0.50294
1513 1 0.245138 0.441502 0.507637
1519 1 0.242331 0.45919 0.509562
1442 1 0.203605 0.471504 0.498752
1801 1 0.215392 0.47139 0.504886
1500 1 0.228411 0.460586 0.506543
1574 1 0.230345 0.473155 0.509541
1640 1 0.201417 0.498617 0.503787
1579 1 0.212273 0.495532 0.508591
1578 1 0.207207 0.484073 0.504712
1583 1 0.220949 0.485727 0.508972
16 1 0.108587 0.00122709 0.511103
2607 1 0.178394 -0.000314415 0.51358
2467 1 0.192931 0.00233156 0.513368
2554 1 0.209057 0.00438708 0.513787
2754 1 0.224032 0.00584204 0.514164
27 1 0.236225 0.0103836 0.51462
2549 1 0.245717 0.0019171 0.517338
165 1 0.249484 0.0155378 0.514647
31 1 0.258774 0.00786933 0.519096
2632 1 0.272233 0.0106977 0.518761
2704 1 0.283496 0.000203418 0.52029
2702 1 0.283039 0.0163673 0.516244
2474 1 0.295138 0.00822627 0.518572
2689 1 0.306746 0.0138423 0.519189
2770 1 0.319149 0.018358 0.518531
2629 1 0.313615 0.00102757 0.521779
2334 1 0.322909 0.00770812 0.521092
2711 1 0.3364 0.0106719 0.520896
2558 1 0.348163 0.0158948 0.522966
19 1 0.260365 0.03296 0.510958
2617 1 0.260594 0.0209528 0.515456
2758 1 0.275956 0.0271768 0.514445
2636 1 0.295378 0.0239534 0.517308
2755 1 0.288508 0.0313986 0.513167
104 1 0.303228 0.0375164 0.512415
2614 1 0.307645 0.0271733 0.515669
41 1 0.319632 0.0311754 0.516676
2615 1 0.332192 0.022252 0.519661
2773 1 0.331327 0.0343767 0.517119
255 1 0.345932 0.0302574 0.520174
2572 1 0.361951 0.0389802 0.521272
2772 1 0.380905 0.0366306 0.521078
101 1 0.397368 0.0288539 0.523512
2693 1 0.316975 0.0427378 0.513322
179 1 0.328682 0.046965 0.514521
2768 1 0.329801 0.0594871 0.513724
2775 1 0.355211 0.0477404 0.517441
33 1 0.339189 0.0443358 0.517923
315 1 0.344635 0.0557667 0.514686
2626 1 0.363619 0.0566074 0.516272
44 1 0.371643 0.0464976 0.517814
38 1 0.380153 0.0544528 0.518646
323 1 0.393021 0.0574475 0.521335
198 1 0.405751 0.0540962 0.522713
411 1 0.416206 0.057458 0.523089
542 1 0.344148 0.0702547 0.512306
2695 1 0.354973 0.0659922 0.513837
2766 1 0.370107 0.068537 0.516141
254 1 0.364022 0.0778239 0.513569
258 1 0.387943 0.0680714 0.518388
40 1 0.392153 0.080143 0.518375
178 1 0.405686 0.069954 0.521215
113 1 0.351011 0.0828933 0.51185
39 1 0.350523 0.0965319 0.510151
251 1 0.377394 0.0819027 0.516117
188 1 0.363837 0.092314 0.513161
310 1 0.376848 0.100655 0.517663
203 1 0.389408 0.0943873 0.518459
206 1 0.403108 0.0896273 0.519913
262 1 0.416075 0.095466 0.521518
253 1 0.354094 0.116973 0.511777
185 1 0.361568 0.107712 0.515597
392 1 0.374741 0.116681 0.518169
343 1 0.387993 0.110935 0.520152
125 1 0.399788 0.10371 0.521176
342 1 0.400589 0.118146 0.521689
477 1 0.414875 0.109792 0.521784
473 1 0.365834 0.124284 0.514292
538 1 0.377641 0.130815 0.517414
399 1 0.362849 0.137407 0.514257
132 1 0.38858 0.123664 0.519302
407 1 0.401728 0.134444 0.520317
348 1 0.416933 0.124833 0.521617
541 1 0.366146 0.15382 0.512693
259 1 0.376191 0.146751 0.514926
200 1 0.39137 0.141639 0.518825
202 1 0.392482 0.155879 0.517472
334 1 0.403405 0.152164 0.52091
332 1 0.416711 0.154052 0.523774
340 1 0.413091 0.14101 0.518829
535 1 0.363467 0.169295 0.51268
400 1 0.378905 0.161639 0.515142
327 1 0.380322 0.175883 0.514941
331 1 0.39513 0.167739 0.517319
269 1 0.404565 0.164136 0.522108
465 1 0.406782 0.178267 0.520311
464 1 0.357522 0.185849 0.512703
116 1 0.369207 0.180211 0.51473
330 1 0.368552 0.198741 0.51427
540 1 0.381467 0.191209 0.516823
184 1 0.391254 0.183541 0.517041
261 1 0.403346 0.193125 0.520776
537 1 0.348115 0.208472 0.511627
256 1 0.362211 0.211754 0.512682
615 1 0.378284 0.206815 0.517285
264 1 0.3943 0.201676 0.519232
466 1 0.386549 0.217776 0.517806
482 1 0.398777 0.21653 0.520299
547 1 0.409861 0.206362 0.520536
621 1 0.420701 0.215167 0.520804
612 1 0.350639 0.237961 0.512252
619 1 0.358914 0.225429 0.513182
468 1 0.372807 0.22378 0.514802
471 1 0.365436 0.235582 0.513021
485 1 0.382091 0.234276 0.516313
275 1 0.395609 0.231523 0.519735
418 1 0.409518 0.22487 0.52121
267 1 0.413021 0.235227 0.520148
478 1 0.437437 0.239279 0.520558
553 1 0.425923 0.229186 0.522482
3432 1 0.372429 0.249619 0.51224
1099 1 0.388026 0.246342 0.517584
552 1 0.400008 0.255596 0.518209
272 1 0.404315 0.242618 0.519696
838 1 0.413034 0.255032 0.519461
488 1 0.422565 0.246544 0.519277
551 1 0.434797 0.258049 0.518821
696 1 0.449129 0.251589 0.520064
3155 1 0.454029 0.239869 0.522211
3434 1 0.464794 0.254334 0.520293
752 1 0.372733 0.275219 0.511211
555 1 0.382872 0.262191 0.514479
486 1 0.397115 0.268934 0.517706
344 1 0.387054 0.276003 0.513189
416 1 0.409089 0.272167 0.51764
3365 1 0.422579 0.268709 0.517229
686 1 0.434587 0.271596 0.51653
897 1 0.447351 0.264527 0.519184
699 1 0.460182 0.266068 0.519471
630 1 0.473764 0.269663 0.521018
3715 1 0.461541 0.278692 0.518676
3797 1 0.486992 0.272874 0.520154
683 1 0.37955 0.28639 0.511575
3295 1 0.390577 0.295645 0.513281
762 1 0.397351 0.284643 0.514827
972 1 0.415686 0.283956 0.516285
3363 1 0.40662 0.297382 0.515646
1045 1 0.433348 0.289264 0.515476
3364 1 0.447152 0.294248 0.51691
3294 1 0.449391 0.281679 0.517044
835 1 0.464772 0.290255 0.516554
408 1 0.475638 0.282285 0.519051
3719 1 0.482786 0.293956 0.517424
3716 1 0.494301 0.284257 0.51982
695 1 0.38197 0.314507 0.512271
677 1 0.395366 0.30929 0.512537
975 1 0.421396 0.301927 0.516817
624 1 0.408091 0.314788 0.515116
3296 1 0.422276 0.316079 0.515804
840 1 0.436459 0.305273 0.51472
3643 1 0.435112 0.319706 0.512774
3572 1 0.44902 0.312638 0.514368
3435 1 0.45908 0.302836 0.51546
3787 1 0.468206 0.318099 0.515213
839 1 0.472299 0.303555 0.516605
3782 1 0.479641 0.319697 0.516865
3784 1 0.489342 0.306654 0.516923
1050 1 0.49232 0.320813 0.515925
1171 1 0.36599 0.337871 0.512098
484 1 0.380306 0.330605 0.512644
766 1 0.396523 0.324029 0.515042
693 1 0.39209 0.339631 0.513171
817 1 0.407204 0.332224 0.513468
899 1 0.421402 0.327182 0.5128
894 1 0.431167 0.336882 0.513189
3854 1 0.456229 0.320519 0.513237
763 1 0.44365 0.329661 0.513353
3298 1 0.463236 0.336915 0.513696
3431 1 0.473797 0.329474 0.514825
3922 1 0.485992 0.331161 0.51579
909 1 0.352382 0.346229 0.512231
1100 1 0.362307 0.353076 0.513299
895 1 0.379079 0.345798 0.514484
755 1 0.375056 0.359158 0.513878
1038 1 0.389132 0.356756 0.51265
757 1 0.406439 0.348985 0.513538
691 1 0.42017 0.342267 0.512466
622 1 0.437403 0.347492 0.512984
3503 1 0.427027 0.354687 0.512924
1104 1 0.438508 0.35938 0.512718
837 1 0.448426 0.340369 0.51295
829 1 0.451663 0.352339 0.513758
700 1 0.477584 0.346358 0.514686
971 1 0.463629 0.350303 0.511823
3921 1 0.500181 0.340379 0.516024
698 1 0.480128 0.359512 0.512023
692 1 0.490954 0.348023 0.51486
1248 1 0.338588 0.376895 0.513047
973 1 0.350638 0.375042 0.514084
1235 1 0.358147 0.365965 0.515283
969 1 0.371953 0.369871 0.514359
694 1 0.383765 0.373421 0.515478
902 1 0.3949 0.374475 0.515458
3712 1 0.415017 0.360773 0.512819
1048 1 0.400227 0.362978 0.513169
974 1 0.412674 0.376146 0.5154
904 1 0.426981 0.371074 0.514286
1116 1 0.440307 0.372366 0.513718
1046 1 0.452209 0.368551 0.51331
1043 1 0.468135 0.362339 0.513159
898 1 0.466302 0.374443 0.51296
832 1 0.481818 0.375281 0.512573
770 1 0.496587 0.36428 0.51146
3788 1 0.497088 0.37799 0.512102
1032 1 0.325556 0.382619 0.512794
1306 1 0.339624 0.392047 0.515896
1317 1 0.325117 0.398123 0.514769
1311 1 0.354372 0.384983 0.516305
1449 1 0.349811 0.396573 0.516869
1118 1 0.366955 0.380635 0.516454
1252 1 0.364631 0.395643 0.518966
1179 1 0.376944 0.387028 0.516589
1329 1 0.377083 0.400623 0.518507
900 1 0.387609 0.388154 0.518378
1117 1 0.402758 0.385495 0.516852
903 1 0.414303 0.395384 0.517992
1316 1 0.425839 0.384417 0.517241
965 1 0.4287 0.398532 0.518144
834 1 0.440847 0.38532 0.515281
833 1 0.442089 0.398148 0.517778
977 1 0.455113 0.381511 0.513617
906 1 0.453447 0.396384 0.513422
976 1 0.468747 0.397466 0.514699
3714 1 0.471537 0.385533 0.51424
901 1 0.487139 0.390176 0.513425
1460 1 0.497147 0.398717 0.512933
1446 1 0.293901 0.407641 0.511733
1376 1 0.286589 0.418003 0.512505
1033 1 0.311099 0.401743 0.513779
1242 1 0.305234 0.414218 0.515721
1103 1 0.320654 0.414137 0.516462
1041 1 0.334193 0.407304 0.518024
1115 1 0.345228 0.411425 0.520419
1177 1 0.360243 0.407436 0.519689
1322 1 0.37007 0.414592 0.519879
1180 1 0.381965 0.41636 0.522252
1114 1 0.385885 0.406099 0.518917
1044 1 0.395991 0.418198 0.520776
1188 1 0.395288 0.399159 0.517171
1107 1 0.406707 0.40481 0.517857
1325 1 0.421073 0.409389 0.518534
1182 1 0.434247 0.413941 0.519439
905 1 0.450335 0.40954 0.516694
1187 1 0.465619 0.410776 0.5154
908 1 0.476773 0.415698 0.516771
3650 1 0.48269 0.402421 0.515186
1190 1 0.490013 0.414312 0.514306
1511 1 0.260639 0.438536 0.511693
1382 1 0.276847 0.428939 0.513585
1443 1 0.270817 0.439001 0.515402
1371 1 0.289158 0.43386 0.516347
1502 1 0.299576 0.424628 0.516294
893 1 0.316518 0.424445 0.519355
1168 1 0.306381 0.432517 0.518935
1438 1 0.331337 0.422241 0.521383
1233 1 0.329282 0.43822 0.522412
1312 1 0.343883 0.430434 0.521108
1250 1 0.354467 0.421492 0.52162
1251 1 0.399742 0.435933 0.521149
1109 1 0.407564 0.421537 0.5168
1035 1 0.410968 0.434119 0.519666
1389 1 0.422853 0.424811 0.518723
1396 1 0.431015 0.433984 0.520255
1260 1 0.460786 0.421506 0.518712
1185 1 0.444246 0.423828 0.521112
1324 1 0.45773 0.435563 0.518874
3713 1 0.471686 0.43002 0.518044
1189 1 0.485784 0.427521 0.514476
4134 1 0.498481 0.439076 0.517259
1441 1 0.253755 0.451222 0.512815
1387 1 0.265371 0.45027 0.516229
1369 1 0.27692 0.455956 0.51964
1378 1 0.282152 0.446077 0.516998
1377 1 0.293749 0.454272 0.521959
1380 1 0.299086 0.443114 0.518369
1249 1 0.316613 0.440469 0.521599
1528 1 0.408033 0.448293 0.52086
1458 1 0.416928 0.457182 0.52253
1258 1 0.421383 0.443782 0.519953
1318 1 0.43451 0.45235 0.520157
1112 1 0.442315 0.442275 0.51978
1319 1 0.453286 0.450429 0.519454
1463 1 0.466016 0.448715 0.517862
1390 1 0.476743 0.458952 0.519634
1245 1 0.481132 0.444024 0.517304
1540 1 0.4933 0.45308 0.517746
1432 1 0.243397 0.471536 0.512877
1110 1 0.25307 0.464653 0.515658
1602 1 0.264767 0.463679 0.519649
1386 1 0.286754 0.466186 0.521939
1255 1 0.462815 0.462254 0.5208
4347 1 0.475115 0.472388 0.519912
1529 1 0.459709 0.473551 0.523238
1679 1 0.490542 0.466259 0.519167
1368 1 0.229623 0.494905 0.513282
1726 1 0.236811 0.484207 0.512129
1508 1 0.251293 0.479013 0.517294
1590 1 0.243751 0.493042 0.517833
1589 1 0.257429 0.492689 0.522496
4281 1 0.498737 0.493131 0.523122
1464 1 0.488514 0.479772 0.520648
2645 1 0.350659 -0.000514735 0.524094
187 1 0.365232 0.0113294 0.52581
119 1 0.38087 0.00961295 0.525646
2696 1 0.397929 0.0148716 0.526482
109 1 0.400017 0.00109847 0.527326
36 1 0.410986 0.0152424 0.526713
181 1 0.41729 0.00411325 0.527081
2780 1 0.432999 0.00771332 0.52894
2726 1 0.42497 0.0181567 0.528049
2788 1 0.44735 0.0151104 0.52869
54 1 0.453929 0.00501533 0.52889
271 1 0.465858 0.0145649 0.52948
204 1 0.478237 0.00392157 0.527722
135 1 0.491686 0.0130618 0.529766
2700 1 0.360057 0.0233507 0.522001
114 1 0.373691 0.0264307 0.524659
2785 1 0.386193 0.0237105 0.524137
2697 1 0.408857 0.0283234 0.525145
2713 1 0.436692 0.022681 0.527355
120 1 0.429984 0.0354135 0.526495
177 1 0.419423 0.0294027 0.527052
45 1 0.454773 0.02415 0.527585
268 1 0.443925 0.0333636 0.52653
2648 1 0.457659 0.0399418 0.529126
136 1 0.469957 0.0324138 0.529191
66 1 0.489485 0.0280969 0.529622
2947 1 0.478797 0.0200197 0.529108
189 1 0.394713 0.0423161 0.522952
2630 1 0.407818 0.0408034 0.522921
42 1 0.420703 0.0442728 0.524803
257 1 0.429248 0.0546717 0.524133
205 1 0.440114 0.0458889 0.526176
199 1 0.45351 0.0529947 0.527086
2944 1 0.444035 0.0605524 0.526992
409 1 0.468459 0.0479918 0.530895
56 1 0.480461 0.0376655 0.529948
2783 1 0.479692 0.0522573 0.528875
68 1 0.492018 0.0511728 0.529497
186 1 0.419828 0.0687441 0.523296
196 1 0.431011 0.0656492 0.52654
49 1 0.440865 0.0758989 0.526705
115 1 0.45289 0.0714594 0.528772
130 1 0.464627 0.0604063 0.529234
192 1 0.469385 0.0722433 0.528666
123 1 0.480727 0.0662004 0.52874
3015 1 0.493745 0.0640021 0.530207
2801 1 0.487448 0.0792744 0.527862
121 1 0.412613 0.0820592 0.521714
48 1 0.42607 0.0813685 0.524442
265 1 0.431814 0.0967418 0.523631
339 1 0.458371 0.0864177 0.528178
329 1 0.443499 0.0910924 0.526885
124 1 0.461188 0.0999443 0.529721
47 1 0.471036 0.0848962 0.528091
277 1 0.486595 0.093832 0.529459
347 1 0.428823 0.111653 0.523633
63 1 0.439422 0.108046 0.525393
273 1 0.449058 0.102878 0.528549
138 1 0.454813 0.116348 0.527258
194 1 0.442961 0.11983 0.526614
3151 1 0.474841 0.0986292 0.528881
2796 1 0.467833 0.112049 0.527747
3086 1 0.498003 0.104136 0.52919
3011 1 0.48517 0.107995 0.530019
129 1 0.492669 0.117411 0.531199
481 1 0.431653 0.124252 0.523861
201 1 0.425615 0.137606 0.522857
406 1 0.444658 0.133295 0.525779
417 1 0.455764 0.129734 0.527447
415 1 0.468654 0.127466 0.52928
208 1 0.479807 0.120549 0.530462
611 1 0.496512 0.128718 0.529533
479 1 0.48262 0.132741 0.530637
335 1 0.427997 0.152454 0.522751
191 1 0.440931 0.147673 0.525683
270 1 0.454761 0.142923 0.527758
276 1 0.454435 0.157961 0.525835
616 1 0.468905 0.144659 0.52856
207 1 0.467033 0.158625 0.52786
3293 1 0.48187 0.151362 0.529059
546 1 0.496106 0.144755 0.529992
3223 1 0.496291 0.158025 0.527799
338 1 0.41859 0.16771 0.523334
474 1 0.430574 0.166562 0.522588
274 1 0.435546 0.177788 0.524554
618 1 0.442829 0.163237 0.524367
346 1 0.45029 0.176567 0.526589
689 1 0.464748 0.172268 0.528108
475 1 0.481534 0.169607 0.528412
3583 1 0.494138 0.176514 0.529093
613 1 0.41925 0.185076 0.523022
544 1 0.420463 0.197898 0.52209
405 1 0.434097 0.191751 0.523926
545 1 0.447099 0.191057 0.525856
3082 1 0.462191 0.188988 0.527086
3300 1 0.476861 0.181592 0.527601
3225 1 0.47401 0.198736 0.52675
341 1 0.488798 0.190612 0.526553
614 1 0.429834 0.205645 0.522014
818 1 0.443005 0.203733 0.52601
279 1 0.450225 0.214387 0.52426
337 1 0.459902 0.201912 0.525894
557 1 0.46684 0.214046 0.526372
3152 1 0.494213 0.219349 0.5267
412 1 0.483322 0.206876 0.52616
560 1 0.480218 0.218971 0.525506
328 1 0.436861 0.221605 0.523687
402 1 0.444657 0.230295 0.522478
550 1 0.456081 0.226378 0.523426
349 1 0.468886 0.22658 0.525202
3224 1 0.489517 0.229678 0.525251
626 1 0.475882 0.256273 0.523491
480 1 0.465732 0.243705 0.524523
767 1 0.479333 0.240799 0.523878
629 1 0.492557 0.247423 0.524785
3436 1 0.49612 0.264655 0.522814
1669 1 0.355474 0.439208 0.524562
1459 1 0.368193 0.429612 0.523812
1178 1 0.3852 0.431922 0.522452
1113 1 0.30967 0.453309 0.523346
1037 1 0.324874 0.456019 0.524275
1247 1 0.339806 0.446674 0.523323
970 1 0.34841 0.45498 0.526864
1532 1 0.37154 0.443378 0.524668
1516 1 0.362056 0.452863 0.526433
1047 1 0.373585 0.457632 0.528507
1393 1 0.384235 0.447155 0.52451
1527 1 0.398296 0.451091 0.524129
1040 1 0.275646 0.46909 0.522654
1314 1 0.295807 0.480653 0.526299
1520 1 0.319828 0.467556 0.526892
1243 1 0.302226 0.467434 0.524893
1448 1 0.308833 0.478645 0.5281
1593 1 0.336241 0.462865 0.527668
1240 1 0.330871 0.476191 0.53063
1813 1 0.35189 0.465841 0.530035
1241 1 0.342797 0.473588 0.530411
1599 1 0.35642 0.477535 0.533121
1111 1 0.36505 0.466563 0.531092
1181 1 0.39125 0.460166 0.52835
1736 1 0.382742 0.468778 0.530857
1246 1 0.396381 0.472523 0.529379
1034 1 0.406404 0.463451 0.525695
1453 1 0.406778 0.476746 0.53032
1315 1 0.419701 0.472604 0.527818
1397 1 0.430972 0.463172 0.523867
1461 1 0.431533 0.477123 0.526683
1534 1 0.444736 0.462857 0.521551
1523 1 0.444231 0.475849 0.524894
1729 1 0.266275 0.480198 0.52392
1517 1 0.27261 0.495008 0.525374
1662 1 0.282514 0.484359 0.525898
1730 1 0.28905 0.497142 0.528587
1039 1 0.299859 0.491962 0.531025
1585 1 0.312324 0.494832 0.532022
1518 1 0.320352 0.482498 0.532048
1381 1 0.333323 0.490518 0.533779
1373 1 0.345482 0.485527 0.53249
1533 1 0.372858 0.481585 0.530997
1531 1 0.391255 0.501032 0.53334
1383 1 0.387631 0.482705 0.53162
1595 1 0.398127 0.48866 0.529911
1452 1 0.408163 0.496367 0.533176
1108 1 0.416819 0.486611 0.530894
1535 1 0.430275 0.489161 0.530117
1321 1 0.443648 0.490574 0.528532
1466 1 0.45547 0.487141 0.527032
1673 1 0.470547 0.484838 0.52371
1680 1 0.466086 0.497522 0.528595
4483 1 0.482482 0.496372 0.525459
1798 1 0.349809 0.496498 0.534715
1663 1 0.378532 0.493644 0.535448
1608 1 0.363013 0.489912 0.534478
4190 1 0.0066353 0.50752 0.463759
1622 1 0.0172188 0.50381 0.463027
1276 1 0.0309934 0.500397 0.461651
4328 1 0.00843149 0.518435 0.469136
4267 1 0.0224279 0.513996 0.466759
4404 1 0.036909 0.512607 0.466765
1839 1 0.0492127 0.508321 0.468272
4333 1 0.0503713 0.520044 0.472681
1268 1 0.0753407 0.509773 0.473184
1402 1 0.0618283 0.503748 0.46867
4268 1 0.0633584 0.51293 0.473011
1543 1 0.079394 0.518993 0.476873
1277 1 0.0869016 0.504987 0.473315
4336 1 0.015917 0.525942 0.473413
4269 1 0.00217671 0.527148 0.475419
4400 1 0.00998915 0.535441 0.476132
4200 1 0.0282723 0.524081 0.469913
4331 1 0.039775 0.531553 0.47681
1198 1 0.026581 0.532557 0.475727
1617 1 0.0402094 0.523328 0.471878
1336 1 0.0551935 0.530087 0.477866
1473 1 0.0666875 0.524078 0.476839
4335 1 0.0917791 0.51472 0.479384
1472 1 0.108168 0.508287 0.481378
1487 1 0.118172 0.51157 0.485542
1430 1 0.132684 0.507765 0.486476
1337 1 0.124111 0.502661 0.483064
1347 1 0.0830577 0.529759 0.481029
1475 1 0.0711078 0.533698 0.480692
4258 1 0.0921697 0.528081 0.484065
1348 1 0.092989 0.536947 0.489294
1334 1 0.0813012 0.540549 0.485742
1788 1 0.112003 0.523925 0.486806
4199 1 0.10154 0.520687 0.482138
1405 1 0.103995 0.532133 0.488729
1766 1 0.0187648 0.541316 0.479307
4539 1 0.0126457 0.55132 0.482817
4402 1 0.00165697 0.543943 0.479352
4183 1 0.0023168 0.558834 0.48271
4470 1 0.0313482 0.54523 0.481619
1691 1 0.0236846 0.556182 0.485224
1696 1 0.0376445 0.556728 0.486751
1697 1 0.0592977 0.539415 0.48141
4472 1 0.0449856 0.543459 0.481846
1842 1 0.0535525 0.553952 0.486575
1687 1 0.068528 0.547283 0.484581
1549 1 0.0131877 0.562878 0.486041
4543 1 -6.73782e-05 0.567683 0.487055
1547 1 0.136335 0.51858 0.492238
1562 1 0.146815 0.505098 0.490219
1341 1 0.14983 0.519709 0.495345
1555 1 0.170039 0.51752 0.497737
1420 1 0.162061 0.505978 0.49536
1563 1 0.179991 0.507358 0.497648
1207 1 0.111107 0.540085 0.492755
1710 1 0.126153 0.519904 0.488437
1711 1 0.121452 0.53173 0.492401
1480 1 0.132222 0.530693 0.495381
1907 1 0.144513 0.530581 0.498496
1490 1 0.158418 0.524986 0.498897
1769 1 0.0665443 0.559985 0.490342
1701 1 0.0966672 0.546385 0.49295
1545 1 0.0812397 0.553133 0.489916
1414 1 0.0897601 0.556355 0.495537
1478 1 0.105697 0.554883 0.495735
1554 1 0.120054 0.555538 0.499563
1553 1 0.121689 0.545805 0.495404
1482 1 0.134153 0.542684 0.498488
4547 1 0.0199588 0.571678 0.490478
4467 1 0.00840841 0.578583 0.490992
1615 1 0.0323761 0.564956 0.491446
1476 1 0.0525576 0.56596 0.490479
1618 1 0.0425658 0.570789 0.494299
1481 1 0.0548677 0.576575 0.497572
1471 1 0.0667988 0.571174 0.49501
1546 1 0.0786321 0.564802 0.494412
1403 1 0.0902148 0.569876 0.499588
1474 1 0.101989 0.564626 0.50046
4690 1 0.0137156 0.589154 0.493315
1897 1 0.00248597 0.596408 0.492255
1693 1 0.0237835 0.581609 0.495391
1616 1 0.0366423 0.579559 0.49919
1558 1 0.0380003 0.592765 0.49962
4405 1 0.0253147 0.597303 0.498347
1551 1 0.0500994 0.589309 0.50013
4410 1 0.0129329 0.604124 0.495307
1759 1 0.0036999 0.620974 0.496009
1828 1 0.0165016 0.623394 0.499212
1434 1 0.193746 0.510844 0.503135
1567 1 0.206483 0.510466 0.509376
1659 1 0.221984 0.503602 0.511394
1641 1 0.157207 0.537121 0.502662
1552 1 0.171105 0.531093 0.502849
1565 1 0.180034 0.520513 0.502115
1773 1 0.182913 0.536938 0.506183
1637 1 0.191385 0.523605 0.507354
1635 1 0.197231 0.535975 0.510419
1506 1 0.205409 0.525393 0.511556
1634 1 0.131703 0.553542 0.50137
1700 1 0.146897 0.545705 0.502252
1411 1 0.156317 0.552697 0.505809
1629 1 0.170361 0.54578 0.505718
1422 1 0.176339 0.552325 0.510339
1628 1 0.163908 0.561601 0.509654
1699 1 0.186939 0.545853 0.511467
1764 1 0.0803407 0.579558 0.4997
1838 1 0.104963 0.575797 0.503947
1556 1 0.114911 0.565254 0.501833
1404 1 0.114799 0.577921 0.506297
1625 1 0.129145 0.567557 0.504464
1624 1 0.126337 0.580322 0.510849
1416 1 0.144523 0.561858 0.506822
1780 1 0.140613 0.573807 0.510492
1912 1 0.153112 0.569432 0.510652
1763 1 0.0583783 0.597161 0.503466
1685 1 0.0738595 0.593544 0.503335
1550 1 0.0635213 0.585934 0.501938
1621 1 0.0903612 0.584071 0.503483
4409 1 0.087312 0.593983 0.507791
2043 1 0.101858 0.590636 0.509364
1401 1 0.0341197 0.607035 0.502843
1844 1 0.0376204 0.617908 0.504487
1827 1 0.0230519 0.611763 0.501496
1757 1 0.0531331 0.612888 0.505442
1754 1 0.0460858 0.602802 0.501544
1612 1 0.069197 0.620046 0.511225
1542 1 0.0665911 0.609085 0.50567
1692 1 0.0814377 0.607529 0.50848
1767 1 0.0823238 0.61869 0.511721
1900 1 0.0116331 0.634505 0.500586
1765 1 0.028346 0.626827 0.504274
1768 1 0.031708 0.638589 0.506917
1966 1 0.0445669 0.626582 0.508708
1620 1 0.0570962 0.625447 0.511078
1684 1 0.00529947 0.645997 0.501642
1611 1 0.013824 0.652332 0.505505
1548 1 0.0228968 0.643566 0.503991
2179 1 0.0301619 0.653271 0.509082
2181 1 0.0447285 0.643562 0.510877
1902 1 0.00349155 0.66242 0.504203
1964 1 0.0165076 0.664834 0.507186
2111 1 0.012349 0.677644 0.508403
1835 1 0.0278852 0.666431 0.510867
4684 1 0.0025886 0.69098 0.509932
5597 1 0.00915168 0.917513 0.512114
5524 1 0.00928553 0.938429 0.508425
5459 1 0.0178946 0.929345 0.510248
5458 1 0.0266326 0.937573 0.51021
214 1 0.0190179 0.9489 0.509843
5454 1 0.00701482 0.95265 0.508138
2866 1 0.0168365 0.964435 0.508694
5521 1 0.00108608 0.964924 0.50479
147 1 0.00993205 0.978817 0.504928
495 1 0.0323679 0.972711 0.508279
2666 1 0.0221755 0.979141 0.506548
2736 1 0.0466558 0.977813 0.509549
145 1 0.043143 0.961258 0.509425
79 1 0.0588416 0.965461 0.511405
5460 1 0.06265 0.979748 0.509976
2 1 0.0736874 0.971883 0.51262
9 1 0.00845103 0.990936 0.502764
217 1 0.0356397 0.988101 0.507529
7 1 0.0239936 0.991815 0.50523
5388 1 0.0532354 0.990685 0.508337
2674 1 0.0682843 0.990778 0.509979
15 1 0.0817678 0.999311 0.509385
2756 1 0.0929207 0.996338 0.510612
2670 1 0.0804718 0.98556 0.511568
1569 1 0.226595 0.512007 0.515776
1580 1 0.238302 0.504466 0.516577
1660 1 0.251251 0.504318 0.521928
1650 1 0.242228 0.51426 0.520747
1627 1 0.216292 0.521045 0.51379
1559 1 0.210929 0.537293 0.516651
1653 1 0.223122 0.529565 0.517788
1727 1 0.232299 0.520426 0.51926
1596 1 0.225859 0.538394 0.522702
1698 1 0.181083 0.56138 0.51576
1799 1 0.201015 0.54634 0.514429
1703 1 0.194478 0.557161 0.517429
1496 1 0.207508 0.554845 0.520405
1770 1 0.215689 0.545823 0.522323
1859 1 0.160963 0.577143 0.514539
1714 1 0.16863 0.568153 0.514107
1857 1 0.186258 0.570551 0.519992
1781 1 0.114763 0.586616 0.511549
1708 1 0.121491 0.595141 0.515712
1851 1 0.134138 0.588596 0.514862
1837 1 0.1465 0.582981 0.515963
1777 1 0.145979 0.593768 0.520264
1568 1 0.159961 0.588712 0.520858
1707 1 0.176664 0.578905 0.519701
1831 1 0.0971133 0.60371 0.512179
1911 1 0.0940042 0.61619 0.513839
1342 1 0.109605 0.601763 0.514916
1843 1 0.118529 0.6129 0.517827
1771 1 0.106696 0.616523 0.51819
1825 1 0.127541 0.606813 0.51697
1702 1 0.136462 0.599965 0.518388
1840 1 0.134341 0.615702 0.520251
1776 1 0.146176 0.612774 0.521332
1695 1 0.0550077 0.637142 0.513481
1908 1 0.0708634 0.630565 0.515463
1981 1 0.082756 0.628439 0.516784
1706 1 0.0952265 0.626405 0.517344
1631 1 0.0987231 0.635766 0.521887
1901 1 0.109034 0.62775 0.520555
1630 1 0.122398 0.622534 0.520151
1977 1 0.127294 0.632121 0.522457
1899 1 0.0565183 0.65223 0.515015
1758 1 0.068329 0.642597 0.517271
1898 1 0.0681873 0.655172 0.519198
1910 1 0.081756 0.642154 0.518359
2045 1 0.0806612 0.654852 0.523083
1613 1 0.0236025 0.678932 0.511769
1968 1 0.0395163 0.672028 0.51412
4534 1 0.0438629 0.659579 0.512365
1972 1 0.0569088 0.664884 0.516687
1752 1 0.0507272 0.676598 0.518053
2104 1 0.0618382 0.677087 0.523128
4550 1 0.0182717 0.69233 0.512584
4683 1 0.0353228 0.685716 0.516352
4821 1 0.0308749 0.697586 0.51781
1614 1 0.046904 0.688603 0.520737
4888 1 0.00747098 0.706187 0.512579
4818 1 0.00346678 0.718894 0.511762
4616 1 0.0181466 0.719421 0.515128
4685 1 0.020734 0.705419 0.515322
4618 1 0.0304788 0.714439 0.518536
1823 1 0.0416671 0.699163 0.519957
4830 1 0.0462805 0.711728 0.521433
4824 1 0.014673 0.733118 0.515128
4401 1 0.0276714 0.732715 0.517583
4756 1 0.0418885 0.723947 0.519563
4751 1 0.00221188 0.743309 0.512299
1821 1 0.0130916 0.751188 0.51734
4898 1 0.0245779 0.743956 0.517896
4688 1 0.030865 0.751629 0.521009
1962 1 0.0404945 0.741119 0.521385
5318 1 0.0162309 0.776871 0.518603
4820 1 0.0116881 0.765491 0.517976
4895 1 0.000609057 0.758117 0.513428
2382 1 0.000928117 0.774793 0.514498
4965 1 0.024101 0.761751 0.520887
4894 1 0.03127 0.771659 0.522047
4546 1 0.0402762 0.760348 0.521551
5312 1 0.0474539 0.774816 0.521988
5038 1 0.00767629 0.787422 0.517017
2031 1 0.019997 0.796788 0.519342
5379 1 0.0265066 0.784652 0.520537
4754 1 0.038481 0.788085 0.521503
5313 1 0.00592179 0.800153 0.517539
5028 1 0.0193147 0.811395 0.518164
5177 1 0.00233717 0.817227 0.517416
2596 1 0.031978 0.813268 0.520491
2460 1 0.0330963 0.799764 0.522154
2394 1 0.0164144 0.826328 0.518235
5172 1 0.00488659 0.831766 0.516463
2385 1 0.0236907 0.835185 0.519262
5250 1 0.0314566 0.826193 0.518999
5169 1 0.0450299 0.830293 0.5216
5040 1 0.0577604 0.837278 0.523262
2452 1 0.0156574 0.845255 0.516992
5245 1 0.0141704 0.859134 0.513802
2525 1 0.00158729 0.847687 0.514137
5107 1 0.0372634 0.839335 0.519999
2453 1 0.0289003 0.849544 0.517763
2599 1 0.0378426 0.859377 0.518313
5247 1 0.0252671 0.859532 0.513651
2601 1 0.0474046 0.848882 0.521241
2304 1 0.495013 0.846838 0.521245
2650 1 0.493725 0.860705 0.519758
5389 1 0.0135749 0.875458 0.513939
2598 1 0.00410716 0.865709 0.512236
2523 1 0.0275753 0.869049 0.516591
2667 1 0.0395519 0.874029 0.517335
5519 1 0.0562099 0.877595 0.522082
5034 1 0.0497329 0.864341 0.519949
2588 1 0.482441 0.871206 0.522242
5328 1 0.49405 0.876343 0.52253
2863 1 0.00494205 0.88501 0.51122
5518 1 0.0109381 0.901668 0.512739
5309 1 0.0183835 0.888712 0.512892
20 1 0.0306253 0.884299 0.514406
5383 1 0.0390099 0.89623 0.515527
5386 1 0.0473666 0.887156 0.517824
5453 1 0.0543833 0.899068 0.520564
5457 1 0.0622507 0.88871 0.521919
2668 1 0.087351 0.896736 0.523202
2505 1 0.493944 0.891186 0.520347
5588 1 0.0218189 0.915312 0.511345
2595 1 0.0264589 0.901274 0.512095
5594 1 0.0350198 0.910811 0.514505
2665 1 0.048119 0.907897 0.516798
2739 1 0.0724731 0.900754 0.521236
2600 1 0.0630733 0.906634 0.519033
2743 1 0.0720101 0.918391 0.518524
84 1 0.0809063 0.908646 0.52052
2744 1 0.098433 0.908712 0.523493
2577 1 0.49658 0.909177 0.520526
2734 1 0.0320703 0.926788 0.512261
5529 1 0.057279 0.92093 0.516184
2662 1 0.0427349 0.932532 0.514061
2592 1 0.0457709 0.921004 0.515787
5589 1 0.0568513 0.935666 0.515304
12 1 0.06988 0.930295 0.516295
2604 1 0.0834942 0.925676 0.519429
221 1 0.0959105 0.92382 0.520951
2681 1 0.086235 0.937857 0.517448
2740 1 0.0983573 0.936797 0.52077
2402 1 0.110375 0.935829 0.522382
2580 1 0.494814 0.935227 0.522289
211 1 0.0284976 0.95747 0.511539
2603 1 0.036963 0.944341 0.511117
80 1 0.0507708 0.948076 0.511368
2591 1 0.0731089 0.943639 0.516363
2675 1 0.0629904 0.949883 0.511814
290 1 0.0739117 0.958326 0.512965
2606 1 0.0860395 0.953102 0.516671
2535 1 0.101032 0.947824 0.518277
2745 1 0.114257 0.94971 0.520229
22 1 0.125582 0.956855 0.521135
2472 1 0.14035 0.96009 0.522987
286 1 0.0856125 0.969424 0.513119
2593 1 0.0978442 0.963 0.516845
2672 1 0.0939033 0.980293 0.51366
2671 1 0.110707 0.962005 0.518542
24 1 0.106295 0.972363 0.516206
2676 1 0.121541 0.967216 0.51859
91 1 0.135652 0.970279 0.518989
2331 1 0.15263 0.966355 0.521097
2751 1 0.180126 0.975188 0.520649
2748 1 0.164534 0.979178 0.519697
2464 1 0.194371 0.976531 0.520541
2475 1 0.211116 0.969753 0.521773
2315 1 0.224256 0.978559 0.519652
2622 1 0.236126 0.971574 0.522288
149 1 0.10343 0.989357 0.512278
2678 1 0.114569 0.983087 0.515472
2605 1 0.121326 0.997288 0.51312
2610 1 0.134556 0.994769 0.51389
2686 1 0.128026 0.983747 0.515914
2387 1 0.147045 0.980258 0.51722
83 1 0.149916 0.995907 0.51296
313 1 0.161972 0.992392 0.515052
2682 1 0.175021 0.988455 0.517143
2536 1 0.189032 0.988174 0.518545
2463 1 0.20104 0.992673 0.516771
88 1 0.207299 0.980871 0.520036
32 1 0.215272 0.992359 0.518228
2684 1 0.239468 0.990576 0.520128
2680 1 0.229549 0.994528 0.516267
2340 1 0.256743 0.990458 0.521794
2547 1 0.268779 0.995906 0.521331
2480 1 0.28402 0.985592 0.521187
2486 1 0.297898 0.995237 0.521796
1649 1 0.255269 0.516094 0.526059
1437 1 0.263923 0.504406 0.525434
1728 1 0.269901 0.514435 0.528702
1586 1 0.278939 0.505841 0.527183
1797 1 0.286464 0.514642 0.531237
1600 1 0.297203 0.50567 0.53194
1451 1 0.311198 0.509202 0.534404
1384 1 0.325311 0.499883 0.532392
1678 1 0.42216 0.50189 0.532915
1469 1 0.436215 0.503142 0.532682
4271 1 0.454707 0.503048 0.531465
1467 1 0.464951 0.513864 0.531904
4343 1 0.477098 0.511284 0.528657
4275 1 0.490825 0.507324 0.526805
1868 1 0.235019 0.529762 0.523899
1592 1 0.24684 0.526332 0.525523
1633 1 0.252912 0.534413 0.530594
1632 1 0.241982 0.541777 0.52714
1719 1 0.263458 0.526237 0.529934
1444 1 0.271493 0.540116 0.533247
1869 1 0.279922 0.5263 0.531834
2016 1 0.291369 0.530458 0.534293
4132 1 0.476709 0.524475 0.532217
4285 1 0.497972 0.539749 0.527438
1470 1 0.490184 0.521724 0.528681
4284 1 0.486975 0.535115 0.531385
1588 1 0.222864 0.553968 0.52559
1665 1 0.232484 0.548321 0.527734
1655 1 0.235186 0.558293 0.531801
1572 1 0.246849 0.551067 0.532503
1512 1 0.260087 0.543514 0.532354
4014 1 0.490184 0.550017 0.532216
1643 1 0.192995 0.578289 0.524298
1644 1 0.201638 0.570451 0.523549
1636 1 0.210597 0.56421 0.524846
1855 1 0.213691 0.574474 0.529797
1648 1 0.220727 0.563514 0.529441
1676 1 0.495688 0.56748 0.531364
4425 1 0.483588 0.564155 0.533936
1789 1 0.170937 0.593499 0.525202
1782 1 0.184992 0.588651 0.524967
1725 1 0.194851 0.593723 0.529019
1626 1 0.203104 0.582792 0.527822
1645 1 0.205573 0.592907 0.532066
4341 1 0.492517 0.580077 0.530892
4491 1 0.497304 0.591324 0.533673
1905 1 0.159174 0.605674 0.525079
2042 1 0.15338 0.619238 0.527439
1772 1 0.170461 0.607457 0.529569
1909 1 0.165368 0.618293 0.530681
1854 1 0.182586 0.615448 0.534277
1712 1 0.184403 0.600563 0.529048
1760 1 0.138478 0.62593 0.523398
1623 1 0.150244 0.633824 0.528438
1833 1 0.164167 0.634414 0.531758
1830 1 0.0969388 0.649482 0.524167
1971 1 0.112212 0.639108 0.525314
2036 1 0.110081 0.65416 0.526899
4620 1 0.124652 0.646924 0.525868
2106 1 0.139066 0.657431 0.531411
1841 1 0.125813 0.657315 0.529954
1762 1 0.135882 0.643883 0.527528
2037 1 0.150489 0.645981 0.530284
1832 1 0.160987 0.645722 0.533089
2033 1 0.0705929 0.667042 0.523218
2182 1 0.0877386 0.662408 0.525268
2034 1 0.0796058 0.673457 0.526953
1686 1 0.0930008 0.678302 0.527054
4476 1 0.101675 0.663899 0.526161
1826 1 0.118105 0.668151 0.529127
2109 1 0.108351 0.67776 0.528886
2058 1 0.135854 0.669092 0.534142
1756 1 0.0582128 0.690807 0.522945
2035 1 0.0735635 0.684193 0.525726
1967 1 0.0677818 0.695182 0.526059
1829 1 0.0844089 0.690177 0.528078
2119 1 0.0999631 0.688016 0.529791
2050 1 0.112982 0.690409 0.533317
1778 1 0.123678 0.682062 0.53237
4912 1 0.494931 0.688892 0.533695
4687 1 0.0568945 0.704652 0.523446
4759 1 0.0581154 0.719331 0.523536
1755 1 0.0776491 0.703118 0.530332
1891 1 0.0658059 0.708259 0.527116
4967 1 0.0922192 0.699971 0.532064
4828 1 0.0803316 0.718385 0.530681
1973 1 0.0993406 0.715938 0.53251
1896 1 0.108743 0.701842 0.53437
1893 1 0.115295 0.718698 0.534302
2030 1 0.500134 0.702526 0.531269
4694 1 0.492198 0.714025 0.533469
2175 1 0.0529985 0.732042 0.523639
4689 1 0.0688003 0.721689 0.526411
4752 1 0.0666888 0.735007 0.526832
5039 1 0.0793688 0.733554 0.530486
1822 1 0.0933621 0.72838 0.533132
2309 1 0.499104 0.725607 0.530932
5043 1 0.494276 0.73849 0.530619
2098 1 0.485084 0.729069 0.533022
4822 1 0.0510454 0.7473 0.524557
1751 1 0.0644613 0.749518 0.525466
2103 1 0.0784154 0.747436 0.529587
4549 1 0.0932216 0.743921 0.53215
1892 1 0.0874002 0.758258 0.53206
5113 1 0.48531 0.753739 0.534266
2307 1 0.494621 0.752505 0.530497
2220 1 0.480279 0.742061 0.533278
5110 1 0.0526669 0.760194 0.522598
1961 1 0.0695988 0.762729 0.526504
5178 1 0.059221 0.776224 0.525187
4745 1 0.079596 0.772557 0.529698
4968 1 0.0964024 0.770656 0.531926
2365 1 0.480692 0.777346 0.533863
4837 1 0.495177 0.770562 0.530028
4911 1 0.484093 0.766137 0.533583
5104 1 0.0545275 0.789666 0.52229
2521 1 0.0669791 0.795769 0.52364
4969 1 0.0707727 0.781452 0.527011
5244 1 0.0821926 0.79124 0.528661
4826 1 0.0918368 0.78295 0.531343
5176 1 0.0992474 0.794934 0.532051
4970 1 0.113997 0.79536 0.533803
4975 1 0.479864 0.795328 0.533874
2380 1 0.493527 0.783256 0.53031
2450 1 0.49173 0.79558 0.529449
2461 1 0.0436632 0.814831 0.521418
2524 1 0.0466806 0.801539 0.522791
5180 1 0.0578909 0.805968 0.524249
1970 1 0.0794732 0.805227 0.526926
2542 1 0.0721895 0.812866 0.526141
2311 1 0.0895003 0.801692 0.529999
4893 1 0.0876367 0.815131 0.527292
5105 1 0.0986654 0.813044 0.530017
2178 1 0.106686 0.804975 0.532532
5030 1 0.115931 0.81217 0.533234
2370 1 0.467323 0.807355 0.535308
2437 1 0.472699 0.816831 0.532334
2359 1 0.482374 0.808874 0.529125
4973 1 0.496083 0.808774 0.524527
2451 1 0.0565557 0.819548 0.52326
2462 1 0.0666818 0.825341 0.524702
2528 1 0.0742476 0.839379 0.525778
2530 1 0.0825168 0.827208 0.526868
2173 1 0.0978478 0.828617 0.528703
2538 1 0.0896732 0.840234 0.527787
5249 1 0.107815 0.822133 0.5322
2249 1 0.107359 0.837072 0.530003
2172 1 0.116633 0.829637 0.53245
2587 1 0.461185 0.824456 0.533239
2585 1 0.476332 0.827812 0.52773
2586 1 0.462857 0.836918 0.528861
2583 1 0.488564 0.823742 0.525176
2512 1 0.487459 0.837301 0.523267
2171 1 0.0613389 0.850768 0.525026
2534 1 0.0749849 0.860876 0.525889
2256 1 0.0826259 0.850892 0.52774
2669 1 0.0931114 0.857719 0.526542
5108 1 0.103337 0.849756 0.529624
2602 1 0.117411 0.847785 0.532493
2459 1 0.126264 0.857917 0.532696
5319 1 0.130255 0.841517 0.533388
2207 1 0.42619 0.846968 0.533415
2286 1 0.433159 0.857425 0.532268
2154 1 0.452885 0.843313 0.532423
2306 1 0.440737 0.847007 0.532011
2369 1 0.451102 0.859783 0.528127
2356 1 0.462755 0.849607 0.52675
2446 1 0.474162 0.841066 0.526038
2448 1 0.479911 0.853095 0.522857
5390 1 0.0621075 0.863782 0.523322
2314 1 0.0720639 0.877205 0.523941
2731 1 0.0898593 0.869893 0.525679
2455 1 0.111064 0.862562 0.528449
2531 1 0.103205 0.871162 0.527024
2457 1 0.115457 0.876779 0.526329
2458 1 0.122208 0.868508 0.530856
2392 1 0.135462 0.873073 0.531667
5109 1 0.138659 0.860734 0.531847
2363 1 0.412423 0.869874 0.533273
2223 1 0.423424 0.863641 0.532503
2434 1 0.427226 0.876434 0.531455
2423 1 0.440578 0.868505 0.52968
2579 1 0.455968 0.872194 0.526435
2582 1 0.465926 0.863119 0.524897
2584 1 0.46679 0.881592 0.524777
81 1 0.0735135 0.88957 0.523626
2539 1 0.0977536 0.883735 0.525707
2608 1 0.085304 0.883345 0.525549
2594 1 0.103455 0.896903 0.524566
2381 1 0.112091 0.887785 0.527258
2386 1 0.121242 0.897378 0.527437
2533 1 0.125616 0.884209 0.528061
2466 1 0.13711 0.889586 0.53177
2471 1 0.153134 0.893258 0.532184
2425 1 0.415418 0.884173 0.533337
2511 1 0.430259 0.892114 0.529364
2293 1 0.442677 0.882652 0.529235
2442 1 0.456522 0.887625 0.527683
2364 1 0.458 0.899145 0.526182
5181 1 0.470385 0.896394 0.524176
2651 1 0.478923 0.885209 0.522636
5102 1 0.113372 0.908153 0.524117
2679 1 0.129567 0.906851 0.526707
2384 1 0.122994 0.917087 0.525512
2609 1 0.138034 0.916769 0.527223
2532 1 0.142102 0.903131 0.529173
2393 1 0.151566 0.912578 0.529007
2407 1 0.171 0.913311 0.531915
2112 1 0.160453 0.904542 0.531175
2492 1 0.194621 0.912189 0.532838
2193 1 0.210391 0.912457 0.53448
2553 1 0.227594 0.918739 0.532508
2712 1 0.330962 0.919233 0.533424
2640 1 0.343258 0.919351 0.533656
2642 1 0.356317 0.921721 0.534999
2432 1 0.414736 0.898734 0.532856
2574 1 0.415151 0.917376 0.531173
2368 1 0.427417 0.905126 0.529368
2506 1 0.439359 0.914027 0.529049
2514 1 0.444096 0.900828 0.528414
2576 1 0.455058 0.913398 0.528162
2436 1 0.468644 0.914282 0.526554
2517 1 0.48277 0.916646 0.525242
2508 1 0.484955 0.902467 0.524111
2677 1 0.108378 0.921728 0.523643
2753 1 0.125741 0.930444 0.525193
2685 1 0.138054 0.931449 0.525939
2388 1 0.150948 0.923853 0.526703
2338 1 0.154523 0.936544 0.526512
2757 1 0.164605 0.924481 0.529647
2271 1 0.179032 0.93411 0.529601
2544 1 0.166693 0.938151 0.526698
2401 1 0.182133 0.920883 0.530598
2333 1 0.199627 0.924699 0.531542
2261 1 0.192475 0.935028 0.530105
2329 1 0.211688 0.925034 0.531892
2403 1 0.209023 0.938594 0.528903
2465 1 0.221732 0.929473 0.531368
2683 1 0.234276 0.936628 0.5296
2476 1 0.244814 0.929502 0.531159
2487 1 0.255599 0.935948 0.530979
2567 1 0.278189 0.930383 0.53119
2774 1 0.26706 0.927722 0.533558
53 1 0.288869 0.936803 0.529972
2485 1 0.28408 0.918949 0.533191
2496 1 0.294848 0.925376 0.532869
2714 1 0.305339 0.932412 0.531328
2767 1 0.314952 0.92343 0.533635
2761 1 0.331352 0.933672 0.531906
2637 1 0.342813 0.93203 0.531793
2427 1 0.355921 0.932284 0.533273
2644 1 0.369386 0.934902 0.533036
2728 1 0.382673 0.92778 0.533527
2716 1 0.39434 0.934267 0.531675
2354 1 0.403625 0.925022 0.532761
2509 1 0.426698 0.919347 0.529906
2443 1 0.417474 0.933208 0.529931
2568 1 0.432413 0.932451 0.528396
58 1 0.445637 0.926797 0.528046
2573 1 0.450128 0.939501 0.52692
2657 1 0.479655 0.929216 0.523496
2646 1 0.462208 0.92805 0.527094
2727 1 0.46301 0.939693 0.526227
5182 1 0.493396 0.921681 0.521379
2526 1 0.12421 0.942493 0.523761
2322 1 0.138681 0.946774 0.524367
2545 1 0.153819 0.951122 0.523691
2400 1 0.169645 0.948724 0.524255
2198 1 0.197083 0.950506 0.525358
2395 1 0.184186 0.947195 0.525512
2266 1 0.213751 0.956332 0.523497
2550 1 0.221559 0.942667 0.526802
2123 1 0.232396 0.955585 0.525723
2631 1 0.244335 0.945985 0.52841
2776 1 0.259164 0.951849 0.527333
2555 1 0.27183 0.942505 0.529474
2404 1 0.273279 0.957192 0.525937
2483 1 0.28436 0.953411 0.526632
2706 1 0.299967 0.945672 0.529373
2698 1 0.31796 0.942592 0.529103
2561 1 0.308443 0.956519 0.528268
2500 1 0.333478 0.94703 0.529402
2781 1 0.320936 0.954775 0.528464
2782 1 0.337116 0.957833 0.528747
2778 1 0.346701 0.94341 0.53203
2771 1 0.353361 0.954809 0.530244
2439 1 0.360353 0.946979 0.531871
2638 1 0.369113 0.954303 0.529121
2504 1 0.378357 0.942838 0.530314
2502 1 0.394553 0.950002 0.529574
2358 1 0.384357 0.959406 0.527479
2489 1 0.407004 0.944733 0.529027
118 1 0.411699 0.955942 0.528015
2571 1 0.438286 0.941514 0.526756
2643 1 0.425157 0.948534 0.52739
52 1 0.449206 0.953836 0.525734
2654 1 0.476856 0.941989 0.525206
2722 1 0.462567 0.953858 0.525933
2799 1 0.477229 0.956521 0.524859
2790 1 0.488887 0.947894 0.524483
2543 1 0.167732 0.964006 0.523153
2328 1 0.182868 0.960435 0.523746
2321 1 0.196695 0.963027 0.523803
2612 1 0.224233 0.963796 0.523523
2541 1 0.246701 0.979071 0.52354
2415 1 0.246617 0.963564 0.525924
2405 1 0.261333 0.970782 0.525056
2562 1 0.277333 0.969685 0.524669
2551 1 0.294864 0.961307 0.526231
2623 1 0.290893 0.976693 0.52568
2618 1 0.303569 0.971153 0.525337
46 1 0.315638 0.971144 0.526074
2762 1 0.327611 0.966583 0.526902
2694 1 0.344221 0.969438 0.526667
2503 1 0.358181 0.977905 0.526858
2708 1 0.362575 0.965176 0.528137
190 1 0.37551 0.971104 0.527634
2699 1 0.393269 0.973253 0.528337
122 1 0.400918 0.961091 0.529888
260 1 0.409402 0.970851 0.528102
2647 1 0.436534 0.959625 0.525295
2575 1 0.420788 0.965171 0.525562
108 1 0.420591 0.978582 0.526852
195 1 0.434418 0.975228 0.526874
51 1 0.450797 0.969896 0.526722
2791 1 0.463207 0.967941 0.525726
2723 1 0.478069 0.975006 0.525851
126 1 0.487428 0.965557 0.526652
2556 1 0.267615 0.981499 0.5231
2701 1 0.30727 0.98484 0.524852
2763 1 0.318504 0.987989 0.522677
2619 1 0.33283 0.998547 0.522948
2720 1 0.331108 0.981169 0.526207
2499 1 0.346461 0.985593 0.523613
112 1 0.361692 0.993561 0.527725
50 1 0.36856 0.981677 0.527095
2628 1 0.373978 0.993859 0.527574
2769 1 0.388491 0.995016 0.526606
2715 1 0.383325 0.982664 0.527611
43 1 0.398141 0.985227 0.526957
2719 1 0.411567 0.98723 0.52676
134 1 0.428179 0.989908 0.528272
2784 1 0.446285 0.985959 0.528221
2787 1 0.441842 0.998715 0.528582
263 1 0.458298 0.992067 0.527013
131 1 0.467784 0.996981 0.529338
2795 1 0.460002 0.978513 0.528586
61 1 0.472155 0.985852 0.525431
3013 1 0.490953 0.997297 0.529526
128 1 0.482561 0.987764 0.527995
2946 1 0.492241 0.980142 0.527709
1454 1 0.299835 0.521291 0.535086
1661 1 0.326585 0.516423 0.536263
1450 1 0.337524 0.506109 0.534078
1668 1 0.351672 0.511776 0.53665
1742 1 0.366839 0.516624 0.538099
1597 1 0.378949 0.519637 0.538129
1802 1 0.365401 0.502971 0.535711
1395 1 0.381152 0.507494 0.536346
1388 1 0.39226 0.51798 0.537384
1525 1 0.400258 0.507787 0.534447
1591 1 0.412073 0.512322 0.535157
4350 1 0.429647 0.51425 0.536273
4481 1 0.443304 0.512976 0.535158
1745 1 0.312628 0.526707 0.536317
2014 1 0.302097 0.537513 0.537814
1522 1 0.323839 0.534044 0.538138
1738 1 0.339736 0.521346 0.53857
1530 1 0.340193 0.537624 0.541565
1741 1 0.357098 0.540592 0.541749
1604 1 0.353626 0.527666 0.54028
1671 1 0.367329 0.532954 0.539749
1392 1 0.380582 0.530465 0.539855
1819 1 0.395401 0.532123 0.540664
1677 1 0.407747 0.52387 0.537267
4418 1 0.409534 0.537377 0.53859
1670 1 0.420326 0.525502 0.538015
1606 1 0.436508 0.526184 0.537091
4488 1 0.424884 0.5381 0.540789
1539 1 0.454995 0.521738 0.535276
4353 1 0.447504 0.531366 0.53914
4352 1 0.463166 0.532284 0.53454
4422 1 0.478286 0.53974 0.534715
1731 1 0.258625 0.558144 0.536254
1652 1 0.272218 0.553904 0.536642
1582 1 0.284879 0.54139 0.534883
1724 1 0.284628 0.556636 0.538382
1939 1 0.297295 0.549101 0.53914
1521 1 0.314168 0.543502 0.539337
1807 1 0.317294 0.55333 0.544141
1733 1 0.303717 0.557344 0.542731
1739 1 0.329853 0.548363 0.542732
1810 1 0.343869 0.549821 0.54476
1875 1 0.371848 0.543963 0.542369
1811 1 0.386112 0.540166 0.542634
1601 1 0.398293 0.546166 0.54192
1945 1 0.385091 0.555058 0.543725
1524 1 0.412981 0.552157 0.54206
4485 1 0.428803 0.551845 0.54172
1607 1 0.437642 0.541332 0.541402
4348 1 0.448066 0.552761 0.540108
4416 1 0.453238 0.540876 0.537939
4290 1 0.464482 0.548395 0.53517
4354 1 0.477869 0.551845 0.534259
1804 1 0.226319 0.572829 0.53357
1800 1 0.237513 0.56999 0.536585
1656 1 0.248592 0.565145 0.537566
1651 1 0.25101 0.576873 0.540126
1803 1 0.273265 0.565153 0.540321
1864 1 0.26256 0.570503 0.538822
1734 1 0.280601 0.577191 0.543139
1796 1 0.292329 0.564781 0.543609
1603 1 0.390556 0.569241 0.544026
1256 1 0.402164 0.56371 0.544434
4412 1 0.413192 0.572173 0.543544
4133 1 0.419071 0.562336 0.544134
4632 1 0.4308 0.568811 0.543425
4206 1 0.439647 0.558731 0.542059
1610 1 0.446682 0.572518 0.542214
4568 1 0.456457 0.562532 0.539911
4623 1 0.461816 0.576692 0.540083
4492 1 0.470761 0.563834 0.537606
4432 1 0.480795 0.576494 0.535973
1935 1 0.215518 0.586204 0.534293
1720 1 0.226875 0.583868 0.538731
1715 1 0.220191 0.59518 0.539926
1642 1 0.239154 0.580493 0.53913
1722 1 0.254099 0.586325 0.543988
1721 1 0.242632 0.592561 0.542286
1584 1 0.267413 0.581656 0.542339
1878 1 0.413136 0.589244 0.545828
4274 1 0.400526 0.580966 0.54437
1536 1 0.420758 0.581838 0.543948
1747 1 0.434534 0.585263 0.543924
1888 1 0.423456 0.597106 0.54463
4494 1 0.451388 0.590643 0.542212
4552 1 0.472197 0.583904 0.538739
4420 1 0.466534 0.594545 0.540445
4288 1 0.48371 0.592381 0.53688
1775 1 0.196723 0.607174 0.535413
1862 1 0.209814 0.602947 0.53754
1779 1 0.204222 0.616432 0.539704
1716 1 0.21936 0.611628 0.542999
1786 1 0.231926 0.599866 0.54356
1746 1 0.422876 0.609484 0.544545
4555 1 0.434018 0.616021 0.544648
4419 1 0.4394 0.600902 0.543405
4566 1 0.459596 0.607373 0.54018
4484 1 0.447749 0.61556 0.543074
4563 1 0.475762 0.601922 0.539646
4636 1 0.472424 0.614541 0.539636
4344 1 0.494205 0.604007 0.53525
4558 1 0.484351 0.60854 0.538287
1638 1 0.174715 0.627219 0.533732
1937 1 0.192385 0.623938 0.53792
1705 1 0.185237 0.639143 0.536172
1713 1 0.200098 0.634666 0.539169
2074 1 0.212351 0.624802 0.54105
1921 1 0.217314 0.638877 0.541936
2002 1 0.227273 0.626014 0.544456
1915 1 0.231815 0.6392 0.544579
1883 1 0.458494 0.623037 0.540803
1887 1 0.443719 0.628985 0.543617
4627 1 0.474208 0.628494 0.538657
4551 1 0.462182 0.635861 0.542534
4413 1 0.479606 0.639766 0.539628
4414 1 0.497524 0.621329 0.536481
4430 1 0.484309 0.621255 0.53864
4556 1 0.494238 0.636231 0.537854
1836 1 0.156329 0.658447 0.534595
1774 1 0.172779 0.644132 0.53541
1787 1 0.193171 0.651779 0.539802
1718 1 0.179832 0.656217 0.538792
1903 1 0.207435 0.647069 0.541233
4767 1 0.437169 0.641571 0.545374
4490 1 0.453126 0.644383 0.541921
4693 1 0.446326 0.656827 0.545068
4763 1 0.468297 0.648154 0.541727
4691 1 0.479746 0.652837 0.539509
1959 1 0.492382 0.650777 0.538447
2046 1 0.148799 0.670446 0.534881
1974 1 0.159435 0.673707 0.540147
1834 1 0.167778 0.661669 0.537938
1785 1 0.172984 0.678696 0.539937
1704 1 0.196595 0.66513 0.541424
1845 1 0.182461 0.666531 0.540608
1847 1 0.20438 0.676568 0.541991
1917 1 0.209302 0.658633 0.54306
1761 1 0.214563 0.671885 0.543754
4695 1 0.45937 0.672237 0.543487
4838 1 0.462673 0.660436 0.542948
4417 1 0.474264 0.663923 0.540681
4831 1 0.471687 0.67783 0.541152
1960 1 0.488876 0.668051 0.538993
4629 1 0.495662 0.676395 0.535043
2114 1 0.136681 0.684505 0.534685
1913 1 0.127091 0.693469 0.536289
1975 1 0.148996 0.685392 0.537674
2038 1 0.161997 0.689999 0.540396
2049 1 0.178039 0.693761 0.54119
1987 1 0.18893 0.680808 0.541584
2008 1 0.20002 0.688082 0.544912
1993 1 0.18912 0.698489 0.543329
2301 1 0.45924 0.700079 0.542596
2234 1 0.451599 0.685146 0.544321
2170 1 0.447893 0.697695 0.545297
2167 1 0.465271 0.689111 0.542715
2096 1 0.475329 0.691631 0.539109
2302 1 0.485853 0.696469 0.5354
1817 1 0.483637 0.679424 0.537902
2118 1 0.140238 0.69958 0.537195
2253 1 0.123274 0.705506 0.53506
2251 1 0.132756 0.711322 0.538613
2041 1 0.152804 0.703824 0.541037
1824 1 0.145152 0.715983 0.541038
2180 1 0.158998 0.715941 0.541743
1850 1 0.1682 0.703146 0.542915
1927 1 0.172123 0.719965 0.543051
2053 1 0.183925 0.711869 0.543065
5184 1 0.454723 0.712851 0.542809
2445 1 0.440993 0.708362 0.544301
4835 1 0.470501 0.703107 0.539285
4766 1 0.475475 0.720643 0.536372
4554 1 0.480259 0.708079 0.53554
2025 1 0.466618 0.716223 0.539724
1894 1 0.105023 0.7325 0.535197
2110 1 0.119692 0.731736 0.538721
4758 1 0.128196 0.722734 0.538122
2032 1 0.138906 0.727895 0.540176
2183 1 0.13014 0.738803 0.540796
2254 1 0.153542 0.729913 0.541959
2244 1 0.16759 0.731298 0.543279
1929 1 0.185535 0.726632 0.545374
2232 1 0.454998 0.728568 0.54223
4910 1 0.441408 0.721199 0.545477
2162 1 0.441744 0.73604 0.543716
2298 1 0.469532 0.731725 0.536966
4474 1 0.100921 0.754866 0.53493
2242 1 0.112198 0.745992 0.536015
1965 1 0.115301 0.758047 0.536954
4963 1 0.125089 0.748717 0.537487
2107 1 0.136994 0.754529 0.537842
4897 1 0.147798 0.746369 0.541034
2105 1 0.155515 0.75757 0.539914
2040 1 0.163659 0.745496 0.542802
1989 1 0.175334 0.750257 0.545541
1880 1 0.435755 0.746797 0.54381
2438 1 0.449547 0.747709 0.543254
2226 1 0.457179 0.740155 0.53821
2158 1 0.458661 0.757979 0.539349
2155 1 0.444923 0.758697 0.542569
2159 1 0.470136 0.748988 0.537502
4825 1 0.107724 0.769423 0.536194
5033 1 0.117488 0.776419 0.536896
4900 1 0.126364 0.767654 0.536571
2383 1 0.138734 0.778668 0.537612
2243 1 0.142823 0.764551 0.538996
1969 1 0.154063 0.770742 0.539391
4899 1 0.166644 0.766296 0.543146
2187 1 0.169697 0.777877 0.543995
2161 1 0.435047 0.76573 0.542848
2291 1 0.449862 0.772136 0.540594
4833 1 0.46314 0.77744 0.538654
4904 1 0.47142 0.763672 0.536009
2312 1 0.107385 0.782437 0.534545
2241 1 0.124729 0.785234 0.53704
2102 1 0.135157 0.795221 0.537763
2115 1 0.149883 0.79062 0.539485
2177 1 0.158123 0.783005 0.540879
2113 1 0.169282 0.791342 0.544505
2367 1 0.439828 0.780925 0.543582
2447 1 0.426062 0.787683 0.544995
2444 1 0.437915 0.796568 0.542326
2378 1 0.449523 0.788796 0.539985
2449 1 0.465118 0.792416 0.536728
5106 1 0.124887 0.819275 0.535216
2174 1 0.126529 0.803469 0.535377
2319 1 0.138802 0.814725 0.5361
2101 1 0.14331 0.803089 0.539137
4829 1 0.153152 0.81198 0.541353
2122 1 0.166659 0.814461 0.543636
2195 1 0.158831 0.800687 0.54351
2229 1 0.398881 0.818728 0.541801
2292 1 0.399487 0.807215 0.545632
2424 1 0.412768 0.812549 0.541351
2361 1 0.411631 0.802852 0.543527
2374 1 0.423985 0.801675 0.542007
2303 1 0.426032 0.818192 0.540554
2495 1 0.438693 0.81025 0.540281
2581 1 0.457139 0.815985 0.537308
2440 1 0.451983 0.802871 0.539491
5036 1 0.135078 0.827118 0.53613
2318 1 0.149881 0.822924 0.538175
2397 1 0.144059 0.834401 0.53604
2527 1 0.154244 0.835839 0.53908
2186 1 0.175395 0.824978 0.544048
2320 1 0.163134 0.826038 0.542628
2259 1 0.18224 0.835047 0.544048
2278 1 0.386458 0.828471 0.544237
2341 1 0.391856 0.83903 0.541318
2209 1 0.401251 0.83185 0.540828
2290 1 0.415128 0.826104 0.539376
2357 1 0.438098 0.838206 0.535718
2285 1 0.433394 0.827614 0.537607
2510 1 0.423099 0.837382 0.536945
2435 1 0.448395 0.831587 0.534965
2366 1 0.445065 0.821066 0.537821
2313 1 0.141093 0.849882 0.535032
2540 1 0.152673 0.850983 0.536579
2192 1 0.167022 0.840169 0.541704
2054 1 0.166994 0.855966 0.540797
2188 1 0.179127 0.850304 0.543837
2130 1 0.193269 0.845865 0.545414
2428 1 0.377568 0.839291 0.543875
2280 1 0.372961 0.855921 0.545543
2433 1 0.385137 0.853503 0.540258
2227 1 0.400696 0.84958 0.538091
2408 1 0.41637 0.853672 0.53565
2426 1 0.409514 0.839916 0.538532
2296 1 0.405682 0.860001 0.535576
2597 1 0.148931 0.877332 0.533706
2391 1 0.152727 0.863463 0.536815
2250 1 0.163967 0.870745 0.539875
2246 1 0.177485 0.867988 0.541633
2257 1 0.190309 0.864381 0.544435
2051 1 0.188686 0.878637 0.54245
2490 1 0.244714 0.877709 0.545596
2134 1 0.265062 0.865123 0.545061
2360 1 0.287252 0.871273 0.544773
2484 1 0.301738 0.878743 0.54271
2560 1 0.313656 0.874693 0.543468
2707 1 0.335217 0.866994 0.54509
2429 1 0.326871 0.878748 0.543818
2224 1 0.322378 0.863511 0.544224
2494 1 0.35437 0.879785 0.54211
2559 1 0.378386 0.866794 0.540917
2288 1 0.365066 0.872504 0.543047
2786 1 0.394181 0.866015 0.535506
2421 1 0.382292 0.873261 0.536189
2507 1 0.39929 0.876182 0.534064
2248 1 0.16264 0.882021 0.535444
2326 1 0.170491 0.893532 0.534075
2263 1 0.177282 0.881449 0.540071
2529 1 0.185011 0.890703 0.537323
2389 1 0.200088 0.888117 0.540695
2247 1 0.1971 0.898199 0.535651
2052 1 0.212259 0.890327 0.541687
2390 1 0.222754 0.896645 0.540486
2194 1 0.229527 0.883882 0.542643
2481 1 0.242061 0.894232 0.54225
2479 1 0.255902 0.891829 0.542489
2335 1 0.273778 0.882596 0.54231
2625 1 0.268644 0.893072 0.541563
2262 1 0.285802 0.883987 0.542211
2478 1 0.28356 0.894896 0.540195
2493 1 0.294848 0.892181 0.539378
2639 1 0.311439 0.888776 0.540728
2627 1 0.325065 0.893437 0.53825
2431 1 0.339803 0.881127 0.541823
2570 1 0.339116 0.894216 0.539788
2779 1 0.356704 0.892028 0.538332
2569 1 0.373497 0.89395 0.537129
2411 1 0.369234 0.882091 0.537922
2419 1 0.386664 0.885797 0.535154
2724 1 0.398962 0.892078 0.534959
2396 1 0.180046 0.904234 0.534383
2477 1 0.211503 0.901591 0.538433
2268 1 0.222669 0.911692 0.536108
2336 1 0.233149 0.906323 0.538498
2705 1 0.249987 0.905402 0.540003
2406 1 0.25712 0.917507 0.534396
2621 1 0.241528 0.918409 0.53554
2342 1 0.263286 0.906332 0.538568
2565 1 0.278158 0.903978 0.537434
2552 1 0.271931 0.915167 0.534993
2497 1 0.289912 0.908813 0.53609
2777 1 0.298535 0.901476 0.537512
2709 1 0.304573 0.915071 0.534062
2566 1 0.311512 0.903266 0.53839
2422 1 0.329766 0.903791 0.536257
2362 1 0.319543 0.910516 0.535535
117 1 0.346827 0.907649 0.535674
2501 1 0.37663 0.909622 0.536274
2498 1 0.36369 0.905293 0.537599
2289 1 0.388192 0.901439 0.535876
2718 1 0.390736 0.918261 0.534581
2578 1 0.403718 0.908507 0.535058
2430 1 0.36951 0.92107 0.53508
1743 1 0.35594 0.550344 0.545634
1664 1 0.368809 0.553604 0.546217
1938 1 0.294736 0.576818 0.547247
1594 1 0.308386 0.56966 0.546192
2085 1 0.320705 0.565688 0.546441
1805 1 0.332314 0.561719 0.546006
1598 1 0.336031 0.575026 0.548471
1808 1 0.324068 0.580102 0.548455
1863 1 0.357803 0.563562 0.547925
1809 1 0.344265 0.563888 0.547346
4482 1 0.370801 0.566135 0.546367
1735 1 0.358044 0.575122 0.548555
1605 1 0.380885 0.574494 0.548232
1865 1 0.259106 0.598424 0.547167
1646 1 0.269969 0.594196 0.548312
1925 1 0.279283 0.588025 0.548473
2079 1 0.291399 0.590245 0.55034
1873 1 0.310757 0.581143 0.549543
1941 1 0.308078 0.595348 0.551482
1879 1 0.333725 0.589569 0.551018
1667 1 0.323081 0.598032 0.551211
1877 1 0.345435 0.581862 0.549174
1951 1 0.355792 0.59104 0.549485
1740 1 0.369401 0.582108 0.547051
1890 1 0.379389 0.593968 0.547764
1674 1 0.388478 0.585804 0.546465
1744 1 0.399583 0.597536 0.545892
1932 1 0.239615 0.613726 0.546023
1654 1 0.247799 0.603247 0.54616
1790 1 0.249435 0.617479 0.550681
1861 1 0.262472 0.609925 0.550272
1658 1 0.274903 0.604903 0.551256
2071 1 0.278166 0.618138 0.553453
1858 1 0.285783 0.603853 0.552799
1666 1 0.298425 0.605516 0.552541
2009 1 0.29057 0.616491 0.554404
1936 1 0.316272 0.609079 0.553628
1792 1 0.304296 0.617865 0.555763
1526 1 0.330327 0.607911 0.552898
1737 1 0.329444 0.619588 0.556532
1815 1 0.34192 0.59995 0.551283
1871 1 0.345792 0.615657 0.55328
1874 1 0.353425 0.606465 0.551186
1886 1 0.366781 0.599098 0.548734
1675 1 0.364908 0.615526 0.55102
1946 1 0.379714 0.610633 0.550009
1748 1 0.386849 0.602949 0.546945
1672 1 0.396811 0.609334 0.547621
1958 1 0.409811 0.609559 0.546442
1784 1 0.241856 0.629307 0.548257
1849 1 0.25447 0.632013 0.553571
1793 1 0.267732 0.625131 0.553428
1943 1 0.28208 0.632164 0.555942
1867 1 0.343012 0.630956 0.557318
2081 1 0.354913 0.625672 0.553389
1870 1 0.354732 0.639677 0.556892
2028 1 0.368594 0.6292 0.553482
1940 1 0.380413 0.62626 0.549956
1889 1 0.390406 0.619753 0.549842
1749 1 0.394689 0.634968 0.550507
1750 1 0.40399 0.622826 0.549763
4622 1 0.41054 0.63416 0.548658
1885 1 0.41702 0.620804 0.546514
4696 1 0.428083 0.626564 0.545558
1956 1 0.422255 0.63861 0.546936
1853 1 0.223217 0.650662 0.544379
1914 1 0.23676 0.657441 0.548015
1860 1 0.257999 0.645905 0.552797
1791 1 0.252645 0.657223 0.5514
2006 1 0.243717 0.646476 0.550525
1848 1 0.269168 0.641802 0.555714
1732 1 0.280507 0.648874 0.555982
2215 1 0.267395 0.656419 0.554483
2091 1 0.365192 0.640961 0.553301
1955 1 0.365821 0.654001 0.556356
2012 1 0.378409 0.657182 0.55532
1954 1 0.37913 0.643316 0.553825
1957 1 0.389882 0.649824 0.550453
1949 1 0.4043 0.648002 0.549885
2024 1 0.418038 0.650362 0.547778
1812 1 0.431534 0.652809 0.5467
2065 1 0.225085 0.66452 0.545832
2145 1 0.233657 0.675334 0.547773
2281 1 0.244526 0.666802 0.549454
1980 1 0.253353 0.676137 0.551465
2003 1 0.26157 0.667231 0.55419
2211 1 0.268865 0.673989 0.556456
2029 1 0.373362 0.670369 0.556392
2023 1 0.388135 0.664531 0.554408
2168 1 0.394676 0.676265 0.554732
1882 1 0.403046 0.661859 0.551185
1948 1 0.409071 0.673849 0.552878
2097 1 0.419884 0.663044 0.550787
1881 1 0.433427 0.667957 0.547987
2294 1 0.422044 0.678495 0.550955
1820 1 0.446261 0.668835 0.54611
1928 1 0.212516 0.68902 0.547111
1985 1 0.221271 0.698881 0.546509
1916 1 0.234206 0.696221 0.548984
1931 1 0.226857 0.684774 0.545469
1717 1 0.244224 0.686067 0.549167
1930 1 0.251684 0.696271 0.550778
2070 1 0.260292 0.685907 0.554252
2214 1 0.271559 0.695781 0.555635
2011 1 0.381719 0.681959 0.555911
2086 1 0.39608 0.689145 0.556386
2233 1 0.410296 0.688219 0.554295
2164 1 0.438354 0.680264 0.548414
2373 1 0.437153 0.69361 0.549023
1816 1 0.424552 0.690247 0.55174
1906 1 0.196388 0.714769 0.545123
1922 1 0.203827 0.700244 0.545574
1846 1 0.211635 0.713083 0.54799
2139 1 0.229438 0.709046 0.548807
1995 1 0.242497 0.702876 0.550178
2078 1 0.251937 0.712061 0.551138
1920 1 0.261133 0.70194 0.553312
1794 1 0.266651 0.713067 0.552974
4621 1 0.393534 0.70583 0.555335
2026 1 0.406869 0.69942 0.554687
2238 1 0.405177 0.71255 0.554637
2095 1 0.419226 0.700349 0.55206
4836 1 0.416545 0.716831 0.552176
2100 1 0.433886 0.706232 0.549765
2375 1 0.427553 0.717867 0.549277
2252 1 0.177241 0.736822 0.545615
1979 1 0.197229 0.731642 0.545949
1984 1 0.209833 0.728154 0.547319
1976 1 0.218658 0.738228 0.548815
2073 1 0.24042 0.721141 0.551112
2127 1 0.22347 0.721554 0.547521
1996 1 0.228976 0.731472 0.54911
2136 1 0.25675 0.721176 0.554197
1918 1 0.246458 0.732035 0.552702
2137 1 0.262388 0.731812 0.55573
1944 1 0.273545 0.726007 0.555276
2064 1 0.314889 0.719774 0.557436
2088 1 0.388886 0.722023 0.556209
2090 1 0.390724 0.734807 0.555836
2019 1 0.402175 0.725928 0.552567
2089 1 0.420713 0.730512 0.549721
2157 1 0.408882 0.737852 0.550502
4977 1 0.431101 0.72957 0.546666
2039 1 0.189438 0.744353 0.546396
1904 1 0.19543 0.755094 0.548545
2048 1 0.206621 0.744691 0.547899
1986 1 0.213385 0.753887 0.549531
2203 1 0.227642 0.749336 0.553161
1919 1 0.237435 0.741817 0.551814
2202 1 0.254612 0.743077 0.555413
1991 1 0.245288 0.749468 0.554119
2060 1 0.263764 0.751803 0.557315
1994 1 0.272722 0.743716 0.5568
1983 1 0.277857 0.759399 0.555558
2222 1 0.381789 0.758666 0.55592
2352 1 0.397606 0.761095 0.55253
4832 1 0.398729 0.743304 0.553225
2287 1 0.388754 0.750941 0.553866
4983 1 0.410017 0.755134 0.551534
2092 1 0.417959 0.747668 0.548977
4841 1 0.427111 0.740796 0.547283
2146 1 0.425191 0.757408 0.546784
2055 1 0.177416 0.766503 0.546154
2189 1 0.188401 0.764056 0.546372
2255 1 0.192913 0.775145 0.549882
1990 1 0.209566 0.774738 0.550542
2047 1 0.20576 0.764438 0.549579
1982 1 0.222885 0.766548 0.551696
2348 1 0.23805 0.759107 0.553435
1852 1 0.232362 0.77514 0.55306
1999 1 0.253169 0.76066 0.5549
1997 1 0.245739 0.77148 0.554528
2067 1 0.258801 0.780002 0.554865
2140 1 0.267067 0.768716 0.556026
2208 1 0.278359 0.777675 0.556192
2133 1 0.286942 0.768031 0.557517
2001 1 0.305453 0.772913 0.556844
2414 1 0.376556 0.778268 0.554759
2093 1 0.387505 0.771044 0.552862
2297 1 0.404158 0.769487 0.551007
2225 1 0.415909 0.764588 0.550026
2160 1 0.42679 0.77386 0.547239
2108 1 0.182063 0.782736 0.54663
2184 1 0.18102 0.794942 0.546129
1978 1 0.19743 0.790946 0.548996
2116 1 0.21226 0.789693 0.550132
2117 1 0.224542 0.786313 0.551838
2120 1 0.23316 0.794164 0.553633
2135 1 0.241752 0.784513 0.553465
1988 1 0.25217 0.792261 0.554287
2201 1 0.268006 0.786436 0.555228
2200 1 0.262505 0.798259 0.554756
2066 1 0.275762 0.799032 0.554414
2277 1 0.297227 0.781536 0.557001
1953 1 0.287438 0.786761 0.555324
2274 1 0.320195 0.7931 0.557497
1998 1 0.303654 0.793251 0.555877
2413 1 0.33427 0.797878 0.556858
2417 1 0.347014 0.786932 0.556001
2205 1 0.362138 0.783522 0.556061
2210 1 0.363194 0.796399 0.55507
2351 1 0.373866 0.791127 0.553197
2420 1 0.386011 0.785206 0.549904
2295 1 0.398825 0.779395 0.548092
2152 1 0.397641 0.792634 0.54599
2300 1 0.412739 0.77993 0.547447
2236 1 0.411381 0.79238 0.546616
2317 1 0.175466 0.806341 0.545718
2131 1 0.182486 0.817036 0.547024
2056 1 0.191768 0.808343 0.550399
2176 1 0.208218 0.803029 0.549891
2126 1 0.219803 0.818077 0.550821
2316 1 0.203055 0.817417 0.549154
2190 1 0.224809 0.802191 0.549768
2185 1 0.234657 0.810196 0.551318
2121 1 0.244647 0.802262 0.55216
2409 1 0.256963 0.81047 0.552097
2337 1 0.271807 0.811995 0.553441
2482 1 0.293046 0.800788 0.554749
1926 1 0.296925 0.814314 0.554219
2264 1 0.284516 0.813113 0.553327
2416 1 0.321824 0.809935 0.554236
2283 1 0.309156 0.807103 0.555732
2564 1 0.335841 0.81319 0.553079
2279 1 0.346229 0.801023 0.554168
2635 1 0.348844 0.819419 0.553178
2275 1 0.358834 0.810273 0.55386
2344 1 0.373632 0.806874 0.550819
2633 1 0.367605 0.817324 0.552144
2153 1 0.385032 0.800584 0.548298
2276 1 0.385232 0.815802 0.546418
2245 1 0.192498 0.825595 0.548208
2325 1 0.199594 0.835297 0.548796
2125 1 0.210293 0.830791 0.549811
2399 1 0.220132 0.837857 0.550149
1992 1 0.229825 0.82691 0.550647
2044 1 0.247505 0.820188 0.55092
2059 1 0.244882 0.832341 0.549701
2270 1 0.258183 0.823733 0.551437
2061 1 0.258193 0.837153 0.549745
2206 1 0.269422 0.827977 0.55048
2197 1 0.269426 0.840189 0.549725
2272 1 0.283421 0.825376 0.552048
2129 1 0.297092 0.829407 0.553329
2267 1 0.282812 0.839735 0.550596
2355 1 0.311058 0.822736 0.553773
2273 1 0.311135 0.837086 0.551372
2557 1 0.322822 0.825905 0.5544
2350 1 0.336029 0.83075 0.5538
2410 1 0.324044 0.837358 0.55234
2710 1 0.350134 0.839761 0.549652
2488 1 0.358058 0.827489 0.551272
2641 1 0.375812 0.825921 0.548438
2349 1 0.365746 0.837385 0.546826
2258 1 0.204718 0.85627 0.546363
2199 1 0.209002 0.844161 0.548297
2062 1 0.218644 0.85246 0.549196
2323 1 0.234886 0.844059 0.549287
2269 1 0.229622 0.855088 0.547743
2260 1 0.24683 0.846227 0.54738
2412 1 0.258539 0.85207 0.547535
2132 1 0.270394 0.853459 0.548136
2265 1 0.294121 0.844305 0.551716
2124 1 0.285091 0.852599 0.549407
2473 1 0.304424 0.850437 0.549344
2634 1 0.317725 0.850315 0.547509
2346 1 0.335385 0.844158 0.551241
2343 1 0.329324 0.851535 0.548149
2491 1 0.343504 0.855172 0.547914
2418 1 0.35737 0.849958 0.547587
2324 1 0.20364 0.875931 0.546735
2327 1 0.216205 0.877972 0.543478
2196 1 0.215678 0.865097 0.54681
2332 1 0.229045 0.8699 0.545971
2548 1 0.25967 0.878627 0.544508
2057 1 0.252806 0.864189 0.546976
2620 1 0.242435 0.861244 0.546442
2191 1 0.276624 0.866841 0.546877
2128 1 0.298437 0.863418 0.547527
2546 1 0.308287 0.861521 0.544335
2204 1 0.350673 0.869011 0.544134
2563 1 0.360213 0.862792 0.545829
2080 1 0.298124 0.628395 0.556937
1795 1 0.31695 0.626673 0.556312
1933 1 0.307727 0.6365 0.557737
1934 1 0.330705 0.633188 0.558359
2142 1 0.292275 0.640241 0.557951
2069 1 0.291754 0.656417 0.55756
2144 1 0.30787 0.649862 0.559056
1942 1 0.339945 0.644883 0.558223
1947 1 0.320296 0.644132 0.55783
2005 1 0.328956 0.653501 0.558635
1866 1 0.352097 0.651798 0.556403
2138 1 0.276015 0.661571 0.557514
1923 1 0.284761 0.672444 0.55761
1924 1 0.294689 0.679032 0.556954
2010 1 0.316502 0.662505 0.55916
2151 1 0.303329 0.663858 0.557435
2150 1 0.310202 0.676725 0.559115
1872 1 0.329855 0.669089 0.559094
2282 1 0.35563 0.665112 0.558007
2000 1 0.340212 0.661154 0.559876
1876 1 0.345113 0.674922 0.559624
2007 1 0.361512 0.676682 0.557616
2228 1 0.277844 0.683002 0.557635
1856 1 0.287442 0.69387 0.557082
1884 1 0.302975 0.692579 0.556191
1950 1 0.315739 0.6936 0.558427
1806 1 0.319885 0.68268 0.560024
2082 1 0.331938 0.682054 0.559229
2004 1 0.329465 0.697087 0.559074
2021 1 0.354227 0.686339 0.558467
2084 1 0.343028 0.692351 0.560364
2087 1 0.367958 0.698011 0.559275
2018 1 0.369545 0.684807 0.557043
4761 1 0.38189 0.694061 0.557961
2149 1 0.278822 0.70893 0.556862
2075 1 0.293859 0.704148 0.557941
2015 1 0.310339 0.706243 0.557404
2076 1 0.30253 0.719043 0.558041
2213 1 0.323644 0.711408 0.558432
2068 1 0.33191 0.720827 0.557221
2239 1 0.340767 0.707023 0.558629
2284 1 0.357078 0.702026 0.558759
1952 1 0.3493 0.716326 0.559412
2216 1 0.364857 0.714082 0.558984
4834 1 0.37862 0.711938 0.557623
2143 1 0.28395 0.738644 0.557272
2072 1 0.289045 0.718752 0.558423
2147 1 0.297684 0.73181 0.557324
2083 1 0.312671 0.732857 0.557615
2212 1 0.32626 0.731776 0.557269
2013 1 0.341483 0.728739 0.559301
1818 1 0.357321 0.72721 0.559212
2148 1 0.374976 0.728649 0.557846
2230 1 0.36547 0.73878 0.559109
2141 1 0.28741 0.751219 0.557296
2063 1 0.298198 0.745668 0.557588
2217 1 0.310036 0.747095 0.556948
2156 1 0.321665 0.747295 0.559039
2165 1 0.336969 0.742302 0.558937
2219 1 0.350415 0.7419 0.560135
2235 1 0.343698 0.757117 0.558786
2077 1 0.357443 0.753377 0.560919
2339 1 0.370182 0.754684 0.559819
2231 1 0.378456 0.744364 0.557828
2353 1 0.29996 0.76173 0.555926
2218 1 0.314676 0.761601 0.557547
2345 1 0.322638 0.775191 0.55867
2347 1 0.339382 0.772998 0.55769
2221 1 0.330234 0.761689 0.558643
2163 1 0.35358 0.77116 0.558472
2017 1 0.368468 0.767322 0.557032
2020 1 0.312824 0.781837 0.558205
2703 1 0.330834 0.7845 0.558239
354 1 0.928 0.230554 0.430422
3281 1 0.941824 0.227464 0.431159
781 1 0.954602 0.235314 0.428948
720 1 0.979195 0.234889 0.428643
791 1 0.968316 0.228402 0.430874
774 1 0.904059 0.255151 0.429238
845 1 0.915263 0.244073 0.429096
3422 1 0.899796 0.238685 0.431299
3360 1 0.921854 0.257896 0.4262
355 1 0.927876 0.244877 0.427854
710 1 0.936179 0.257517 0.425508
494 1 0.940168 0.239975 0.428464
785 1 0.951904 0.250301 0.4266
712 1 0.967969 0.242421 0.426914
3498 1 0.962274 0.256786 0.424725
637 1 0.980398 0.251383 0.425819
778 1 0.992926 0.240743 0.428338
789 1 0.997264 0.253503 0.426421
3701 1 0.892184 0.263578 0.430633
3192 1 0.899175 0.276577 0.427465
3570 1 0.910111 0.26807 0.42758
3497 1 0.924412 0.270238 0.424702
703 1 0.93746 0.275151 0.424069
3286 1 0.94709 0.264715 0.423496
431 1 0.960532 0.274574 0.42338
3490 1 0.973033 0.264493 0.425429
995 1 0.989258 0.264558 0.426282
640 1 0.984636 0.276056 0.424703
3563 1 0.876142 0.287196 0.431226
3492 1 0.889006 0.280772 0.42959
3771 1 0.888899 0.296695 0.430039
3635 1 0.89975 0.291144 0.427121
3633 1 0.912166 0.282102 0.425992
3625 1 0.91512 0.296154 0.425872
925 1 0.928117 0.283829 0.42661
3703 1 0.928097 0.295628 0.424459
3428 1 0.941125 0.292272 0.42432
709 1 0.951775 0.283078 0.422967
3634 1 0.960014 0.294762 0.423646
707 1 0.973853 0.284392 0.424385
996 1 0.975797 0.298817 0.425679
776 1 0.989402 0.294041 0.423099
3558 1 0.88662 0.311369 0.429728
3493 1 0.899167 0.304515 0.427614
3350 1 0.910315 0.309863 0.424627
3776 1 0.924824 0.310623 0.426007
981 1 0.937768 0.308225 0.425136
3499 1 0.949306 0.30114 0.423361
3277 1 0.95203 0.319038 0.423852
3708 1 0.964334 0.309567 0.42377
3849 1 0.979458 0.313252 0.423427
982 1 0.992058 0.306269 0.422516
1057 1 0.992387 0.319989 0.423214
3770 1 0.898314 0.320362 0.426252
3495 1 0.886699 0.328248 0.428812
3707 1 0.895563 0.340119 0.429653
3706 1 0.918259 0.320921 0.425679
3481 1 0.910389 0.331339 0.426659
3630 1 0.923381 0.332833 0.42631
777 1 0.935253 0.32375 0.425836
3568 1 0.953426 0.336434 0.426229
913 1 0.967165 0.325154 0.423351
3699 1 0.978165 0.333363 0.423493
3564 1 0.992493 0.334652 0.423753
3638 1 0.881097 0.34358 0.431798
3834 1 0.888461 0.354913 0.432106
3330 1 0.904317 0.353863 0.42946
3621 1 0.912733 0.342647 0.42878
3496 1 0.936447 0.340547 0.42655
3839 1 0.922998 0.349347 0.428996
3695 1 0.943349 0.352335 0.426672
911 1 0.959952 0.354013 0.426065
3639 1 0.969783 0.342275 0.424965
1121 1 0.973772 0.360497 0.42645
3705 1 0.982352 0.347905 0.424042
842 1 0.998893 0.347603 0.424301
3915 1 0.916567 0.360908 0.428908
3631 1 0.902637 0.371537 0.431428
3775 1 0.931231 0.361373 0.427302
1053 1 0.921125 0.376288 0.429508
3637 1 0.937687 0.374342 0.427736
3914 1 0.954488 0.36757 0.427086
3566 1 0.971579 0.372107 0.427359
708 1 0.986199 0.374121 0.427279
706 1 0.986982 0.360883 0.426208
3777 1 0.912241 0.38552 0.431107
3979 1 0.930948 0.386971 0.428599
1128 1 0.938886 0.395052 0.431282
3983 1 0.948187 0.382702 0.428974
1127 1 0.954712 0.395859 0.430825
3772 1 0.962282 0.383659 0.428352
782 1 0.977664 0.385813 0.427548
983 1 0.971816 0.396931 0.430429
704 1 0.995793 0.385485 0.429958
352 1 0.916866 0.18673 0.441569
3847 1 0.903892 0.193736 0.441247
3219 1 0.927487 0.191316 0.437298
567 1 0.940301 0.188512 0.439889
718 1 0.952189 0.188375 0.44269
631 1 0.953148 0.198209 0.439008
3567 1 0.975143 0.191978 0.440554
3357 1 0.990166 0.195833 0.440707
3488 1 0.896882 0.207484 0.43944
702 1 0.88127 0.211645 0.443259
784 1 0.907348 0.211396 0.43666
3354 1 0.912854 0.201253 0.438757
3426 1 0.916969 0.218569 0.434731
3414 1 0.924364 0.205017 0.43482
3278 1 0.940786 0.200349 0.435565
3140 1 0.931537 0.218102 0.43414
852 1 0.944806 0.212428 0.434183
792 1 0.960057 0.209989 0.434913
644 1 0.966205 0.200659 0.440567
861 1 0.972138 0.217791 0.435147
496 1 0.976387 0.206584 0.437085
722 1 0.991953 0.209731 0.435999
425 1 0.985007 0.220875 0.433153
3415 1 0.855881 0.238934 0.441466
3636 1 0.866368 0.234349 0.441225
3622 1 0.876425 0.22575 0.439412
3429 1 0.889153 0.21924 0.438863
3282 1 0.887681 0.23322 0.435536
3356 1 0.913036 0.229016 0.432507
3215 1 0.900051 0.223471 0.435878
715 1 0.955898 0.222281 0.433974
1002 1 0.99667 0.228796 0.430774
3348 1 0.846267 0.25047 0.442223
3553 1 0.863833 0.250985 0.438637
3212 1 0.875639 0.243352 0.437296
3543 1 0.870371 0.259569 0.434763
3565 1 0.880951 0.258625 0.432446
3284 1 0.888923 0.249265 0.432716
3418 1 0.855658 0.264276 0.438267
3673 1 0.84179 0.265468 0.443593
3560 1 0.852587 0.276889 0.438956
3700 1 0.866716 0.271613 0.4354
3398 1 0.879218 0.272896 0.432571
3472 1 0.840083 0.28278 0.441202
3744 1 0.840995 0.296073 0.440011
3769 1 0.854097 0.288727 0.437901
3534 1 0.865958 0.285176 0.436102
3411 1 0.831533 0.304288 0.443377
3403 1 0.833864 0.317149 0.442779
3471 1 0.844197 0.309855 0.4397
3420 1 0.855215 0.303664 0.438192
3494 1 0.878021 0.300901 0.431682
3702 1 0.862201 0.318632 0.435943
3424 1 0.874509 0.318146 0.432945
3476 1 0.866759 0.300634 0.43519
3556 1 0.839836 0.329349 0.441243
3475 1 0.84905 0.323408 0.437905
3546 1 0.860063 0.336956 0.435336
3483 1 0.871087 0.331483 0.432293
3470 1 0.834258 0.340085 0.441785
3616 1 0.830578 0.352879 0.441754
3469 1 0.848357 0.338986 0.438288
3674 1 0.844755 0.351847 0.438835
3693 1 0.855608 0.35068 0.434036
3396 1 0.869865 0.347474 0.431795
3756 1 0.83578 0.365542 0.438322
3552 1 0.837671 0.378482 0.438914
3620 1 0.826645 0.372615 0.441698
3485 1 0.848522 0.364337 0.435037
3626 1 0.849087 0.378187 0.434434
3482 1 0.875547 0.377685 0.433485
3629 1 0.862234 0.361922 0.431287
3539 1 0.875976 0.360501 0.432659
3689 1 0.861939 0.374373 0.432226
3773 1 0.889248 0.372798 0.433123
3765 1 0.836234 0.390538 0.44209
3843 1 0.859131 0.387928 0.436003
3551 1 0.847941 0.391351 0.437538
3547 1 0.870313 0.391938 0.434013
3704 1 0.89973 0.38754 0.432446
3632 1 0.885369 0.389318 0.434302
3489 1 0.895669 0.399634 0.4336
3774 1 0.909206 0.399364 0.433123
3850 1 0.921013 0.393892 0.431419
3910 1 0.986176 0.399079 0.430764
3697 1 0.84641 0.402843 0.441227
3977 1 0.847852 0.415654 0.442531
3561 1 0.859849 0.403641 0.438329
3548 1 0.873696 0.413741 0.438249
3990 1 0.879399 0.402994 0.436324
3918 1 0.8917 0.414459 0.435154
3904 1 0.906174 0.411707 0.43735
3985 1 0.917991 0.409785 0.435227
3835 1 0.928899 0.405021 0.431247
3913 1 0.934403 0.413413 0.436102
3778 1 0.922885 0.420423 0.436839
3845 1 0.94634 0.405587 0.433451
4049 1 0.953298 0.416282 0.435111
3710 1 0.964378 0.406373 0.433943
3916 1 0.970595 0.417303 0.436113
3640 1 0.981291 0.409374 0.434863
984 1 0.992133 0.412624 0.434191
3691 1 0.862747 0.418918 0.441617
4057 1 0.874097 0.430181 0.442287
3698 1 0.89872 0.42492 0.438084
772 1 0.883313 0.424389 0.437743
3917 1 0.889194 0.439105 0.441423
3842 1 0.913058 0.427917 0.438744
3692 1 0.902759 0.438757 0.441804
3980 1 0.919998 0.437041 0.441838
3624 1 0.92989 0.430286 0.439645
1059 1 0.944416 0.422584 0.438139
986 1 0.950651 0.433013 0.440497
1052 1 0.961113 0.424476 0.438163
1129 1 0.971179 0.430738 0.441518
920 1 0.983232 0.423038 0.436805
1058 1 0.985116 0.437842 0.439524
3780 1 0.999034 0.425351 0.436585
3766 1 0.876399 0.442182 0.442499
3841 1 0.94068 0.439607 0.441916
1070 1 0.960133 0.440508 0.442279
1065 1 0.977169 0.44541 0.443375
4129 1 0.990286 0.449124 0.442552
563 1 0.967237 0.153612 0.453067
639 1 0.983404 0.156816 0.45387
3279 1 0.891232 0.178099 0.451984
3358 1 0.903826 0.173873 0.451652
3353 1 0.917754 0.165199 0.452865
3220 1 0.921757 0.174078 0.449112
3280 1 0.937303 0.164573 0.449764
3285 1 0.949364 0.17809 0.446171
634 1 0.95311 0.16277 0.450918
498 1 0.961324 0.17792 0.447121
705 1 0.967014 0.165382 0.449838
3147 1 0.975262 0.176626 0.44826
566 1 0.994484 0.163255 0.452125
779 1 0.994277 0.176945 0.448537
353 1 0.983448 0.169137 0.450014
3569 1 0.84831 0.196835 0.45334
3484 1 0.865289 0.191703 0.451601
3289 1 0.882462 0.188895 0.44912
3266 1 0.898134 0.186457 0.446823
3410 1 0.888691 0.196359 0.44468
3419 1 0.911215 0.180753 0.447409
3274 1 0.93305 0.17917 0.444564
717 1 0.965598 0.186189 0.443364
6 1 0.983372 0.185416 0.444129
786 1 0.999224 0.189291 0.444075
2987 1 0.829336 0.218488 0.450784
3346 1 0.851601 0.212951 0.446655
3069 1 0.841512 0.205596 0.450339
3342 1 0.840621 0.219597 0.446934
633 1 0.873334 0.201472 0.448069
3491 1 0.860942 0.205239 0.449461
3276 1 0.870698 0.216396 0.445439
3401 1 0.803965 0.23578 0.453735
3408 1 0.820695 0.232808 0.452406
3486 1 0.831041 0.230395 0.44868
3473 1 0.851024 0.227199 0.443849
3127 1 0.840942 0.235657 0.444532
3427 1 0.860772 0.222427 0.444513
3409 1 0.809424 0.250978 0.451084
3462 1 0.820691 0.246069 0.449158
3487 1 0.831232 0.244378 0.44804
3405 1 0.832164 0.255625 0.445591
3186 1 0.803228 0.279263 0.452765
3557 1 0.810654 0.266331 0.451371
701 1 0.821834 0.259833 0.44917
3407 1 0.828359 0.273305 0.445745
3464 1 0.816253 0.280713 0.449797
3603 1 0.816087 0.301167 0.447304
3536 1 0.803334 0.291208 0.451568
3406 1 0.828019 0.290313 0.444556
3395 1 0.790964 0.301028 0.451978
3694 1 0.788804 0.317822 0.454298
3612 1 0.803317 0.309264 0.45048
3466 1 0.820131 0.313752 0.446221
3611 1 0.798299 0.326486 0.453094
3480 1 0.810607 0.322036 0.448174
3467 1 0.812703 0.334431 0.450531
3545 1 0.826951 0.329297 0.444695
3549 1 0.814649 0.351616 0.447178
3761 1 0.804912 0.347652 0.453433
3828 1 0.823628 0.34365 0.446677
3755 1 0.809251 0.361478 0.451388
3829 1 0.813655 0.373726 0.448675
3681 1 0.804667 0.374833 0.452953
3404 1 0.820461 0.36305 0.445138
3767 1 0.81132 0.389031 0.45124
3618 1 0.822678 0.400071 0.448669
3900 1 0.826038 0.385026 0.446626
3894 1 0.810312 0.404085 0.453455
3627 1 0.834986 0.40456 0.446268
3899 1 0.82301 0.413142 0.451156
3836 1 0.836354 0.418649 0.446602
3968 1 0.823546 0.426647 0.451143
3825 1 0.838084 0.433851 0.447894
3826 1 0.8481 0.42725 0.445593
3986 1 0.862054 0.433251 0.444044
4052 1 0.828837 0.444068 0.451606
3844 1 0.841029 0.451664 0.449033
3623 1 0.848427 0.442385 0.447204
3982 1 0.857133 0.456962 0.447498
3840 1 0.862727 0.445202 0.445771
3975 1 0.869465 0.456921 0.446213
3908 1 0.882316 0.453154 0.444188
3838 1 0.896609 0.4518 0.444532
4056 1 0.912549 0.450077 0.444091
1194 1 0.922674 0.453496 0.44505
988 1 0.930972 0.447447 0.443761
4060 1 0.936655 0.45598 0.446122
3768 1 0.949343 0.446701 0.444688
1211 1 0.961553 0.455541 0.445929
1263 1 0.988559 0.458299 0.44685
4046 1 0.832588 0.460698 0.452816
3909 1 0.847853 0.465576 0.45083
4118 1 0.860055 0.472609 0.450774
1122 1 0.846794 0.478393 0.453577
3974 1 0.871596 0.470233 0.447779
4198 1 0.897601 0.467419 0.448011
3989 1 0.884403 0.465451 0.446745
3907 1 0.896469 0.477221 0.452022
4127 1 0.883907 0.476355 0.451525
3919 1 0.910754 0.464383 0.447829
3987 1 0.90841 0.473304 0.451729
3912 1 0.921919 0.475565 0.451739
3846 1 0.923187 0.463792 0.449296
4126 1 0.937796 0.469029 0.450462
1333 1 0.933278 0.479424 0.452773
1208 1 0.949563 0.462817 0.448461
1124 1 0.950655 0.476613 0.453635
1201 1 0.961574 0.468062 0.450144
1212 1 0.976629 0.459052 0.447428
1269 1 0.977348 0.475662 0.452117
1273 1 0.989861 0.47004 0.450006
3984 1 0.869191 0.482378 0.453167
3141 1 0.966686 0.13322 0.467321
3076 1 0.993495 0.130737 0.465389
3355 1 0.981043 0.137008 0.463439
3339 1 0.871438 0.156525 0.465433
3417 1 0.88633 0.158353 0.462926
3351 1 0.892305 0.145979 0.465965
3349 1 0.901077 0.156668 0.460535
562 1 0.914212 0.151921 0.459047
3341 1 0.908198 0.141423 0.465106
3211 1 0.922003 0.144746 0.462758
3500 1 0.932161 0.147694 0.459119
3208 1 0.928538 0.157931 0.4555
3359 1 0.942784 0.155307 0.455283
565 1 0.944793 0.143713 0.461733
424 1 0.956241 0.152093 0.456611
2940 1 0.955986 0.142927 0.460844
3070 1 0.972685 0.148191 0.459988
511 1 0.991597 0.150349 0.457961
3250 1 0.830773 0.169751 0.465495
3200 1 0.843948 0.164445 0.464969
3210 1 0.84662 0.174184 0.459615
3555 1 0.858937 0.163005 0.463364
3347 1 0.874047 0.168339 0.462227
3197 1 0.863596 0.176417 0.457302
3206 1 0.891934 0.167837 0.45791
3216 1 0.907669 0.165148 0.456515
3474 1 0.798908 0.200297 0.462164
3185 1 0.80727 0.185498 0.463706
3120 1 0.811673 0.196274 0.460077
3416 1 0.835515 0.180101 0.461087
3199 1 0.824027 0.183396 0.462255
3122 1 0.823692 0.194026 0.459032
3562 1 0.836368 0.191956 0.456027
3421 1 0.853201 0.185706 0.455722
3334 1 0.878956 0.179441 0.456126
3248 1 0.780129 0.216924 0.46501
3255 1 0.76529 0.216337 0.464838
3425 1 0.788446 0.206491 0.464698
3191 1 0.790726 0.218727 0.46034
3340 1 0.80535 0.210739 0.459481
3264 1 0.817979 0.209718 0.456795
3261 1 0.828812 0.204646 0.455473
3329 1 0.757735 0.227247 0.466712
3402 1 0.779095 0.226264 0.460824
3613 1 0.768868 0.229597 0.463368
3477 1 0.790708 0.229808 0.456378
3128 1 0.818568 0.220668 0.454529
3258 1 0.804846 0.22366 0.456918
3463 1 0.757467 0.241348 0.464243
3126 1 0.758304 0.254115 0.463321
3194 1 0.769662 0.241497 0.461022
3400 1 0.770154 0.25502 0.459952
3253 1 0.779579 0.240027 0.457908
3195 1 0.793023 0.245022 0.454862
3465 1 0.782553 0.254128 0.456835
3269 1 0.79725 0.259231 0.455363
3327 1 0.765266 0.269871 0.462001
3540 1 0.782415 0.268433 0.457703
3628 1 0.794733 0.270165 0.454664
3675 1 0.77781 0.295693 0.458191
3605 1 0.765394 0.298125 0.463638
3531 1 0.776197 0.281592 0.460426
3607 1 0.790562 0.284282 0.455691
3614 1 0.765666 0.313903 0.460983
3336 1 0.775918 0.310638 0.456931
3877 1 0.757674 0.319193 0.464422
3479 1 0.775045 0.324132 0.459771
3685 1 0.766895 0.331785 0.463039
3678 1 0.784525 0.331366 0.455865
3478 1 0.77925 0.34214 0.461343
3468 1 0.774332 0.359393 0.464003
3683 1 0.76456 0.349166 0.465271
3738 1 0.788559 0.355577 0.459355
3686 1 0.79226 0.342249 0.455808
3606 1 0.800367 0.357745 0.457274
3823 1 0.771239 0.374268 0.464945
3742 1 0.784957 0.371655 0.460814
3680 1 0.794181 0.371523 0.455882
3550 1 0.779975 0.386947 0.459979
3972 1 0.764349 0.391134 0.465448
3619 1 0.79105 0.383663 0.457092
3751 1 0.791184 0.398503 0.457476
3817 1 0.800776 0.391975 0.455523
3833 1 0.760449 0.419615 0.465425
3752 1 0.776916 0.400806 0.461748
3973 1 0.767547 0.408224 0.465025
3696 1 0.78118 0.414177 0.460172
3895 1 0.794491 0.410796 0.457034
3617 1 0.755657 0.434818 0.464121
4185 1 0.771039 0.422621 0.461997
3901 1 0.768001 0.43501 0.464486
3830 1 0.782562 0.43508 0.461833
4040 1 0.789478 0.4238 0.458757
3902 1 0.799813 0.430458 0.45827
3905 1 0.809514 0.42142 0.454635
4044 1 0.813337 0.435392 0.454583
3687 1 0.767949 0.448126 0.464743
4041 1 0.779588 0.450469 0.464452
4177 1 0.792591 0.446901 0.460317
4115 1 0.789697 0.458921 0.463557
4103 1 0.80664 0.446855 0.458961
4184 1 0.820055 0.451294 0.453683
3971 1 0.782086 0.469383 0.464258
3903 1 0.801436 0.461673 0.461095
3976 1 0.794315 0.47756 0.462337
4117 1 0.812553 0.460795 0.458548
4116 1 0.809199 0.473797 0.46021
4315 1 0.820215 0.47836 0.459022
4119 1 0.82295 0.465998 0.456075
4053 1 0.835646 0.477815 0.455563
4459 1 0.79588 0.491081 0.464034
3978 1 0.782801 0.484897 0.465683
4246 1 0.808037 0.486694 0.46229
4051 1 0.820404 0.493548 0.461885
4194 1 0.831888 0.490727 0.458348
4059 1 0.844064 0.492801 0.457078
4254 1 0.857402 0.489115 0.455449
4193 1 0.871515 0.497977 0.459087
4124 1 0.899332 0.486892 0.456591
4195 1 0.895071 0.497352 0.460417
4125 1 0.884914 0.487138 0.456564
3988 1 0.915643 0.486337 0.454125
4327 1 0.912173 0.495705 0.459029
4261 1 0.927315 0.489915 0.457509
1264 1 0.938969 0.498834 0.461989
1193 1 0.922916 0.499586 0.461588
1261 1 0.941892 0.486089 0.455506
1267 1 0.951876 0.492129 0.458776
1196 1 0.965943 0.481584 0.45626
4197 1 0.981709 0.489705 0.457631
1130 1 0.96759 0.495249 0.460431
4266 1 0.992848 0.484027 0.45538
1200 1 0.995116 0.498756 0.459091
492 1 0.979737 0.0939177 0.474116
3008 1 0.989919 0.0885365 0.475507
2992 1 0.8131 0.119361 0.475919
3064 1 0.854579 0.114943 0.477161
3201 1 0.841907 0.118373 0.473004
3271 1 0.869353 0.106138 0.476763
3267 1 0.868026 0.117413 0.47352
3412 1 0.881418 0.109037 0.474381
3137 1 0.895322 0.10979 0.475919
3213 1 0.908612 0.107562 0.475672
3423 1 0.907207 0.12143 0.470952
3138 1 0.926435 0.106311 0.475862
3352 1 0.921855 0.117412 0.473255
212 1 0.940421 0.110746 0.473381
3003 1 0.951898 0.101949 0.477641
3 1 0.951275 0.116998 0.472808
422 1 0.961336 0.110856 0.473055
351 1 0.972152 0.103827 0.475005
3143 1 0.976193 0.113245 0.470872
3006 1 0.987768 0.101833 0.471818
3146 1 0.988944 0.117528 0.46878
3121 1 0.787004 0.138954 0.474085
3345 1 0.801807 0.120088 0.475889
3067 1 0.803776 0.135315 0.47508
2846 1 0.816702 0.13393 0.473294
2988 1 0.825438 0.122038 0.474085
3198 1 0.834276 0.130816 0.472136
3333 1 0.846213 0.129756 0.475068
3134 1 0.859681 0.128537 0.472382
3052 1 0.871163 0.129943 0.468648
3196 1 0.88134 0.123172 0.468333
3139 1 0.894598 0.120152 0.472308
3202 1 0.892554 0.133337 0.468156
3218 1 0.905085 0.132378 0.468539
2939 1 0.919719 0.131182 0.467575
3287 1 0.93366 0.136569 0.465746
3290 1 0.935941 0.12234 0.470498
421 1 0.949114 0.130426 0.466279
3145 1 0.961036 0.122832 0.468884
3149 1 0.977737 0.126139 0.468212
3314 1 0.755949 0.159669 0.476487
2913 1 0.770141 0.150017 0.477608
3059 1 0.780562 0.15137 0.473468
3050 1 0.794595 0.156415 0.471013
3337 1 0.798337 0.14571 0.474018
3270 1 0.810256 0.148703 0.471419
3263 1 0.829888 0.157331 0.469626
2980 1 0.824542 0.144143 0.471108
3559 1 0.837219 0.144033 0.471323
3399 1 0.856274 0.152132 0.468358
3273 1 0.850161 0.141174 0.470323
3125 1 0.843214 0.152508 0.46762
3331 1 0.881418 0.144122 0.467396
3268 1 0.864199 0.141475 0.468766
3343 1 0.758219 0.175503 0.473585
3315 1 0.771094 0.16285 0.472181
3182 1 0.771888 0.176792 0.470329
3054 1 0.796809 0.175389 0.467695
3117 1 0.785443 0.166524 0.470555
2991 1 0.814732 0.175635 0.466949
3124 1 0.803804 0.16338 0.468872
3554 1 0.817288 0.161414 0.469566
3190 1 0.753696 0.187779 0.473024
3522 1 0.740728 0.19305 0.477056
3181 1 0.766013 0.189771 0.470409
3338 1 0.781101 0.193409 0.46757
3123 1 0.792187 0.189917 0.465864
3272 1 0.784196 0.18064 0.470035
3609 1 0.738269 0.210685 0.474524
3257 1 0.754964 0.212475 0.469006
3374 1 0.750378 0.201371 0.472627
3260 1 0.774206 0.205304 0.468509
3262 1 0.762509 0.202141 0.468798
3118 1 0.736627 0.232043 0.475584
3533 1 0.744578 0.21938 0.471902
3179 1 0.745475 0.237018 0.469379
3332 1 0.737881 0.247602 0.471233
3188 1 0.725853 0.244 0.476241
3251 1 0.730451 0.25838 0.473911
3328 1 0.749029 0.25452 0.468097
3459 1 0.732678 0.275082 0.474082
3391 1 0.743592 0.265049 0.470402
3393 1 0.74857 0.278299 0.469545
3524 1 0.755924 0.267842 0.465792
3388 1 0.735726 0.287992 0.473733
3679 1 0.747837 0.29354 0.470322
3394 1 0.759298 0.285673 0.463553
3739 1 0.736619 0.301295 0.474789
3535 1 0.730925 0.31915 0.476162
3600 1 0.725495 0.308084 0.477859
3672 1 0.754616 0.309103 0.468233
3878 1 0.742886 0.312396 0.473728
3810 1 0.737137 0.329718 0.475465
3254 1 0.746814 0.325108 0.46991
3615 1 0.754104 0.336237 0.466844
3961 1 0.733311 0.346462 0.477442
3808 1 0.743009 0.342445 0.472074
3666 1 0.75384 0.347925 0.469047
3677 1 0.743897 0.359855 0.4761
3807 1 0.732222 0.374306 0.477803
3541 1 0.75922 0.362693 0.468546
3889 1 0.748177 0.373737 0.472584
3820 1 0.757607 0.378782 0.467945
3881 1 0.740525 0.388323 0.472483
3872 1 0.729193 0.390292 0.476485
3892 1 0.752194 0.393243 0.469785
3888 1 0.711255 0.412321 0.47629
3885 1 0.738074 0.413965 0.469237
3950 1 0.7271 0.403036 0.474433
3754 1 0.722203 0.415483 0.471813
3811 1 0.740265 0.401518 0.470676
3758 1 0.752239 0.40759 0.467224
3886 1 0.690148 0.432858 0.476811
4038 1 0.716687 0.43048 0.472528
3745 1 0.707645 0.424284 0.474854
3890 1 0.700475 0.435929 0.473756
3760 1 0.732276 0.424534 0.469951
3690 1 0.746639 0.422701 0.466248
4112 1 0.740521 0.436054 0.467487
3743 1 0.698019 0.448005 0.472583
4310 1 0.683724 0.445742 0.476696
4026 1 0.687477 0.457162 0.475005
3762 1 0.70044 0.460351 0.471899
4036 1 0.712024 0.447274 0.471447
3684 1 0.724932 0.439284 0.47084
3967 1 0.736029 0.446426 0.469522
3763 1 0.724792 0.459212 0.469904
3966 1 0.749965 0.451547 0.467742
3964 1 0.678285 0.471696 0.474825
3951 1 0.692001 0.470441 0.472611
4032 1 0.70784 0.477769 0.471491
3688 1 0.712485 0.462596 0.468909
4101 1 0.726337 0.474376 0.46885
3837 1 0.759988 0.462412 0.467125
4045 1 0.753931 0.475851 0.468717
3969 1 0.740831 0.464095 0.468718
4107 1 0.767741 0.47791 0.467085
3824 1 0.772868 0.461346 0.466036
4154 1 0.687374 0.482224 0.474089
4043 1 0.68324 0.493153 0.477301
3893 1 0.699198 0.487474 0.473404
3764 1 0.715955 0.489583 0.471314
3822 1 0.728537 0.492009 0.470404
4181 1 0.739913 0.48239 0.468383
3898 1 0.756386 0.490037 0.467492
3897 1 0.744494 0.495906 0.467152
4187 1 0.76961 0.494717 0.466666
2929 1 0.800459 0.057822 0.488292
2860 1 0.836584 0.0543479 0.489336
2870 1 0.84999 0.0549847 0.488533
5591 1 0.88969 0.052507 0.488182
3055 1 0.905253 0.0577473 0.484283
5526 1 0.913924 0.0422082 0.488358
5528 1 0.949886 0.0565792 0.487885
141 1 0.975814 0.0574691 0.487027
5494 1 0.762978 0.0786437 0.488669
5555 1 0.777454 0.0689385 0.489014
2925 1 0.79296 0.0726782 0.487474
3135 1 0.811411 0.0690271 0.485148
3056 1 0.829093 0.0660168 0.488299
2842 1 0.841139 0.0701933 0.487884
3079 1 0.851148 0.0787252 0.485976
3000 1 0.85844 0.0688452 0.487374
2996 1 0.869453 0.0728078 0.485751
3144 1 0.882696 0.0725887 0.486712
2934 1 0.892229 0.0643195 0.485559
3203 1 0.897256 0.0748094 0.483986
2928 1 0.909296 0.0716634 0.484267
3075 1 0.929356 0.0738661 0.483919
2998 1 0.935373 0.0614919 0.486959
3065 1 0.919683 0.0599261 0.486307
3205 1 0.947034 0.0720565 0.484838
3002 1 0.959434 0.0764387 0.481221
3010 1 0.963121 0.0635266 0.485878
3072 1 0.972113 0.0728082 0.482356
3209 1 0.983616 0.0795372 0.479509
3001 1 0.98671 0.065913 0.484942
288 1 0.996993 0.0732297 0.480896
3265 1 0.776988 0.0855964 0.486528
2982 1 0.766091 0.0959761 0.486085
5507 1 0.790218 0.0854825 0.484484
2909 1 0.798497 0.0982135 0.481413
2911 1 0.803528 0.083687 0.48382
2910 1 0.815643 0.0929111 0.481534
3133 1 0.832589 0.0810823 0.485558
2845 1 0.820656 0.0806692 0.48464
2856 1 0.829933 0.0973643 0.481433
3344 1 0.845023 0.0928706 0.48263
3058 1 0.87686 0.0825527 0.484271
2858 1 0.860286 0.0945084 0.4813
3130 1 0.863368 0.0831209 0.484113
3207 1 0.872563 0.0961844 0.481025
3275 1 0.898988 0.0961987 0.477744
3204 1 0.889272 0.0848319 0.481812
3068 1 0.884806 0.0984072 0.479715
2865 1 0.905881 0.0846153 0.481069
3283 1 0.914486 0.094921 0.478272
3217 1 0.919242 0.0791289 0.482737
2932 1 0.937571 0.0821091 0.483683
3066 1 0.927193 0.0887715 0.479441
3142 1 0.939263 0.098334 0.478546
3005 1 0.94934 0.0885866 0.48141
2999 1 0.96287 0.092631 0.477448
3136 1 0.972292 0.0867176 0.477899
3115 1 0.751269 0.103577 0.48726
3107 1 0.741837 0.118362 0.486707
2833 1 0.753421 0.117713 0.484006
3214 1 0.774684 0.10845 0.481996
2983 1 0.763086 0.109105 0.483759
3063 1 0.78347 0.0993652 0.48302
3111 1 0.786968 0.111949 0.477336
3053 1 0.798642 0.109938 0.478617
3129 1 0.81121 0.107971 0.480196
5570 1 0.82468 0.108908 0.478083
2843 1 0.837959 0.107781 0.477781
3061 1 0.852075 0.10265 0.479862
2971 1 0.737152 0.131922 0.486321
3041 1 0.750632 0.130811 0.482567
3193 1 0.775029 0.134918 0.478246
2981 1 0.762828 0.135155 0.479796
3335 1 0.775155 0.122515 0.479128
2986 1 0.763892 0.122057 0.481262
3132 1 0.791961 0.126852 0.47771
3319 1 0.730976 0.14967 0.485533
3322 1 0.741641 0.142416 0.483448
3033 1 0.743 0.154789 0.481046
3452 1 0.753452 0.145926 0.480415
3313 1 0.727597 0.160159 0.487076
3386 1 0.724874 0.175662 0.486927
3325 1 0.735856 0.165299 0.481851
3457 1 0.732027 0.17918 0.481351
3178 1 0.747561 0.167659 0.47755
3384 1 0.715286 0.183436 0.487519
3518 1 0.720573 0.196494 0.484949
3034 1 0.729076 0.190008 0.480908
3044 1 0.74288 0.179931 0.477282
3324 1 0.718757 0.213979 0.485502
3318 1 0.710298 0.201146 0.488173
3392 1 0.733261 0.221467 0.47927
2970 1 0.728683 0.20418 0.480797
3379 1 0.712943 0.226632 0.486064
3321 1 0.706609 0.239002 0.486263
3189 1 0.722851 0.230097 0.481155
3413 1 0.704134 0.252369 0.486344
3525 1 0.713928 0.253679 0.480529
3397 1 0.715952 0.242906 0.482231
3259 1 0.693153 0.261879 0.487296
3730 1 0.693527 0.275521 0.486618
3595 1 0.705124 0.268419 0.482587
3604 1 0.721032 0.26843 0.47945
3519 1 0.700605 0.291726 0.483581
3870 1 0.711304 0.283494 0.481344
3602 1 0.720736 0.296303 0.478809
3527 1 0.722254 0.285022 0.478581
4006 1 0.698702 0.307081 0.483946
3530 1 0.687994 0.303036 0.487181
3529 1 0.709418 0.302138 0.480297
3815 1 0.704243 0.318216 0.481574
3737 1 0.715012 0.312412 0.480206
3746 1 0.694572 0.32127 0.486337
3542 1 0.688626 0.334666 0.487924
3538 1 0.70472 0.331155 0.484271
3676 1 0.71745 0.326088 0.479791
3671 1 0.727657 0.33574 0.477077
3544 1 0.697535 0.343588 0.485511
3935 1 0.696573 0.356323 0.488205
3747 1 0.719033 0.341599 0.48208
3757 1 0.709007 0.348581 0.484095
3831 1 0.720421 0.355237 0.480554
3948 1 0.693991 0.370919 0.487827
3736 1 0.718551 0.372071 0.481692
3947 1 0.709706 0.365068 0.486008
3812 1 0.730806 0.361303 0.478387
3819 1 0.68628 0.383714 0.487312
4007 1 0.696137 0.389985 0.48351
3883 1 0.718785 0.398615 0.47991
3809 1 0.703637 0.379797 0.485159
3887 1 0.719223 0.384629 0.480617
3528 1 0.705451 0.397465 0.48163
3750 1 0.678588 0.399121 0.486573
4074 1 0.675146 0.411493 0.484333
3806 1 0.689132 0.404763 0.482909
4005 1 0.684964 0.420495 0.481884
4027 1 0.702075 0.40982 0.480275
3821 1 0.670386 0.422674 0.483573
3818 1 0.663941 0.434817 0.48393
3896 1 0.677217 0.43082 0.48003
3937 1 0.660508 0.420872 0.489432
3682 1 0.695652 0.421361 0.478887
4091 1 0.646346 0.458809 0.488095
3748 1 0.6576 0.444861 0.485306
3882 1 0.673692 0.46005 0.477902
3891 1 0.660964 0.457965 0.483508
3749 1 0.670489 0.446915 0.480959
4078 1 0.637962 0.472387 0.48667
3884 1 0.65087 0.469824 0.482972
3816 1 0.662374 0.472003 0.479983
3827 1 0.637469 0.48557 0.48581
3954 1 0.635242 0.49718 0.485035
4011 1 0.648109 0.481963 0.4839
3753 1 0.648455 0.496702 0.482847
4029 1 0.658405 0.486683 0.4809
3963 1 0.670822 0.48466 0.477607
4231 1 0.663739 0.496099 0.478176
2963 1 0.719858 0.0100513 0.498577
5499 1 0.731462 0.00797561 0.495822
2967 1 0.730953 0.0202925 0.495696
5561 1 0.743201 0.0126465 0.494773
5429 1 0.752108 0.00341226 0.494314
2844 1 0.762916 0.00665629 0.493094
3051 1 0.760216 0.0190976 0.492618
2840 1 0.775515 0.0046767 0.494467
2901 1 0.793571 0.00118659 0.494487
2919 1 0.787404 0.0147296 0.494438
2989 1 0.805291 -0.00084734 0.496842
3045 1 0.814761 0.00903495 0.495272
5574 1 0.801734 0.0154519 0.492864
2995 1 0.825891 0.0136128 0.496803
2850 1 0.831541 0.00375097 0.497905
2914 1 0.843953 0.0110191 0.497972
5362 1 0.855068 0.0181919 0.497338
2855 1 0.869137 0.0167702 0.496618
2903 1 0.874878 0.00478257 0.499361
5431 1 0.884951 0.0165757 0.497961
2834 1 0.900556 0.0124545 0.496883
2921 1 0.911651 0.0172348 0.49577
5497 1 0.90798 -0.000480928 0.500668
5580 1 0.922317 0.00896593 0.49627
2917 1 0.93671 0.00810967 0.497636
2923 1 0.952793 0.00452 0.499008
5585 1 0.944266 0.0190478 0.495557
5582 1 0.967308 0.00394681 0.498015
2733 1 0.974854 0.014953 0.496834
5593 1 0.962596 0.0196711 0.495416
2868 1 0.989365 0.0139239 0.498713
2907 1 0.714446 0.0274102 0.499054
2993 1 0.737282 0.0310261 0.494217
2835 1 0.726001 0.0345675 0.49553
3037 1 0.746865 0.023607 0.492115
5559 1 0.750331 0.0340509 0.493228
2836 1 0.762173 0.0342241 0.491906
2895 1 0.772286 0.0234248 0.492411
2927 1 0.776129 0.0368137 0.492469
3131 1 0.789645 0.0285448 0.492416
2825 1 0.803597 0.0292626 0.491703
2978 1 0.815928 0.0228914 0.494011
2918 1 0.815962 0.0395615 0.492932
5496 1 0.83892 0.0226168 0.4961
5571 1 0.830773 0.0314111 0.494439
2916 1 0.848343 0.029522 0.492926
2915 1 0.862313 0.0295519 0.494003
2920 1 0.877839 0.0300267 0.493974
5500 1 0.888655 0.0296796 0.494337
3060 1 0.894262 0.0390417 0.490384
5437 1 0.900499 0.0258183 0.494795
3071 1 0.906302 0.0329683 0.491105
2732 1 0.919207 0.0252329 0.492499
2859 1 0.929488 0.021449 0.49448
3007 1 0.926796 0.0357998 0.489916
5449 1 0.936192 0.0332814 0.492912
2869 1 0.951901 0.0337872 0.494074
283 1 0.96581 0.0324805 0.492467
3073 1 0.978678 0.027635 0.495037
358 1 0.994281 0.0259454 0.495478
3074 1 0.985738 0.0368025 0.492265
3032 1 0.690593 0.0502863 0.500166
2831 1 0.703007 0.0503813 0.496656
2966 1 0.714956 0.0437595 0.496298
3177 1 0.727525 0.0516577 0.49417
3039 1 0.737926 0.042661 0.492156
3057 1 0.749739 0.0506172 0.491394
2994 1 0.773029 0.0537415 0.491429
2837 1 0.761542 0.0475365 0.492498
2906 1 0.786903 0.0452857 0.49112
2905 1 0.788783 0.0589306 0.489438
2908 1 0.801151 0.0458088 0.491069
2985 1 0.817443 0.0535358 0.487986
2926 1 0.828803 0.0427414 0.490619
2854 1 0.840894 0.0395753 0.491729
2924 1 0.854635 0.044168 0.491173
2930 1 0.876786 0.0605365 0.488604
5592 1 0.86714 0.0439022 0.492125
5596 1 0.865072 0.0578494 0.487873
3062 1 0.882364 0.042842 0.49052
2867 1 0.901557 0.0495404 0.488414
2931 1 0.928243 0.0485706 0.488287
142 1 0.941939 0.0457811 0.489774
2937 1 0.975688 0.0432106 0.490032
3004 1 0.95891 0.0469101 0.489566
3078 1 0.989189 0.0511756 0.488834
3038 1 0.696898 0.0634456 0.498577
3175 1 0.68898 0.074234 0.499569
3046 1 0.715191 0.0600721 0.495743
3244 1 0.705609 0.0684429 0.496657
2830 1 0.715281 0.0783585 0.496161
2912 1 0.735494 0.0614591 0.493565
2900 1 0.722648 0.0702237 0.495615
3049 1 0.736122 0.0763347 0.494065
3105 1 0.749878 0.0685856 0.492522
2977 1 0.761209 0.0640821 0.489056
3245 1 0.713946 0.090419 0.497251
3316 1 0.700776 0.096068 0.499127
3108 1 0.70066 0.0812387 0.49891
3027 1 0.72753 0.0885731 0.495049
3116 1 0.742429 0.0933007 0.49167
2979 1 0.755456 0.0915321 0.489156
2922 1 0.747977 0.0807733 0.490579
3113 1 0.700563 0.108964 0.498764
3256 1 0.71208 0.103908 0.496017
2838 1 0.713893 0.117485 0.494869
3048 1 0.72704 0.102852 0.494135
3047 1 0.737275 0.106741 0.489803
3387 1 0.725692 0.118458 0.49113
3320 1 0.697485 0.138012 0.499348
3184 1 0.705522 0.123145 0.498028
2984 1 0.718257 0.13123 0.488341
3311 1 0.727656 0.14017 0.48812
3389 1 0.692535 0.148931 0.498229
3252 1 0.708528 0.140122 0.493844
2990 1 0.717743 0.149103 0.490571
3040 1 0.706999 0.15391 0.493925
3382 1 0.693511 0.164956 0.496561
3380 1 0.694633 0.177939 0.495211
3112 1 0.708059 0.170747 0.491623
3456 1 0.716562 0.16082 0.489721
3312 1 0.694532 0.190371 0.49674
3098 1 0.699978 0.200098 0.493573
3167 1 0.704506 0.187347 0.490045
3377 1 0.681622 0.219615 0.499809
3451 1 0.69689 0.211888 0.49506
3458 1 0.685668 0.205692 0.49997
3306 1 0.706144 0.212867 0.490691
3610 1 0.700196 0.236776 0.491229
3242 1 0.692823 0.22322 0.495058
3460 1 0.687049 0.235209 0.49483
3663 1 0.703138 0.224461 0.490342
3323 1 0.675057 0.247123 0.496089
3326 1 0.682998 0.256481 0.493749
3601 1 0.691608 0.247937 0.492929
3455 1 0.672033 0.266486 0.495872
3729 1 0.665474 0.277784 0.498054
3454 1 0.681516 0.272278 0.492739
3597 1 0.652717 0.298003 0.499211
3791 1 0.663526 0.292536 0.495246
3873 1 0.674548 0.281744 0.493301
3669 1 0.678839 0.295304 0.491652
3733 1 0.688895 0.289215 0.488284
3859 1 0.651845 0.312734 0.497246
3598 1 0.663674 0.317989 0.495069
3798 1 0.665965 0.305554 0.492848
3794 1 0.678136 0.311499 0.490918
3864 1 0.656236 0.328712 0.497614
3740 1 0.665769 0.339475 0.493695
3875 1 0.674146 0.327633 0.492606
3944 1 0.683504 0.321819 0.489144
3874 1 0.651514 0.340962 0.498274
3735 1 0.645775 0.355497 0.499815
3670 1 0.657332 0.354048 0.497066
3664 1 0.670295 0.352205 0.494333
3814 1 0.679364 0.340467 0.490198
3813 1 0.685496 0.352204 0.49033
3668 1 0.656363 0.369296 0.495904
4142 1 0.643937 0.372004 0.498953
3796 1 0.670178 0.363514 0.494939
3962 1 0.675867 0.377433 0.491143
3608 1 0.683252 0.363674 0.490841
4144 1 0.637075 0.383964 0.500039
4070 1 0.629665 0.39703 0.500514
4003 1 0.644103 0.394079 0.497518
4143 1 0.651248 0.383971 0.495974
4080 1 0.660906 0.39721 0.493807
3871 1 0.664577 0.381553 0.493981
3741 1 0.669468 0.390942 0.489434
4033 1 0.624424 0.411106 0.498062
3867 1 0.639293 0.406654 0.496832
3722 1 0.652558 0.408953 0.493975
4002 1 0.645984 0.421202 0.4933
3945 1 0.665466 0.407642 0.489896
4162 1 0.60991 0.432694 0.497386
4076 1 0.599742 0.427133 0.500165
3959 1 0.634099 0.420922 0.494613
4209 1 0.618016 0.42323 0.496702
3957 1 0.640052 0.432784 0.494035
4087 1 0.626271 0.436714 0.494627
3940 1 0.652086 0.429613 0.489161
4073 1 0.615732 0.44524 0.495039
4008 1 0.600851 0.447896 0.497767
3880 1 0.622872 0.457781 0.493484
3941 1 0.633138 0.449076 0.493158
4149 1 0.645557 0.445987 0.490075
3936 1 0.61279 0.46127 0.495453
3938 1 0.6006 0.4741 0.497743
4018 1 0.613865 0.472633 0.49358
4013 1 0.634329 0.460005 0.48978
4020 1 0.626118 0.472256 0.490363
3879 1 0.613056 0.485246 0.493571
4218 1 0.602308 0.485763 0.497205
4022 1 0.614083 0.498091 0.493372
3949 1 0.623766 0.49971 0.488428
3952 1 0.625636 0.485116 0.488825
2951 1 0.632158 0.0132869 0.511982
3035 1 0.640109 0.00221236 0.508712
3092 1 0.647598 0.0104067 0.5081
2894 1 0.658993 0.00842736 0.507081
2820 1 0.67294 0.00958442 0.50413
2962 1 0.691282 0.0124522 0.50107
2899 1 0.697207 0.00208695 0.503235
2904 1 0.70712 0.0164796 0.501272
2893 1 0.710851 -0.00060592 0.501963
5576 1 0.860471 0.00404295 0.499473
73 1 0.998846 0.00205653 0.501225
3114 1 0.639172 0.0232003 0.509897
2804 1 0.645316 0.0347574 0.508913
2950 1 0.653715 0.0238238 0.507253
3021 1 0.658592 0.0366781 0.505846
3173 1 0.666242 0.020872 0.504691
2974 1 0.668946 0.0334245 0.502184
2812 1 0.679619 0.0215215 0.501857
2972 1 0.685402 0.0343487 0.50071
2826 1 0.696611 0.0250299 0.501763
2898 1 0.700172 0.0363935 0.499868
3100 1 0.638035 0.0551029 0.510453
3042 1 0.649778 0.0457405 0.509055
3171 1 0.653352 0.0574518 0.50888
3109 1 0.662509 0.0484107 0.506286
5478 1 0.674003 0.047374 0.502914
3246 1 0.658385 0.0693229 0.508891
3022 1 0.648311 0.0771589 0.510876
3095 1 0.668867 0.0629538 0.506343
3101 1 0.677495 0.0733389 0.505204
2954 1 0.665529 0.0805546 0.508204
3183 1 0.680989 0.063474 0.501008
2829 1 0.654677 0.0888534 0.509271
3180 1 0.666476 0.0952939 0.508051
3019 1 0.678948 0.0868767 0.503754
3187 1 0.677529 0.101298 0.503453
3097 1 0.689432 0.0907925 0.500177
3235 1 0.654809 0.106361 0.509854
3247 1 0.667548 0.108632 0.507251
3176 1 0.682032 0.116935 0.502907
3249 1 0.689928 0.106702 0.501621
3303 1 0.657011 0.120917 0.510126
3304 1 0.656984 0.138355 0.508352
3240 1 0.667563 0.124429 0.505799
3119 1 0.669732 0.137197 0.505008
3442 1 0.692378 0.12289 0.500757
3381 1 0.681848 0.133327 0.50175
3376 1 0.657369 0.153816 0.508506
3307 1 0.643048 0.158099 0.510939
3238 1 0.668647 0.150445 0.504946
3305 1 0.681299 0.14778 0.502727
3309 1 0.645594 0.170653 0.509723
3239 1 0.673612 0.160623 0.504361
3511 1 0.66024 0.164013 0.507028
3445 1 0.670743 0.172653 0.504145
3317 1 0.682102 0.175488 0.499689
3236 1 0.682972 0.161602 0.500134
3590 1 0.659307 0.181494 0.507704
3521 1 0.652734 0.19267 0.511808
3515 1 0.663285 0.199013 0.50764
3450 1 0.669075 0.185915 0.503585
3599 1 0.673536 0.197702 0.502781
3591 1 0.682922 0.187694 0.499058
3385 1 0.657846 0.211885 0.508937
3461 1 0.673759 0.211686 0.503316
3804 1 0.653939 0.235868 0.50555
3532 1 0.662873 0.225438 0.505801
3667 1 0.679094 0.231469 0.499524
3383 1 0.655334 0.249571 0.503999
3588 1 0.641654 0.248584 0.510084
3724 1 0.666956 0.242008 0.501737
3665 1 0.665965 0.258041 0.500599
3537 1 0.638298 0.263373 0.509904
4071 1 0.632757 0.279575 0.511748
3865 1 0.650365 0.262638 0.505616
3732 1 0.658382 0.269884 0.501738
3656 1 0.645687 0.275004 0.506676
3726 1 0.631939 0.29329 0.510491
3526 1 0.653966 0.285076 0.501848
3801 1 0.642817 0.289601 0.505347
4065 1 0.620671 0.316484 0.510381
3731 1 0.634719 0.306948 0.508202
3734 1 0.621306 0.303314 0.512084
3866 1 0.64256 0.300126 0.50209
3930 1 0.643261 0.319179 0.502389
4067 1 0.61752 0.331804 0.509512
3856 1 0.605645 0.340565 0.509983
4141 1 0.63266 0.324817 0.507716
3876 1 0.62591 0.339701 0.505265
3802 1 0.642914 0.333377 0.502182
3649 1 0.576712 0.358342 0.511215
3723 1 0.588447 0.355857 0.507505
4139 1 0.5924 0.346514 0.510746
3991 1 0.617029 0.346362 0.506846
3994 1 0.601924 0.355625 0.50633
4010 1 0.64061 0.345153 0.501332
3998 1 0.629823 0.349857 0.503939
1253 1 0.525276 0.371367 0.511291
1049 1 0.540123 0.373865 0.510252
4138 1 0.569532 0.367651 0.510048
1120 1 0.573594 0.379768 0.507345
1119 1 0.560462 0.378771 0.50835
3928 1 0.584617 0.372119 0.507354
4137 1 0.599339 0.367337 0.505726
4146 1 0.617122 0.361341 0.504168
3718 1 0.611873 0.374868 0.503401
3931 1 0.627059 0.375191 0.502008
3721 1 0.634264 0.362012 0.500863
3783 1 0.52109 0.390177 0.510336
1391 1 0.53316 0.383926 0.509495
1186 1 0.537737 0.399828 0.509681
3923 1 0.548044 0.388792 0.508543
4075 1 0.578057 0.391385 0.504941
3927 1 0.563283 0.393583 0.505244
1327 1 0.591864 0.382404 0.505531
4063 1 0.593642 0.396567 0.504223
4150 1 0.605553 0.385872 0.50543
4017 1 0.61231 0.392591 0.502217
3939 1 0.623077 0.387183 0.501745
3789 1 0.52719 0.404895 0.509578
1183 1 0.544606 0.411163 0.510299
1457 1 0.552793 0.401552 0.507924
1184 1 0.557709 0.415257 0.508723
3573 1 0.577261 0.414517 0.505619
1257 1 0.56872 0.406072 0.505987
3999 1 0.58577 0.406342 0.503248
4213 1 0.59662 0.415285 0.502182
3860 1 0.603471 0.404147 0.501155
3942 1 0.60898 0.415661 0.500279
4151 1 0.615327 0.403951 0.501214
4212 1 0.557978 0.429259 0.510713
3995 1 0.570493 0.423604 0.507984
4064 1 0.577962 0.433448 0.505721
4062 1 0.587328 0.425108 0.50404
4202 1 0.58979 0.435971 0.50255
3993 1 0.548361 0.439149 0.5117
3926 1 0.556525 0.448729 0.51104
3996 1 0.56532 0.440089 0.508453
3997 1 0.576055 0.444461 0.504155
4077 1 0.570586 0.457377 0.5083
4349 1 0.587397 0.449356 0.503125
4135 1 0.559503 0.463009 0.511066
4000 1 0.566112 0.47146 0.508357
4214 1 0.575832 0.468014 0.506923
4201 1 0.597011 0.462605 0.50071
4165 1 0.584576 0.462499 0.504581
4015 1 0.590094 0.476673 0.50273
4203 1 0.57928 0.482776 0.506058
4219 1 0.566138 0.482278 0.508494
1400 1 0.570036 0.496113 0.506181
4282 1 0.59318 0.489962 0.500027
2879 1 0.570088 0.00170535 0.520348
2805 1 0.560619 0.0112011 0.52261
2872 1 0.577998 0.0133665 0.519708
2802 1 0.585347 0.00107849 0.517016
2885 1 0.593519 0.0130025 0.51683
2960 1 0.616617 0.00734003 0.512506
139 1 0.603112 0.00241694 0.512146
5542 1 0.604642 0.017389 0.516137
5545 1 0.556547 0.0272455 0.523268
3017 1 0.567842 0.0219105 0.521088
3018 1 0.571125 0.0338699 0.519132
2877 1 0.585794 0.0259102 0.518498
2956 1 0.599423 0.0285229 0.516318
2810 1 0.613452 0.0330208 0.514396
2957 1 0.619362 0.0188171 0.512483
2902 1 0.628431 0.0315619 0.512829
5532 1 0.575207 0.0455858 0.520503
2807 1 0.565003 0.0508746 0.522392
3233 1 0.58925 0.0389644 0.517979
3162 1 0.590886 0.0567466 0.519342
2955 1 0.602586 0.0426741 0.515591
2876 1 0.611875 0.0509979 0.514838
3104 1 0.634724 0.0440031 0.51147
2958 1 0.62179 0.0433646 0.51278
3161 1 0.625637 0.0595794 0.512724
5531 1 0.593367 0.0700761 0.521225
2890 1 0.60233 0.0586668 0.51767
2814 1 0.604181 0.0743077 0.517428
140 1 0.613749 0.0670718 0.512478
2953 1 0.639789 0.0674404 0.512358
3024 1 0.619541 0.0816717 0.514987
2952 1 0.630361 0.0744294 0.512354
3023 1 0.595368 0.0854986 0.519196
2969 1 0.598797 0.0993463 0.521472
3390 1 0.609197 0.0904118 0.515904
3025 1 0.637272 0.085615 0.511893
3030 1 0.626502 0.0959084 0.512671
3169 1 0.640922 0.0997387 0.511751
3229 1 0.615621 0.100409 0.517829
3172 1 0.605896 0.112151 0.52014
3440 1 0.61799 0.118437 0.518387
3166 1 0.63069 0.109557 0.514885
3026 1 0.64347 0.116916 0.511556
3371 1 0.599924 0.124412 0.522391
3157 1 0.611029 0.128956 0.520124
3523 1 0.621376 0.136933 0.51892
3241 1 0.632013 0.139524 0.515715
3308 1 0.632714 0.124676 0.516406
3106 1 0.645081 0.131444 0.511566
3302 1 0.618459 0.150952 0.518937
3373 1 0.607777 0.143616 0.521213
3174 1 0.633627 0.152154 0.516373
3094 1 0.64472 0.144124 0.512938
3243 1 0.622457 0.167935 0.517878
3446 1 0.606892 0.16317 0.520634
3444 1 0.632368 0.1664 0.513626
3448 1 0.614143 0.181019 0.521742
3375 1 0.640317 0.183078 0.514135
3593 1 0.638176 0.196432 0.516548
3170 1 0.627517 0.183923 0.51858
3234 1 0.615138 0.212049 0.521756
3580 1 0.623049 0.200814 0.521278
3441 1 0.625075 0.218761 0.519996
3594 1 0.63249 0.210375 0.517012
3589 1 0.640341 0.217153 0.514494
3654 1 0.647957 0.206763 0.512337
3653 1 0.59789 0.23572 0.523483
3520 1 0.60755 0.222787 0.521197
769 1 0.618511 0.231543 0.520062
3582 1 0.632872 0.2293 0.516127
3517 1 0.648043 0.223406 0.510495
3659 1 0.643102 0.237086 0.511521
3586 1 0.609463 0.240868 0.520331
3805 1 0.600885 0.250912 0.521313
3803 1 0.617125 0.248875 0.517227
3657 1 0.627812 0.239794 0.515747
3658 1 0.627607 0.252994 0.514047
3226 1 0.505072 0.27562 0.520467
3504 1 0.592261 0.263899 0.521251
3453 1 0.610374 0.259419 0.518344
3584 1 0.60346 0.270126 0.520845
4140 1 0.614025 0.278161 0.517213
3862 1 0.621471 0.268254 0.514537
3648 1 0.498801 0.296927 0.519442
980 1 0.509774 0.288796 0.51957
3510 1 0.527715 0.294292 0.521347
3508 1 0.520418 0.280492 0.52142
3786 1 0.597109 0.293194 0.520087
3592 1 0.590626 0.281058 0.522825
3852 1 0.611798 0.29678 0.515689
3933 1 0.605744 0.285993 0.518347
3932 1 0.621086 0.286686 0.513351
3577 1 0.505875 0.311241 0.518719
3992 1 0.514947 0.30395 0.518644
4001 1 0.526592 0.309549 0.518843
3799 1 0.53842 0.301698 0.521163
3790 1 0.552874 0.305426 0.521015
3792 1 0.539694 0.313511 0.520067
3579 1 0.579415 0.320125 0.520227
3934 1 0.559242 0.317204 0.520345
4068 1 0.594254 0.31996 0.51645
3800 1 0.598499 0.30444 0.516481
3514 1 0.58434 0.306175 0.520604
3869 1 0.609209 0.311901 0.513692
3655 1 0.518007 0.320108 0.517258
836 1 0.502687 0.326919 0.518343
3861 1 0.512243 0.332765 0.515787
3795 1 0.533832 0.323697 0.516156
3652 1 0.524681 0.331771 0.515364
3571 1 0.539024 0.334822 0.515937
1254 1 0.549264 0.324504 0.518748
764 1 0.556845 0.335486 0.516516
4072 1 0.582833 0.332885 0.515315
4004 1 0.567259 0.326902 0.51883
3855 1 0.594112 0.333075 0.513849
3858 1 0.605831 0.326096 0.512844
3711 1 0.505785 0.353237 0.513933
3717 1 0.516478 0.347291 0.514152
3851 1 0.521531 0.359708 0.5123
3644 1 0.528962 0.347195 0.512782
3857 1 0.536928 0.358346 0.514018
4131 1 0.547501 0.346472 0.514325
4061 1 0.56357 0.353094 0.512772
4069 1 0.569403 0.340511 0.515991
3863 1 0.580555 0.346233 0.512899
979 1 0.509628 0.366026 0.513062
978 1 0.512524 0.378471 0.510546
1326 1 0.552567 0.364327 0.510416
3924 1 0.505444 0.391356 0.51274
413 1 0.506387 0.409797 0.512493
3925 1 0.515421 0.401557 0.51169
1462 1 0.517053 0.418146 0.513517
1456 1 0.531914 0.416916 0.510999
3781 1 0.500193 0.426609 0.513424
1394 1 0.513741 0.434291 0.514364
1042 1 0.526916 0.432886 0.513439
3929 1 0.545007 0.426517 0.512949
1330 1 0.508845 0.447572 0.518769
1455 1 0.521293 0.445573 0.516455
4136 1 0.530471 0.460153 0.516214
1385 1 0.53772 0.445828 0.513858
1399 1 0.547854 0.458016 0.512605
1320 1 0.502803 0.462927 0.519243
1259 1 0.514821 0.464582 0.517806
4272 1 0.504894 0.478486 0.52031
1323 1 0.527513 0.471336 0.518149
1537 1 0.541496 0.467512 0.516322
4273 1 0.550324 0.473672 0.511659
1398 1 0.512472 0.493084 0.519947
4066 1 0.518176 0.480892 0.51759
4279 1 0.534577 0.482538 0.515684
4278 1 0.529506 0.496066 0.516694
1468 1 0.543053 0.497053 0.513897
4207 1 0.554043 0.488552 0.512471
2656 1 0.504922 0.00462331 0.529085
2792 1 0.533612 0.0115146 0.527539
5468 1 0.519775 0.0116041 0.528987
5481 1 0.548321 0.00525849 0.523166
57 1 0.548828 0.0177799 0.524824
278 1 0.506664 0.0235537 0.529554
3091 1 0.49962 0.0380105 0.528487
5535 1 0.519972 0.0246811 0.530942
2798 1 0.533977 0.0244015 0.529276
193 1 0.528624 0.035829 0.530376
280 1 0.54478 0.0347319 0.526491
60 1 0.514741 0.042595 0.531218
3083 1 0.509678 0.0537372 0.531665
64 1 0.524266 0.0542325 0.531753
2808 1 0.536024 0.0454888 0.529912
67 1 0.551076 0.04745 0.525056
2941 1 0.561057 0.0381603 0.522596
69 1 0.499402 0.0784053 0.530412
3090 1 0.507811 0.0647065 0.531126
489 1 0.512886 0.0813545 0.531427
2803 1 0.519043 0.0668662 0.530811
3299 1 0.536453 0.0624451 0.531959
3232 1 0.529632 0.0721396 0.532899
2806 1 0.543067 0.0746342 0.531942
2871 1 0.55218 0.0604398 0.526557
3228 1 0.55298 0.0757325 0.527754
2878 1 0.576259 0.0629696 0.523353
2873 1 0.56389 0.0665054 0.525238
2948 1 0.567659 0.0789767 0.525384
2874 1 0.579878 0.0807857 0.524111
209 1 0.500753 0.0919343 0.530362
345 1 0.515241 0.0936979 0.529974
137 1 0.526784 0.0867924 0.531163
3368 1 0.539349 0.085954 0.531774
3016 1 0.553497 0.0876137 0.531516
3084 1 0.570263 0.0905893 0.52835
3103 1 0.585564 0.0973765 0.52645
419 1 0.512077 0.105593 0.53006
2942 1 0.506107 0.118211 0.530453
3012 1 0.530635 0.101649 0.531049
558 1 0.538599 0.115617 0.530998
133 1 0.523248 0.113893 0.530805
3014 1 0.545684 0.101978 0.532829
3156 1 0.559342 0.104421 0.53151
3093 1 0.551859 0.118447 0.533065
3087 1 0.573257 0.104357 0.530045
3230 1 0.569575 0.116554 0.530034
3081 1 0.582183 0.112584 0.527932
3096 1 0.592037 0.110924 0.523069
3301 1 0.507797 0.135287 0.530842
469 1 0.518648 0.124649 0.531599
410 1 0.529822 0.131126 0.530823
414 1 0.541646 0.126943 0.531136
3158 1 0.558207 0.131072 0.5312
403 1 0.547151 0.138652 0.530627
3227 1 0.571657 0.12974 0.528352
3237 1 0.5845 0.124543 0.525764
3449 1 0.591701 0.138122 0.523493
210 1 0.517541 0.143124 0.529848
483 1 0.510907 0.153359 0.530307
3366 1 0.525217 0.155686 0.530733
3297 1 0.532315 0.142747 0.529198
3085 1 0.557372 0.143515 0.529651
420 1 0.541354 0.151025 0.529997
3221 1 0.552892 0.155862 0.529529
3447 1 0.568057 0.145305 0.528103
3438 1 0.566254 0.159393 0.527676
3159 1 0.580461 0.143421 0.526275
3164 1 0.580417 0.157175 0.526117
3089 1 0.594357 0.152888 0.522552
3439 1 0.50623 0.168521 0.529549
350 1 0.518732 0.16574 0.529537
3088 1 0.5364 0.163369 0.529955
2945 1 0.528864 0.174063 0.528207
487 1 0.545644 0.168522 0.529428
549 1 0.542351 0.180208 0.527791
3099 1 0.559925 0.172814 0.528596
3163 1 0.576547 0.170823 0.527301
3369 1 0.593366 0.167575 0.523022
3165 1 0.586234 0.180907 0.526316
3378 1 0.603416 0.177654 0.522998
548 1 0.515126 0.181706 0.529396
3502 1 0.50373 0.189199 0.527002
3154 1 0.514409 0.196028 0.526906
3443 1 0.529069 0.186075 0.528284
3292 1 0.526734 0.198724 0.528075
628 1 0.539218 0.192489 0.52678
3160 1 0.555003 0.191547 0.527862
3727 1 0.568798 0.184244 0.528158
3437 1 0.568704 0.197194 0.528498
3516 1 0.583221 0.193919 0.526253
3513 1 0.598786 0.189534 0.52496
3581 1 0.611129 0.194071 0.52351
3222 1 0.500521 0.20288 0.526146
3507 1 0.517159 0.210476 0.525886
3574 1 0.507983 0.217849 0.525955
768 1 0.531848 0.211238 0.528417
3506 1 0.55747 0.205354 0.527738
3370 1 0.543276 0.205093 0.52685
910 1 0.549178 0.218576 0.528751
3509 1 0.560348 0.218573 0.529283
3505 1 0.572832 0.209522 0.528067
3587 1 0.594623 0.201323 0.52715
3512 1 0.584968 0.210952 0.526643
3642 1 0.598104 0.216988 0.524296
3660 1 0.60323 0.206649 0.523679
3645 1 0.516148 0.238795 0.526701
627 1 0.504635 0.23238 0.526434
490 1 0.522321 0.226043 0.527602
3153 1 0.536124 0.224785 0.527914
3433 1 0.549142 0.232719 0.528545
3578 1 0.565175 0.229022 0.528442
3720 1 0.578254 0.237234 0.527509
3646 1 0.575919 0.221264 0.527819
3585 1 0.587997 0.228362 0.526282
3501 1 0.503595 0.247598 0.52526
3362 1 0.535019 0.257692 0.525562
3231 1 0.532791 0.240302 0.526846
554 1 0.52089 0.249944 0.52633
3576 1 0.547747 0.249691 0.528754
3575 1 0.562728 0.25445 0.527243
3596 1 0.574657 0.249741 0.525672
3651 1 0.562984 0.24146 0.528502
3661 1 0.588923 0.245774 0.523829
3647 1 0.506927 0.25985 0.524476
3641 1 0.518885 0.266123 0.523722
907 1 0.532745 0.273044 0.525735
3372 1 0.55097 0.266996 0.526626
3291 1 0.560967 0.27814 0.525691
3367 1 0.569714 0.265186 0.525177
3728 1 0.575533 0.279409 0.524176
3310 1 0.582407 0.262307 0.523808
3785 1 0.537429 0.288536 0.524295
3662 1 0.550274 0.292742 0.524461
3793 1 0.545079 0.280031 0.527057
3725 1 0.565864 0.291982 0.525202
4205 1 0.580606 0.295536 0.523512
3853 1 0.568492 0.307589 0.522702
4383 1 0.816896 0.515201 0.465142
4128 1 0.807821 0.500516 0.463472
4245 1 0.824769 0.506332 0.462918
4028 1 0.836417 0.502936 0.460971
4319 1 0.831215 0.517964 0.464932
4123 1 0.858172 0.502248 0.461213
4058 1 0.845491 0.513411 0.462379
3906 1 0.85623 0.517831 0.464115
4191 1 0.869701 0.515303 0.462653
4318 1 0.881415 0.505761 0.461803
4332 1 0.896136 0.509779 0.464906
4257 1 0.908746 0.508229 0.463103
4263 1 0.928651 0.511268 0.464769
4330 1 0.954609 0.504675 0.463899
1331 1 0.971201 0.505885 0.463896
1275 1 0.981854 0.501349 0.461866
4054 1 0.79257 0.52451 0.465338
4390 1 0.797432 0.537034 0.465664
4395 1 0.807666 0.530533 0.465776
4518 1 0.822115 0.526544 0.464151
4525 1 0.828521 0.536166 0.466582
3970 1 0.844204 0.525478 0.466119
4323 1 0.860613 0.533581 0.466088
4251 1 0.885601 0.520513 0.466471
3981 1 0.845637 0.542742 0.466245
4037 1 0.674088 0.503214 0.476645
4035 1 0.692031 0.499237 0.474329
4095 1 0.684588 0.512029 0.477873
4163 1 0.698353 0.514581 0.474488
4109 1 0.71576 0.503179 0.470578
4105 1 0.7116 0.516555 0.470549
4096 1 0.703725 0.500572 0.472271
4106 1 0.728859 0.504574 0.468825
4102 1 0.739788 0.508709 0.46744
3759 1 0.725279 0.519394 0.469577
4042 1 0.753366 0.514515 0.467788
4111 1 0.758259 0.503691 0.467232
4176 1 0.769137 0.507517 0.468143
4047 1 0.795977 0.50911 0.465801
4179 1 0.780182 0.514694 0.467196
4121 1 0.783735 0.50025 0.4651
1262 1 0.804489 0.518438 0.464959
4325 1 0.913906 0.519269 0.466818
4477 1 0.940652 0.510382 0.466351
4265 1 0.960794 0.515057 0.467466
4192 1 0.978762 0.517544 0.466299
4196 1 0.991946 0.510912 0.466273
4100 1 0.701851 0.528737 0.474128
4178 1 0.714487 0.530065 0.470948
4110 1 0.707354 0.54253 0.473724
4599 1 0.739429 0.520728 0.468483
3832 1 0.727377 0.535019 0.470219
4240 1 0.739457 0.537442 0.469114
4247 1 0.750207 0.529041 0.468015
4174 1 0.764139 0.519667 0.467263
4108 1 0.761523 0.536002 0.469058
4321 1 0.779144 0.53071 0.466625
4243 1 0.813258 0.540874 0.466651
4048 1 0.872815 0.525677 0.467365
4256 1 0.883145 0.535588 0.468972
4189 1 0.894385 0.530262 0.469353
4389 1 0.901199 0.522198 0.468027
4264 1 0.911235 0.530652 0.472099
4392 1 0.928243 0.526696 0.469814
4120 1 0.921417 0.537058 0.473888
4329 1 0.951179 0.520654 0.468666
4259 1 0.939061 0.522116 0.47
4465 1 0.943613 0.534475 0.471339
4393 1 0.956482 0.531292 0.47133
4262 1 0.969029 0.524764 0.469708
4337 1 0.975483 0.53456 0.474438
4326 1 0.963303 0.541818 0.475066
1335 1 0.995929 0.52214 0.470506
1689 1 0.992182 0.536618 0.47605
4394 1 0.985228 0.527474 0.471666
4092 1 0.693091 0.540898 0.476157
4171 1 0.708304 0.55428 0.475808
4379 1 0.722678 0.549493 0.473397
4249 1 0.73576 0.550116 0.470941
4098 1 0.750754 0.544105 0.469038
4167 1 0.748063 0.55721 0.471515
4241 1 0.762059 0.553808 0.468399
4104 1 0.772746 0.542575 0.467198
4039 1 0.777468 0.55835 0.467924
4173 1 0.787558 0.545486 0.466972
4308 1 0.794285 0.55919 0.467184
4114 1 0.802837 0.548059 0.467261
4175 1 0.813938 0.556034 0.465846
4521 1 0.825602 0.55078 0.466901
4188 1 0.838227 0.550678 0.468612
4320 1 0.858201 0.548462 0.4705
4385 1 0.871896 0.541757 0.470606
4334 1 0.876173 0.554045 0.473133
4244 1 0.859447 0.559615 0.474243
4186 1 0.88685 0.54575 0.473348
4324 1 0.897875 0.557377 0.475531
4398 1 0.90044 0.539313 0.47224
4255 1 0.911985 0.547968 0.475437
4122 1 0.933575 0.541638 0.474102
4130 1 0.92425 0.553125 0.47678
4339 1 0.95 0.543322 0.475268
4460 1 0.981283 0.544151 0.476835
4368 1 0.706661 0.570495 0.477173
4382 1 0.733842 0.563024 0.473002
4307 1 0.72066 0.562039 0.475751
4299 1 0.734388 0.575162 0.471417
4097 1 0.745307 0.570738 0.469787
4238 1 0.760349 0.571085 0.47018
4314 1 0.771877 0.569865 0.469095
4387 1 0.788691 0.572538 0.467889
4376 1 0.803978 0.566327 0.467004
4386 1 0.808883 0.577903 0.46909
4313 1 0.831669 0.562827 0.469489
4524 1 0.819361 0.569183 0.468537
4317 1 0.838421 0.573882 0.472803
4517 1 0.826233 0.577507 0.471562
4250 1 0.845595 0.562392 0.472608
4522 1 0.853766 0.572643 0.475724
4469 1 0.869919 0.567753 0.47636
4605 1 0.864888 0.576706 0.477561
4375 1 0.711303 0.592837 0.476163
4583 1 0.720928 0.579824 0.473122
4164 1 0.72446 0.599004 0.474944
4239 1 0.733615 0.589039 0.470322
4242 1 0.747286 0.58631 0.468777
4457 1 0.754954 0.597309 0.471139
4445 1 0.778285 0.583326 0.469632
4450 1 0.766294 0.586738 0.47037
4306 1 0.77154 0.599849 0.470274
4373 1 0.794102 0.581607 0.468653
4182 1 0.787579 0.594012 0.46941
4381 1 0.803466 0.591603 0.471381
4515 1 0.81781 0.586191 0.47178
4520 1 0.827225 0.594945 0.475027
4453 1 0.838368 0.586694 0.474318
4455 1 0.850397 0.584025 0.476329
4170 1 0.717064 0.609161 0.477328
4222 1 0.732739 0.616083 0.472764
4369 1 0.739823 0.601876 0.471883
4443 1 0.749609 0.610139 0.470769
4311 1 0.763602 0.613087 0.471635
4227 1 0.780892 0.610406 0.470529
4669 1 0.791909 0.617189 0.472689
4388 1 0.798618 0.606176 0.472277
4372 1 0.812676 0.601543 0.473203
4514 1 0.809214 0.615252 0.474702
4592 1 0.825698 0.609813 0.47396
4172 1 0.836159 0.607549 0.476536
4591 1 0.845323 0.598073 0.475086
4440 1 0.719027 0.635482 0.477203
4653 1 0.721638 0.624899 0.475023
4377 1 0.735161 0.63427 0.474021
4374 1 0.743495 0.622202 0.473512
4234 1 0.751207 0.634441 0.472436
4519 1 0.75449 0.623398 0.470914
4380 1 0.771884 0.625651 0.470245
4809 1 0.784192 0.628674 0.473929
4590 1 0.7956 0.637224 0.474686
4391 1 0.801229 0.625113 0.473024
4677 1 0.812871 0.63307 0.476247
4448 1 0.818728 0.622243 0.474314
4731 1 0.830634 0.625673 0.477706
4812 1 0.824054 0.639296 0.478497
4516 1 0.737662 0.655854 0.476975
4439 1 0.728646 0.645441 0.47546
4449 1 0.746296 0.646893 0.4739
4235 1 0.753878 0.657278 0.472555
4309 1 0.76141 0.640641 0.472587
4444 1 0.773939 0.639114 0.471985
4312 1 0.765762 0.653033 0.472108
4451 1 0.781237 0.657179 0.475321
4532 1 0.787889 0.646117 0.473612
4302 1 0.796303 0.65492 0.476157
4659 1 0.807295 0.645362 0.476358
4371 1 0.746784 0.665431 0.4757
4737 1 0.757084 0.676154 0.478127
4088 1 0.765912 0.666579 0.47634
3956 1 0.632215 0.511764 0.486731
4161 1 0.642833 0.509481 0.482978
4099 1 0.65641 0.508015 0.480296
4034 1 0.658418 0.520477 0.482291
4024 1 0.667981 0.512398 0.479778
4156 1 0.635172 0.527623 0.486836
4089 1 0.647162 0.521205 0.48403
3953 1 0.653094 0.533996 0.486723
4084 1 0.675524 0.52234 0.480306
4086 1 0.664864 0.5319 0.481733
3965 1 0.678503 0.540418 0.480016
3946 1 0.688751 0.526645 0.477815
4286 1 0.651368 0.551103 0.488052
4502 1 0.643228 0.541692 0.488567
4363 1 0.662496 0.545038 0.485401
4030 1 0.6713 0.552292 0.483834
4226 1 0.660421 0.560091 0.487684
4031 1 0.685943 0.55463 0.47977
4452 1 0.696554 0.556034 0.477593
4603 1 0.941607 0.556741 0.477714
4396 1 0.958962 0.551819 0.478199
4253 1 0.971452 0.551317 0.47831
4529 1 0.992664 0.553566 0.480407
3955 1 0.654194 0.569823 0.488619
4233 1 0.666084 0.572614 0.48676
4296 1 0.676711 0.566009 0.484424
4166 1 0.693375 0.570065 0.481286
4403 1 0.880918 0.563332 0.47763
4248 1 0.894671 0.572392 0.480191
4252 1 0.914482 0.564125 0.480723
4596 1 0.908592 0.578724 0.481724
4536 1 0.924473 0.575041 0.481085
4464 1 0.931528 0.56208 0.480164
1753 1 0.950437 0.563824 0.480936
4595 1 0.940575 0.573818 0.482119
4471 1 0.953087 0.578124 0.482796
4612 1 0.963089 0.567049 0.481299
4322 1 0.972755 0.575925 0.483936
4340 1 0.980766 0.562663 0.482799
1681 1 0.989263 0.574679 0.486262
4229 1 0.65706 0.59532 0.489536
4025 1 0.652642 0.581796 0.487937
4364 1 0.666371 0.585381 0.485841
4789 1 0.67096 0.598703 0.486566
4094 1 0.69569 0.586574 0.480236
4438 1 0.678977 0.582062 0.484466
4158 1 0.695147 0.600383 0.482285
4225 1 0.682235 0.595428 0.484688
4671 1 0.855257 0.595598 0.478969
4180 1 0.880581 0.580797 0.480133
4679 1 0.867429 0.587751 0.480615
4614 1 0.879922 0.595633 0.483471
4316 1 0.89432 0.588686 0.482451
4461 1 0.90761 0.593939 0.486324
4384 1 0.921127 0.586357 0.482805
4531 1 0.935826 0.58605 0.482839
4535 1 0.931207 0.598939 0.486185
4458 1 0.949482 0.590731 0.48359
4397 1 0.964844 0.58579 0.48432
1682 1 0.971169 0.59858 0.487569
4528 1 0.980333 0.586282 0.486506
4300 1 0.67467 0.611392 0.487957
4305 1 0.687642 0.607689 0.485591
4933 1 0.699575 0.618831 0.4848
4301 1 0.702661 0.606994 0.479344
4675 1 0.852912 0.610259 0.480341
4747 1 0.844041 0.619003 0.479733
4597 1 0.863456 0.617905 0.483644
4750 1 0.868774 0.604972 0.483368
4678 1 0.872995 0.616197 0.484788
4270 1 0.895797 0.60356 0.486237
4113 1 0.883338 0.608994 0.486237
4260 1 0.898664 0.619842 0.486187
4530 1 0.908198 0.608161 0.486762
4050 1 0.921073 0.604645 0.487046
4478 1 0.931469 0.615598 0.487757
4746 1 0.958408 0.599923 0.486797
4676 1 0.942887 0.602442 0.48722
4609 1 0.952667 0.612423 0.486554
1694 1 0.967901 0.613426 0.488127
4442 1 0.676108 0.626574 0.488281
4506 1 0.687231 0.623283 0.487115
4791 1 0.692915 0.636033 0.484867
4160 1 0.710769 0.621992 0.47997
4159 1 0.707937 0.633932 0.481702
4538 1 0.838428 0.635579 0.479692
4682 1 0.852383 0.639569 0.482355
4667 1 0.856943 0.628039 0.481159
4952 1 0.871041 0.632314 0.484671
4527 1 0.884834 0.62171 0.485193
4456 1 0.885168 0.633213 0.485694
4594 1 0.915073 0.621797 0.486238
4608 1 0.898632 0.63268 0.486152
4813 1 0.910037 0.639223 0.487198
4611 1 0.927279 0.630096 0.486868
4466 1 0.95838 0.627225 0.488243
4578 1 0.682917 0.640791 0.48706
4576 1 0.688754 0.65549 0.487165
4998 1 0.699373 0.646247 0.484883
4237 1 0.712501 0.647006 0.480731
4579 1 0.704299 0.658836 0.484278
4157 1 0.718227 0.658014 0.479988
4668 1 0.818452 0.651465 0.478233
4533 1 0.836161 0.647635 0.480858
4811 1 0.852558 0.651825 0.483899
4749 1 0.865038 0.644507 0.485554
5157 1 0.878164 0.649597 0.484613
4593 1 0.891354 0.658399 0.486703
4755 1 0.893434 0.644844 0.485794
4957 1 0.903831 0.650858 0.486976
4748 1 0.922181 0.644298 0.487328
4787 1 0.694363 0.667174 0.486359
4510 1 0.68156 0.672563 0.488624
4658 1 0.71406 0.669123 0.482373
5004 1 0.705412 0.67702 0.487028
4378 1 0.729749 0.666759 0.478917
4725 1 0.724846 0.678613 0.482129
4304 1 0.740726 0.678862 0.479385
4587 1 0.778014 0.67091 0.477644
4730 1 0.791326 0.667161 0.479212
4606 1 0.801328 0.677485 0.479688
4663 1 0.809096 0.663163 0.478189
4454 1 0.826381 0.659186 0.479466
4303 1 0.821155 0.673817 0.480459
4604 1 0.836085 0.673258 0.483583
5158 1 0.843388 0.6617 0.481937
4808 1 0.852035 0.67362 0.483572
4742 1 0.863624 0.661587 0.484286
4526 1 0.878564 0.66398 0.485537
4801 1 0.866148 0.678714 0.485421
4810 1 0.88906 0.672506 0.487275
4673 1 0.904603 0.668008 0.487676
4783 1 0.698431 0.686777 0.487393
5058 1 0.712366 0.68777 0.483763
5068 1 0.728969 0.69344 0.481539
4655 1 0.759472 0.693285 0.480171
4447 1 0.748599 0.687422 0.480858
4727 1 0.771554 0.684094 0.479415
4665 1 0.778875 0.694685 0.479791
4654 1 0.785489 0.682797 0.479745
4728 1 0.79465 0.6906 0.480057
4657 1 0.811223 0.684868 0.48028
4741 1 0.807064 0.696616 0.481341
4672 1 0.825917 0.686843 0.482354
4875 1 0.841493 0.686985 0.484171
4802 1 0.856084 0.686817 0.484198
4523 1 0.869541 0.693157 0.485396
4883 1 0.87969 0.679574 0.486956
4739 1 0.883924 0.693172 0.48658
4582 1 0.714933 0.704176 0.483656
5003 1 0.702939 0.713189 0.487419
4928 1 0.702923 0.699929 0.485945
4651 1 0.715522 0.716261 0.48585
4656 1 0.728956 0.708804 0.483614
4588 1 0.743452 0.701896 0.48195
4726 1 0.742849 0.714759 0.484236
4711 1 0.755796 0.706154 0.482403
5143 1 0.756284 0.717751 0.48396
4729 1 0.768654 0.707925 0.480958
4232 1 0.789582 0.701804 0.480487
4589 1 0.781214 0.708614 0.482344
4872 1 0.792305 0.719784 0.480959
4601 1 0.801441 0.705534 0.480063
4652 1 0.810872 0.715121 0.481863
4878 1 0.819839 0.699778 0.480615
4718 1 0.836126 0.701198 0.482921
4660 1 0.826953 0.712815 0.482914
5009 1 0.838964 0.717684 0.48361
5229 1 0.850341 0.702465 0.483786
4732 1 0.855034 0.719098 0.483875
5020 1 0.86641 0.710252 0.484551
5369 1 0.873359 0.719417 0.48604
4950 1 0.8804 0.706292 0.487365
5007 1 0.699723 0.725264 0.488168
4929 1 0.710845 0.729737 0.488278
4733 1 0.72834 0.721614 0.48516
4858 1 0.722524 0.729568 0.487985
4798 1 0.732373 0.739223 0.484981
4228 1 0.739757 0.726764 0.484946
4720 1 0.752648 0.731043 0.484571
4719 1 0.767175 0.7215 0.483377
4721 1 0.768674 0.733132 0.483753
4724 1 0.778247 0.739244 0.482963
4600 1 0.779308 0.722007 0.483157
4930 1 0.789436 0.732771 0.482287
4598 1 0.8046 0.726118 0.48192
4722 1 0.813853 0.735913 0.482247
4661 1 0.823135 0.723793 0.48271
4861 1 0.831255 0.732842 0.483958
5219 1 0.844912 0.734043 0.48376
4736 1 0.857327 0.73379 0.484786
5227 1 0.868981 0.73095 0.486458
4945 1 0.884792 0.722134 0.486578
4868 1 0.732298 0.753023 0.487103
4866 1 0.74581 0.744635 0.484546
4993 1 0.755551 0.754359 0.484361
4512 1 0.760743 0.743402 0.483175
4931 1 0.770925 0.750771 0.481558
4999 1 0.785013 0.751225 0.481749
4805 1 0.797034 0.742813 0.483
4734 1 0.796856 0.755785 0.48178
4735 1 0.81121 0.750182 0.482437
4870 1 0.826768 0.743888 0.482698
5011 1 0.834778 0.75704 0.483887
4723 1 0.842076 0.746047 0.48378
4662 1 0.853224 0.749365 0.48617
4666 1 0.865555 0.745097 0.486394
4865 1 0.732269 0.770885 0.487895
4794 1 0.744854 0.763054 0.486209
4922 1 0.754959 0.770486 0.485816
5283 1 0.746478 0.77849 0.487956
4797 1 0.764216 0.761604 0.482951
4584 1 0.772491 0.770715 0.482898
4867 1 0.764546 0.779652 0.485644
4873 1 0.783522 0.763935 0.481999
4664 1 0.795662 0.770535 0.482913
5071 1 0.807751 0.765214 0.483478
4943 1 0.813446 0.781063 0.485574
4795 1 0.822714 0.759401 0.483138
5225 1 0.837517 0.770133 0.483896
5224 1 0.823538 0.772786 0.485279
4937 1 0.847126 0.761815 0.484532
5155 1 0.856203 0.775163 0.4862
5083 1 0.862791 0.762798 0.485883
5160 1 0.872952 0.7645 0.48806
4799 1 0.755405 0.789255 0.488081
4803 1 0.7725 0.788029 0.486159
4864 1 0.76337 0.798121 0.486771
4586 1 0.778557 0.798769 0.486338
4738 1 0.782128 0.779935 0.483742
4792 1 0.788602 0.791779 0.484612
5074 1 0.798344 0.782506 0.484456
5081 1 0.80673 0.794166 0.486971
5010 1 0.833579 0.784174 0.487068
5086 1 0.820764 0.795762 0.487883
5233 1 0.84556 0.779786 0.486351
4940 1 0.849263 0.79125 0.489241
5165 1 0.862647 0.791664 0.487803
4869 1 0.762191 0.811644 0.487699
5287 1 0.775605 0.811062 0.48655
5015 1 0.787932 0.812866 0.485387
5156 1 0.796692 0.802956 0.485637
5077 1 0.810866 0.807466 0.487302
4874 1 0.803114 0.816734 0.486897
4988 1 0.754505 0.824008 0.488944
4944 1 0.772082 0.823785 0.486483
5151 1 0.775486 0.838718 0.488427
5295 1 0.786058 0.825085 0.487006
4942 1 0.786852 0.839421 0.488794
5363 1 0.813623 0.830877 0.488636
4012 1 0.595192 0.514676 0.499467
4153 1 0.61007 0.511148 0.495164
4019 1 0.599205 0.503019 0.497088
4083 1 0.622684 0.511193 0.492067
3960 1 0.606609 0.524394 0.497506
4090 1 0.615002 0.541051 0.496072
4223 1 0.62176 0.52286 0.492142
4016 1 0.62673 0.537466 0.493242
4287 1 0.606056 0.554188 0.498729
4356 1 0.600053 0.540302 0.498688
4082 1 0.621166 0.553891 0.49425
4220 1 0.632423 0.548295 0.490067
4169 1 0.6397 0.558897 0.490689
4503 1 0.615224 0.567909 0.497413
4429 1 0.601828 0.568697 0.49978
4437 1 0.627744 0.565991 0.493418
4367 1 0.638794 0.575314 0.492142
4784 1 0.615627 0.580922 0.498038
4857 1 0.616642 0.59702 0.497992
4715 1 0.627312 0.583182 0.494966
4717 1 0.631343 0.596643 0.495323
4295 1 0.6422 0.588613 0.491945
4463 1 0.996945 0.586522 0.489653
4613 1 0.988364 0.597096 0.489167
4860 1 0.624179 0.608926 0.498266
4923 1 0.638639 0.613328 0.494642
4441 1 0.647767 0.603879 0.492773
4230 1 0.660314 0.61018 0.48937
4881 1 0.94386 0.618877 0.488503
1690 1 0.980926 0.610432 0.489797
1479 1 0.99599 0.608741 0.492912
4708 1 0.630281 0.624514 0.498467
4716 1 0.633875 0.637345 0.498378
4785 1 0.648274 0.620487 0.494216
4366 1 0.643221 0.632328 0.495609
4298 1 0.658201 0.633382 0.492345
4645 1 0.665553 0.621902 0.491152
4513 1 0.668704 0.638907 0.490968
4406 1 0.943881 0.631896 0.488709
1544 1 0.974833 0.626702 0.489655
4760 1 0.998315 0.636204 0.497016
4408 1 0.990156 0.625272 0.492313
4446 1 0.636278 0.649649 0.498837
4793 1 0.649762 0.645981 0.496699
4935 1 0.661485 0.65076 0.492742
4509 1 0.674913 0.64952 0.490477
4743 1 0.918149 0.656818 0.48896
4542 1 0.934908 0.643142 0.489101
1688 1 0.930531 0.65797 0.490927
4540 1 0.954008 0.643577 0.491151
4407 1 0.944335 0.657365 0.492288
4619 1 0.958272 0.65716 0.491593
4468 1 0.966037 0.640109 0.490126
1683 1 0.971952 0.652484 0.492231
4617 1 0.98119 0.656371 0.496691
4473 1 0.982601 0.639387 0.493812
4475 1 0.992777 0.650889 0.499548
4778 1 0.636693 0.661727 0.499873
4862 1 0.64959 0.660195 0.495734
4991 1 0.646951 0.673601 0.499886
4919 1 0.658544 0.673048 0.496308
4710 1 0.675785 0.662493 0.489663
4989 1 0.664996 0.66229 0.493379
5142 1 0.671692 0.676453 0.491715
4871 1 0.91742 0.67111 0.488793
4953 1 0.931816 0.670937 0.492671
4462 1 0.957064 0.669464 0.493065
4479 1 0.945178 0.670213 0.493328
4548 1 0.970707 0.664631 0.494583
4545 1 0.97753 0.670192 0.501068
4615 1 0.966584 0.678615 0.500298
4852 1 0.650549 0.687991 0.498309
4781 1 0.665243 0.688003 0.495556
4776 1 0.67425 0.696811 0.493427
4236 1 0.691675 0.678684 0.489397
4863 1 0.681638 0.686925 0.491093
4782 1 0.689069 0.697431 0.488419
5088 1 0.895395 0.68236 0.488858
5017 1 0.894652 0.69819 0.489206
4880 1 0.90806 0.683112 0.490995
4602 1 0.911825 0.695379 0.492121
4680 1 0.919141 0.683348 0.492917
4817 1 0.929046 0.695892 0.493716
4480 1 0.956149 0.681626 0.496161
4607 1 0.94117 0.683572 0.494038
4892 1 0.952922 0.698401 0.495109
4962 1 0.963494 0.695078 0.498073
5052 1 0.653033 0.714502 0.498194
4853 1 0.646548 0.703082 0.499734
4932 1 0.659222 0.701159 0.498448
4701 1 0.665156 0.711415 0.495406
4997 1 0.680131 0.709457 0.492527
4926 1 0.692146 0.713432 0.489472
5018 1 0.893125 0.711075 0.488788
4537 1 0.90723 0.709514 0.490794
4889 1 0.922901 0.70625 0.492293
4815 1 0.93416 0.713867 0.493946
4877 1 0.939567 0.699 0.495875
4544 1 0.948405 0.714318 0.49712
4753 1 0.960985 0.709599 0.497313
4882 1 0.971716 0.707951 0.499855
4846 1 0.658404 0.726858 0.497232
5120 1 0.675136 0.720902 0.494727
5117 1 0.67096 0.734119 0.496338
5065 1 0.685108 0.727843 0.492625
4649 1 0.697244 0.737477 0.49184
4670 1 0.878441 0.735905 0.48861
5235 1 0.892698 0.73256 0.490903
5159 1 0.900815 0.723129 0.491101
4681 1 0.918141 0.71977 0.490198
4890 1 0.910472 0.733455 0.49137
5087 1 0.919503 0.74015 0.493963
4814 1 0.931001 0.729096 0.49499
5095 1 0.93714 0.739699 0.49683
4879 1 0.944597 0.727363 0.496282
4744 1 0.953835 0.739579 0.498847
4610 1 0.959428 0.723753 0.498297
5150 1 0.669625 0.747122 0.496806
5139 1 0.666566 0.759255 0.498195
4985 1 0.684516 0.744255 0.493716
5005 1 0.680743 0.759052 0.495404
5281 1 0.697187 0.753902 0.492974
4855 1 0.71053 0.744466 0.489717
4941 1 0.710124 0.7595 0.491114
4796 1 0.722143 0.745251 0.48928
4938 1 0.721227 0.758657 0.491079
5014 1 0.876241 0.751413 0.488149
5232 1 0.889079 0.75045 0.490855
4740 1 0.901295 0.75906 0.493562
5089 1 0.901904 0.743745 0.492413
4804 1 0.913834 0.752944 0.493934
4674 1 0.927836 0.747796 0.495892
5035 1 0.933942 0.757574 0.497121
4946 1 0.944932 0.7508 0.497498
5066 1 0.676854 0.770195 0.497657
4934 1 0.694402 0.767332 0.494144
5060 1 0.686638 0.776335 0.49762
5000 1 0.709664 0.770968 0.492348
4925 1 0.722485 0.775458 0.491867
5012 1 0.87199 0.777889 0.487568
5161 1 0.88506 0.764669 0.490712
4806 1 0.897735 0.776908 0.493733
4947 1 0.885194 0.781459 0.49181
5093 1 0.912013 0.767746 0.495034
4964 1 0.925869 0.774436 0.498155
5308 1 0.922432 0.763978 0.494778
4807 1 0.939596 0.769238 0.497579
5026 1 0.952969 0.762216 0.49983
5070 1 0.673037 0.797301 0.499938
4854 1 0.683141 0.787477 0.499323
4936 1 0.69666 0.793804 0.497399
5355 1 0.698683 0.78052 0.494496
5008 1 0.711075 0.784989 0.49364
5075 1 0.708116 0.796795 0.493263
5001 1 0.733962 0.782667 0.489855
5138 1 0.726372 0.791322 0.492249
4924 1 0.745708 0.796899 0.489368
5073 1 0.838323 0.797236 0.489956
5164 1 0.876353 0.796196 0.491372
5228 1 0.891959 0.793647 0.491326
5166 1 0.901027 0.795382 0.495794
4948 1 0.909943 0.782831 0.495708
5032 1 0.915529 0.794715 0.497376
5069 1 0.68574 0.801588 0.500372
5202 1 0.69088 0.818087 0.500321
5422 1 0.702756 0.809289 0.496121
5148 1 0.719269 0.805768 0.493524
5207 1 0.715128 0.818107 0.495814
5072 1 0.735622 0.803166 0.492042
5350 1 0.731378 0.814944 0.492077
4876 1 0.747474 0.80917 0.488974
5291 1 0.820295 0.818923 0.489215
5147 1 0.827691 0.808832 0.489421
5084 1 0.835078 0.817311 0.490781
5220 1 0.84496 0.808488 0.489527
5222 1 0.85964 0.804682 0.490361
5306 1 0.856068 0.817919 0.493751
5096 1 0.871185 0.807661 0.49047
5162 1 0.880675 0.815298 0.493576
5442 1 0.887778 0.806149 0.493469
5508 1 0.8989 0.809917 0.496736
4959 1 0.911059 0.808181 0.498709
5201 1 0.701551 0.825554 0.497447
5061 1 0.71126 0.836088 0.497127
5213 1 0.724362 0.825782 0.493731
5273 1 0.735515 0.832211 0.494536
5146 1 0.740535 0.822441 0.491365
5211 1 0.748884 0.835165 0.492221
5006 1 0.762794 0.833166 0.489943
5082 1 0.799418 0.830463 0.488847
5080 1 0.829339 0.826949 0.490806
5152 1 0.822347 0.838916 0.492169
4958 1 0.843653 0.825456 0.491616
5221 1 0.855501 0.832848 0.493912
5099 1 0.869403 0.822935 0.492261
5163 1 0.869552 0.835591 0.496159
5297 1 0.893633 0.821269 0.497087
5237 1 0.881689 0.829788 0.49552
5103 1 0.893433 0.834955 0.49954
5269 1 0.702372 0.844821 0.499686
5405 1 0.712817 0.851847 0.498399
5417 1 0.725357 0.855926 0.495664
5277 1 0.727943 0.843145 0.496557
5284 1 0.737722 0.859242 0.49589
5552 1 0.740406 0.846719 0.495094
4800 1 0.752034 0.854172 0.492698
5079 1 0.761796 0.846499 0.491213
5208 1 0.77765 0.851099 0.490935
5215 1 0.79329 0.848496 0.49015
5128 1 0.786263 0.861218 0.491649
5016 1 0.805845 0.843026 0.489123
4939 1 0.816271 0.855535 0.492055
5354 1 0.801313 0.8593 0.492546
5230 1 0.831805 0.85076 0.49464
5022 1 0.841499 0.840342 0.493111
5223 1 0.84395 0.854616 0.493804
5373 1 0.855258 0.84662 0.495456
5303 1 0.86797 0.846829 0.496501
5153 1 0.866424 0.858606 0.49901
5248 1 0.879949 0.858563 0.500233
5510 1 0.88232 0.843339 0.497995
5198 1 0.713625 0.867961 0.499579
5491 1 0.726438 0.873329 0.49649
5415 1 0.740814 0.871662 0.495686
5137 1 0.750663 0.867184 0.495266
5282 1 0.76688 0.861144 0.492108
5275 1 0.761637 0.873903 0.493745
5209 1 0.778219 0.871505 0.492952
5205 1 0.791847 0.873565 0.49478
5218 1 0.805629 0.874138 0.494146
5013 1 0.81765 0.872188 0.492875
5364 1 0.828447 0.864888 0.494156
5438 1 0.855709 0.86147 0.497407
5299 1 0.841085 0.866434 0.495554
4955 1 0.853559 0.873214 0.498262
5296 1 0.867969 0.87264 0.500451
5410 1 0.715635 0.882102 0.497906
5272 1 0.72223 0.893623 0.49823
5127 1 0.734152 0.885979 0.497744
5466 1 0.747717 0.883699 0.494835
5418 1 0.741597 0.897264 0.496703
5420 1 0.766356 0.885274 0.493481
5286 1 0.771247 0.898804 0.494773
5062 1 0.78072 0.887321 0.494265
5140 1 0.796375 0.889946 0.49517
5212 1 0.804835 0.898948 0.495811
5063 1 0.813073 0.889387 0.495707
5302 1 0.837703 0.881436 0.495637
5288 1 0.826603 0.88191 0.495029
5356 1 0.825331 0.894373 0.498434
5078 1 0.839651 0.897155 0.498735
5064 1 0.72199 0.914339 0.499018
5413 1 0.730317 0.904081 0.498574
5336 1 0.738444 0.915461 0.49935
5203 1 0.757378 0.899348 0.495011
5342 1 0.749809 0.910466 0.496697
5324 1 0.765621 0.913646 0.496665
5216 1 0.788231 0.901237 0.493673
5085 1 0.799608 0.909675 0.495735
5204 1 0.779129 0.910994 0.495614
5416 1 0.815534 0.907956 0.499065
5490 1 0.832999 0.90813 0.499785
2817 1 0.712077 0.921594 0.499007
5421 1 0.729141 0.927731 0.499808
5397 1 0.757117 0.935384 0.497319
5484 1 0.754289 0.922601 0.497975
2889 1 0.743684 0.930781 0.499541
5419 1 0.770036 0.925585 0.497026
5352 1 0.772845 0.938218 0.497578
5550 1 0.782782 0.922259 0.495637
5483 1 0.796594 0.934109 0.49617
5503 1 0.796026 0.92175 0.497218
5348 1 0.785152 0.936404 0.496981
5285 1 0.810107 0.922891 0.497187
5485 1 0.811065 0.935195 0.499221
5351 1 0.823665 0.920152 0.49882
4994 1 0.706363 0.957029 0.500258
5554 1 0.70431 0.94435 0.499566
5477 1 0.717793 0.950493 0.497906
5482 1 0.731922 0.943666 0.499329
5423 1 0.738282 0.955595 0.498754
5134 1 0.753761 0.95889 0.496866
5476 1 0.747896 0.946301 0.496922
5489 1 0.764061 0.950808 0.497302
5412 1 0.776536 0.950173 0.498839
5493 1 0.788794 0.948565 0.497344
5135 1 0.803226 0.946376 0.499037
5495 1 0.713732 0.967961 0.499319
2897 1 0.727376 0.96056 0.49895
2828 1 0.728588 0.975106 0.496919
5276 1 0.758037 0.977888 0.496556
5487 1 0.742303 0.967608 0.496683
5488 1 0.771631 0.97835 0.498591
5492 1 0.766503 0.964746 0.497664
5430 1 0.77822 0.962063 0.495724
5567 1 0.788506 0.971382 0.49695
2965 1 0.794489 0.96003 0.49691
5414 1 0.801393 0.971785 0.497955
5565 1 0.814279 0.974524 0.497798
5557 1 0.807731 0.960661 0.499952
5578 1 0.925267 0.973733 0.500585
2973 1 0.714438 0.983489 0.497815
2821 1 0.722028 0.994059 0.498748
2839 1 0.732137 0.989225 0.496002
5425 1 0.738774 0.998127 0.49514
2827 1 0.743194 0.981294 0.496211
2975 1 0.749307 0.990835 0.494051
5360 1 0.763914 0.990534 0.495069
5563 1 0.795561 0.984466 0.495955
5566 1 0.781182 0.988526 0.496684
5280 1 0.809994 0.988105 0.495649
5366 1 0.838242 0.992705 0.499462
2841 1 0.820054 0.996709 0.498124
2976 1 0.825924 0.982339 0.49755
2852 1 0.849037 0.998263 0.499874
4 1 0.97214 0.99148 0.50056
1 1 0.981985 1.00124 0.499467
4289 1 0.554335 0.518589 0.508008
4204 1 0.556099 0.502201 0.50889
4147 1 0.571845 0.512612 0.505335
3958 1 0.584937 0.501773 0.503054
4155 1 0.581663 0.521843 0.502201
4079 1 0.556746 0.534764 0.508701
4145 1 0.564637 0.526094 0.50486
3868 1 0.575196 0.538342 0.504921
4023 1 0.585491 0.536973 0.500929
4168 1 0.594138 0.527978 0.499828
4573 1 0.564451 0.544683 0.507778
4433 1 0.567375 0.556228 0.509236
4221 1 0.576389 0.554015 0.505264
4210 1 0.590331 0.547617 0.502534
4152 1 0.567723 0.570207 0.508446
4359 1 0.579179 0.580208 0.505964
4297 1 0.578482 0.565856 0.504234
3943 1 0.591889 0.560048 0.501187
4009 1 0.591466 0.578689 0.503381
4224 1 0.578327 0.592137 0.508424
4293 1 0.591944 0.591283 0.504686
4435 1 0.600821 0.598056 0.50169
4496 1 0.604575 0.582717 0.500323
4574 1 0.573508 0.606438 0.510034
4093 1 0.588925 0.603535 0.505754
4021 1 0.58212 0.615819 0.507265
4500 1 0.594444 0.615228 0.503709
4511 1 0.607162 0.609477 0.500941
4436 1 0.575488 0.637069 0.508727
4508 1 0.571792 0.623384 0.510675
4501 1 0.584632 0.628726 0.505931
4355 1 0.597774 0.625968 0.503574
4648 1 0.593056 0.638596 0.50541
4291 1 0.605836 0.634384 0.501987
4646 1 0.615075 0.622492 0.501004
4643 1 0.622813 0.636907 0.499911
4505 1 0.584326 0.64691 0.508824
4585 1 0.596399 0.652057 0.505179
4859 1 0.608205 0.648338 0.502515
4927 1 0.621708 0.649454 0.501395
4642 1 0.573893 0.667917 0.510389
4581 1 0.587787 0.66202 0.509271
4640 1 0.587509 0.67452 0.506458
4788 1 0.600214 0.666869 0.505423
4713 1 0.607191 0.678932 0.504795
4572 1 0.617753 0.672788 0.503098
4790 1 0.611046 0.661263 0.503891
4650 1 0.636574 0.676701 0.501025
4644 1 0.626773 0.663009 0.502785
1619 1 0.992208 0.664233 0.500845
1895 1 1.00012 0.676483 0.505799
4920 1 0.578311 0.683029 0.508954
4851 1 0.586536 0.692017 0.508712
4773 1 0.595575 0.684481 0.506752
4777 1 0.60355 0.696137 0.505403
4780 1 0.613466 0.690673 0.503629
4786 1 0.62742 0.692749 0.501699
4856 1 0.626069 0.681895 0.504337
4987 1 0.639803 0.690611 0.503097
5023 1 0.977705 0.699 0.504237
4823 1 0.975089 0.687851 0.501117
4686 1 0.989063 0.691952 0.50591
4757 1 0.985238 0.680018 0.503695
4769 1 0.592067 0.701969 0.508429
4981 1 0.599339 0.712922 0.508539
4844 1 0.58898 0.717863 0.510499
5059 1 0.60855 0.708552 0.505528
5053 1 0.617095 0.717506 0.504836
4850 1 0.619665 0.704899 0.504007
4641 1 0.63402 0.705364 0.502949
4849 1 0.642096 0.718335 0.502146
4819 1 0.993501 0.704237 0.507267
4884 1 0.992731 0.715838 0.509361
5025 1 0.982105 0.710446 0.504608
4848 1 0.593633 0.729894 0.51005
5123 1 0.605083 0.726877 0.507686
4580 1 0.617405 0.734006 0.507105
4990 1 0.601113 0.741223 0.51134
5002 1 0.629172 0.722451 0.504199
4918 1 0.633358 0.733673 0.505922
5214 1 0.643681 0.732382 0.502072
4949 1 0.973549 0.722978 0.501025
5092 1 0.966113 0.736233 0.500611
5385 1 0.979045 0.738948 0.504253
4896 1 0.987217 0.726264 0.50714
1963 1 0.989702 0.741332 0.507548
4886 1 0.99979 0.730236 0.509863
4626 1 0.599697 0.753248 0.511285
5115 1 0.614925 0.749084 0.509403
4974 1 0.631522 0.745696 0.505372
4917 1 0.637637 0.758694 0.503321
5210 1 0.64407 0.746983 0.503146
4996 1 0.653419 0.757473 0.502041
5048 1 0.657655 0.743695 0.500877
4816 1 0.962116 0.751919 0.500803
5091 1 0.974833 0.751158 0.504524
4891 1 0.988121 0.753604 0.508538
4984 1 0.595561 0.766655 0.510555
2519 1 0.611117 0.764629 0.508632
5144 1 0.615698 0.776407 0.507744
5116 1 0.601669 0.779621 0.508842
4842 1 0.623853 0.763433 0.507886
5054 1 0.634343 0.774584 0.505842
4843 1 0.648436 0.771712 0.503139
5122 1 0.661835 0.769935 0.499987
5238 1 0.951318 0.77899 0.500456
4887 1 0.963147 0.769789 0.501252
5100 1 0.974995 0.764401 0.505335
4961 1 0.976712 0.779014 0.504715
5314 1 0.987612 0.765877 0.509447
4903 1 0.598503 0.793266 0.509521
4905 1 0.613701 0.790504 0.506795
5118 1 0.625893 0.784119 0.506391
2515 1 0.631935 0.794703 0.506469
2310 1 0.642752 0.786608 0.505778
5119 1 0.645272 0.797639 0.506866
5045 1 0.65653 0.782895 0.502951
4986 1 0.658923 0.794117 0.503388
5067 1 0.671061 0.780034 0.499652
5097 1 0.937982 0.783225 0.50002
5174 1 0.926259 0.789233 0.499658
5037 1 0.941889 0.792476 0.504138
4885 1 0.953501 0.790857 0.503539
4966 1 0.963791 0.783873 0.502649
5031 1 0.972077 0.793169 0.507872
5239 1 0.985784 0.781063 0.509453
4827 1 0.981676 0.793332 0.511483
5041 1 0.568552 0.819188 0.51127
5253 1 0.581608 0.816517 0.510975
5129 1 0.592586 0.809172 0.511463
5331 1 0.608573 0.806777 0.509676
5185 1 0.617945 0.819746 0.509112
5111 1 0.621842 0.801877 0.507296
5057 1 0.62953 0.813989 0.508584
5126 1 0.641521 0.807865 0.507698
4916 1 0.655178 0.808415 0.505077
4982 1 0.652524 0.820489 0.506195
5047 1 0.667024 0.809102 0.503032
4992 1 0.677079 0.814057 0.501001
4951 1 0.917505 0.817847 0.502821
5167 1 0.933351 0.800933 0.500505
5021 1 0.92715 0.809873 0.50345
5316 1 0.936844 0.817084 0.505494
5305 1 0.957781 0.801276 0.508058
5029 1 0.943344 0.806026 0.506258
5098 1 0.953935 0.815008 0.50902
5317 1 0.967174 0.804746 0.510345
5112 1 0.569146 0.833089 0.508261
5186 1 0.600405 0.819869 0.511299
5274 1 0.58083 0.831037 0.509403
5191 1 0.592568 0.832061 0.509137
5271 1 0.609643 0.834056 0.508945
5050 1 0.62535 0.831656 0.509094
5131 1 0.637883 0.823124 0.507582
5133 1 0.653123 0.833542 0.506482
5206 1 0.665757 0.823419 0.504348
5145 1 0.665636 0.838369 0.504855
5265 1 0.678777 0.828721 0.50286
5141 1 0.692888 0.8347 0.501233
5311 1 0.915972 0.833506 0.502906
5090 1 0.907349 0.823671 0.501147
5101 1 0.928213 0.825437 0.505153
5456 1 0.939067 0.836902 0.508313
5226 1 0.949252 0.828424 0.5081
5320 1 0.959524 0.836168 0.509797
5263 1 0.559301 0.84848 0.510661
5329 1 0.57193 0.846494 0.510319
2659 1 0.574038 0.859038 0.509777
2376 1 0.583432 0.844854 0.509209
5473 1 0.591507 0.857935 0.510347
5125 1 0.614317 0.845514 0.510561
5341 1 0.600121 0.847335 0.509179
5195 1 0.612866 0.858516 0.510582
5267 1 0.638877 0.84087 0.508699
5130 1 0.626666 0.844066 0.508787
5333 1 0.627896 0.857035 0.508953
5257 1 0.642245 0.854174 0.509078
5056 1 0.653343 0.847442 0.507914
5121 1 0.680225 0.845603 0.503926
5199 1 0.667439 0.853041 0.50571
5194 1 0.693325 0.849459 0.501897
5175 1 0.89535 0.85243 0.499414
5381 1 0.905162 0.841131 0.499937
5242 1 0.91 0.854505 0.502781
5246 1 0.91997 0.849493 0.503574
5236 1 0.929329 0.841726 0.505906
5173 1 0.936846 0.852357 0.50712
5387 1 0.949984 0.846236 0.509306
5455 1 0.958694 0.85254 0.510794
5447 1 0.973106 0.857951 0.512137
5268 1 0.554569 0.878021 0.511565
5260 1 0.567876 0.87588 0.509686
5401 1 0.585371 0.867228 0.51007
5480 1 0.594787 0.875884 0.510325
5395 1 0.602391 0.864502 0.509277
5411 1 0.612215 0.873266 0.510816
5407 1 0.622846 0.870959 0.509258
5326 1 0.631705 0.880762 0.508533
5266 1 0.640488 0.870006 0.507511
5196 1 0.655785 0.864017 0.505809
5343 1 0.650003 0.88086 0.505351
5330 1 0.664983 0.874884 0.504289
5339 1 0.67315 0.866077 0.504751
5345 1 0.700743 0.860873 0.501613
5270 1 0.685023 0.878865 0.503391
5132 1 0.68325 0.860569 0.503147
5187 1 0.701294 0.879762 0.501021
5149 1 0.880174 0.87129 0.502329
5019 1 0.891529 0.869284 0.503371
5315 1 0.900621 0.862429 0.501258
5243 1 0.893005 0.881628 0.504924
5516 1 0.916757 0.866977 0.503783
5443 1 0.90414 0.873276 0.504213
5171 1 0.928177 0.860824 0.505483
5094 1 0.925915 0.876253 0.505581
2737 1 0.939296 0.871082 0.506785
5240 1 0.953218 0.875331 0.508125
5241 1 0.948276 0.859567 0.508637
5511 1 0.963348 0.864817 0.511299
5382 1 0.977387 0.870703 0.510633
5513 1 0.966355 0.877449 0.509753
2660 1 0.576467 0.899617 0.511642
5402 1 0.57918 0.883218 0.510532
5349 1 0.590178 0.888803 0.509709
65 1 0.605931 0.885268 0.510096
5408 1 0.606482 0.898567 0.509853
5327 1 0.61969 0.88889 0.509167
5347 1 0.631287 0.897894 0.508739
5538 1 0.642409 0.888738 0.508427
5264 1 0.659341 0.891211 0.505271
5467 1 0.673139 0.885805 0.503229
5124 1 0.678622 0.895999 0.504517
5340 1 0.689674 0.891803 0.502514
5409 1 0.706509 0.89399 0.500097
5424 1 0.852797 0.889509 0.499476
5217 1 0.857324 0.900752 0.500782
5378 1 0.866049 0.88327 0.502359
5076 1 0.87318 0.896521 0.50429
5301 1 0.878861 0.882743 0.503883
5298 1 0.888836 0.896329 0.506394
5234 1 0.902208 0.887957 0.506211
5027 1 0.914963 0.884509 0.504846
5581 1 0.914284 0.900311 0.505318
5590 1 0.935266 0.885392 0.506486
5374 1 0.927462 0.894191 0.505633
5584 1 0.944111 0.894134 0.507932
5168 1 0.94823 0.885465 0.504848
2848 1 0.96007 0.891683 0.508537
5515 1 0.974987 0.892589 0.508742
5587 1 0.984864 0.882844 0.510904
5448 1 0.985605 0.9 0.510518
5400 1 0.592968 0.902321 0.510344
5392 1 0.58526 0.914636 0.509717
5534 1 0.598859 0.912477 0.508762
5332 1 0.619823 0.902 0.50999
5544 1 0.610773 0.91116 0.5101
5262 1 0.638091 0.908423 0.507354
5548 1 0.625766 0.914767 0.508851
4995 1 0.64819 0.900391 0.507698
5344 1 0.655893 0.910221 0.506068
5404 1 0.641982 0.919193 0.505818
5338 1 0.668687 0.91718 0.504997
5335 1 0.667123 0.903819 0.504621
5337 1 0.682253 0.91154 0.503852
5258 1 0.694842 0.903657 0.502333
5334 1 0.693294 0.917922 0.502436
5469 1 0.715982 0.90294 0.49934
5197 1 0.704417 0.91129 0.501211
5432 1 0.847441 0.906963 0.501305
5136 1 0.853737 0.917817 0.502678
5435 1 0.86436 0.910826 0.503915
5154 1 0.874318 0.919582 0.505945
5370 1 0.879786 0.908035 0.5071
5514 1 0.890686 0.9142 0.506571
5024 1 0.90165 0.901455 0.506691
5445 1 0.903819 0.914669 0.508031
5231 1 0.920233 0.91338 0.506928
5506 1 0.930668 0.906194 0.506882
5365 1 0.952677 0.905066 0.506728
5436 1 0.958306 0.917584 0.508104
5307 1 0.940063 0.912783 0.506621
5377 1 0.968281 0.904191 0.508392
5522 1 0.981 0.910264 0.508281
5520 1 0.991398 0.917948 0.509756
5525 1 0.999095 0.905963 0.510219
2811 1 0.568606 0.924278 0.51204
2943 1 0.583914 0.926751 0.510489
2819 1 0.596942 0.925621 0.509314
5474 1 0.614306 0.926031 0.510579
5475 1 0.628098 0.929044 0.507497
2823 1 0.657013 0.92519 0.505825
5553 1 0.644798 0.933061 0.507192
2888 1 0.662424 0.937067 0.506404
2822 1 0.671071 0.92907 0.504129
5391 1 0.683401 0.925695 0.502842
2883 1 0.689404 0.935446 0.502213
5551 1 0.700953 0.927991 0.500791
5200 1 0.715083 0.932978 0.500026
5361 1 0.838708 0.9205 0.501202
5289 1 0.83615 0.932782 0.500489
5357 1 0.823797 0.934419 0.499824
5294 1 0.851747 0.931155 0.502907
5353 1 0.866036 0.928237 0.503351
5358 1 0.876661 0.936033 0.505075
5304 1 0.886628 0.92658 0.506375
5359 1 0.889193 0.939317 0.504382
5293 1 0.900644 0.928383 0.505068
5368 1 0.914819 0.925889 0.506221
5573 1 0.92249 0.935341 0.505563
5562 1 0.93215 0.920565 0.50578
5579 1 0.938821 0.934642 0.506248
5446 1 0.948383 0.924477 0.506595
5577 1 0.962299 0.931587 0.506888
2849 1 0.970536 0.922495 0.509181
2853 1 0.971307 0.941349 0.50715
5375 1 0.983114 0.929094 0.507798
5451 1 0.997165 0.9314 0.510511
2816 1 0.590079 0.942175 0.512414
5547 1 0.595898 0.955292 0.512033
5539 1 0.604945 0.94137 0.510336
5406 1 0.619432 0.941917 0.509877
3102 1 0.609248 0.955926 0.510217
5543 1 0.632942 0.944797 0.508946
2884 1 0.622659 0.9589 0.509776
2886 1 0.639559 0.961412 0.508129
2824 1 0.650234 0.947276 0.508762
5471 1 0.67714 0.942055 0.503471
2881 1 0.665081 0.949431 0.506029
2961 1 0.678988 0.957232 0.504705
5479 1 0.6908 0.947976 0.502319
5556 1 0.817904 0.950074 0.501284
5427 1 0.831723 0.94805 0.501807
5558 1 0.84738 0.94595 0.501692
5292 1 0.861366 0.943066 0.504398
5433 1 0.858953 0.956614 0.501637
5300 1 0.874231 0.948619 0.50371
5434 1 0.889597 0.953328 0.503168
5509 1 0.902685 0.954663 0.501659
5439 1 0.906025 0.940371 0.504067
5502 1 0.917521 0.949321 0.503457
5568 1 0.9313 0.948846 0.504378
5371 1 0.943802 0.94621 0.504283
2861 1 0.953535 0.940435 0.50616
5444 1 0.947349 0.957957 0.502893
5376 1 0.962336 0.94913 0.505864
5598 1 0.976354 0.953877 0.503529
5599 1 0.996627 0.947209 0.506801
3009 1 0.984664 0.942709 0.50573
5572 1 0.989739 0.956674 0.503892
2875 1 0.586896 0.966726 0.510959
70 1 0.602346 0.969945 0.510826
5403 1 0.613262 0.970853 0.511923
2887 1 0.629237 0.972565 0.508799
3110 1 0.653713 0.963602 0.507189
2959 1 0.646363 0.977318 0.508209
5549 1 0.667543 0.96493 0.506073
2892 1 0.663233 0.977989 0.507134
3031 1 0.694029 0.958616 0.502104
2968 1 0.679482 0.970757 0.504288
5426 1 0.690978 0.974953 0.5039
5278 1 0.70289 0.974453 0.500606
5428 1 0.837507 0.960528 0.501468
5290 1 0.835249 0.975445 0.500893
5279 1 0.822871 0.963202 0.501488
2832 1 0.848657 0.963578 0.501577
5346 1 0.846465 0.980843 0.50207
5367 1 0.862356 0.973644 0.502916
5501 1 0.871396 0.962714 0.502999
5440 1 0.875388 0.976242 0.502306
5560 1 0.885478 0.966597 0.504182
5569 1 0.900457 0.969879 0.503697
5372 1 0.91645 0.963259 0.50262
5575 1 0.912779 0.977572 0.502718
5504 1 0.932998 0.961218 0.502783
5512 1 0.943091 0.970907 0.50102
5380 1 0.958822 0.960595 0.502826
5527 1 0.955247 0.971869 0.500837
5530 1 0.974888 0.966933 0.501913
5600 1 0.969276 0.979709 0.500945
5441 1 0.98761 0.970647 0.503026
5517 1 0.996698 0.977593 0.503271
2891 1 0.612516 0.992179 0.511918
2964 1 0.620714 0.982447 0.509828
2818 1 0.625081 0.999262 0.510302
3029 1 0.634726 0.985733 0.508573
3020 1 0.651424 0.994219 0.507789
3036 1 0.677599 0.983716 0.505704
3168 1 0.669621 0.99485 0.504868
3043 1 0.685793 0.996437 0.503744
2896 1 0.692345 0.985633 0.503661
5486 1 0.705372 0.987642 0.502439
5564 1 0.859496 0.987701 0.501058
5505 1 0.874264 0.992495 0.50062
5498 1 0.891378 0.981524 0.502811
5523 1 0.89143 1.00076 0.500411
2851 1 0.903236 0.987923 0.50173
2857 1 0.920938 0.989868 0.5015
2847 1 0.933003 0.982011 0.501865
2862 1 0.927436 0.998832 0.500313
2864 1 0.940274 0.997435 0.500833
2935 1 0.946665 0.984988 0.500603
2997 1 0.957863 0.988566 0.499629
2738 1 0.994242 0.988251 0.501547
2936 1 0.980692 0.984132 0.501066
1814 1 0.511633 0.506775 0.520339
1538 1 0.520947 0.508803 0.51718
1465 1 0.531894 0.509452 0.514367
4217 1 0.546842 0.509099 0.512386
4345 1 0.511102 0.534831 0.521669
4346 1 0.509558 0.52069 0.520505
4276 1 0.535176 0.522759 0.51554
4211 1 0.521609 0.520779 0.518251
1609 1 0.525844 0.535705 0.518058
4358 1 0.538514 0.535669 0.514656
4208 1 0.547355 0.525665 0.512003
4215 1 0.536099 0.547565 0.518374
4362 1 0.524399 0.548567 0.520364
4283 1 0.550095 0.541998 0.513226
4216 1 0.555502 0.55658 0.511451
4081 1 0.542254 0.5604 0.515484
4280 1 0.52977 0.563053 0.519536
4361 1 0.532706 0.574925 0.520715
4504 1 0.554233 0.57228 0.514247
4639 1 0.543864 0.577222 0.517777
4575 1 0.534061 0.587322 0.521232
4498 1 0.530157 0.600417 0.522011
4426 1 0.555049 0.585862 0.516068
4499 1 0.543119 0.593862 0.516832
4411 1 0.56794 0.582033 0.512335
4365 1 0.560712 0.598531 0.514019
4712 1 0.539771 0.610845 0.51901
4507 1 0.551457 0.60762 0.516067
4370 1 0.562283 0.615225 0.513469
4497 1 0.546495 0.635121 0.522133
4428 1 0.549256 0.62095 0.517432
4557 1 0.558212 0.629103 0.515172
4342 1 0.554406 0.644535 0.516714
4277 1 0.560285 0.657135 0.514749
4638 1 0.573546 0.654414 0.510878
4628 1 0.565797 0.641404 0.512481
4775 1 0.54803 0.664714 0.521446
4569 1 0.540872 0.678309 0.522213
4421 1 0.559625 0.669813 0.516253
4768 1 0.537685 0.693242 0.522261
4415 1 0.55424 0.67926 0.519241
4427 1 0.549873 0.692633 0.519097
4921 1 0.566207 0.683696 0.512517
4631 1 0.576031 0.697004 0.512398
4703 1 0.560702 0.693145 0.5155
4779 1 0.538922 0.706034 0.522671
4434 1 0.552518 0.70756 0.520064
4633 1 0.547103 0.720998 0.520337
4634 1 0.564975 0.703956 0.5165
4847 1 0.571467 0.713477 0.516018
4771 1 0.581705 0.708565 0.51222
4709 1 0.536229 0.733692 0.522976
4562 1 0.54884 0.734413 0.520964
4714 1 0.560222 0.722387 0.51833
4577 1 0.576664 0.728769 0.514158
4571 1 0.563913 0.73688 0.518179
4702 1 0.547427 0.746339 0.52186
4839 1 0.542485 0.757416 0.521411
4697 1 0.559703 0.749949 0.518789
4772 1 0.57567 0.746599 0.51613
4902 1 0.570314 0.758277 0.51516
2022 1 0.584644 0.758875 0.51323
5046 1 0.587439 0.742745 0.513409
4908 1 0.531598 0.770475 0.521588
4561 1 0.555433 0.761213 0.517423
4845 1 0.5467 0.772225 0.519009
4915 1 0.566557 0.772459 0.515121
4980 1 0.579853 0.772311 0.513772
4979 1 0.534306 0.800515 0.521491
4978 1 0.539813 0.783766 0.521061
2308 1 0.556722 0.779998 0.516724
4637 1 0.549936 0.791771 0.519262
4774 1 0.563047 0.792864 0.516465
2240 1 0.573413 0.785715 0.514436
5259 1 0.587725 0.783598 0.513051
4976 1 0.583894 0.797896 0.51171
5179 1 0.994095 0.791755 0.514885
5255 1 0.514502 0.819396 0.522771
4840 1 0.52129 0.80189 0.522256
5049 1 0.527386 0.815744 0.522886
5044 1 0.560333 0.806486 0.516851
5055 1 0.548264 0.802808 0.519208
4906 1 0.542039 0.816792 0.519938
5190 1 0.555299 0.819474 0.514698
4914 1 0.57226 0.802514 0.513541
4954 1 0.975216 0.815188 0.514193
5170 1 0.981745 0.8051 0.513621
2454 1 0.98741 0.820107 0.515891
2456 1 0.993831 0.804283 0.515953
2721 1 0.501594 0.832278 0.521925
2166 1 0.515054 0.831203 0.522289
4909 1 0.528329 0.829221 0.520617
4972 1 0.53736 0.836766 0.518241
2379 1 0.545039 0.829533 0.515409
5251 1 0.557091 0.832605 0.511777
5586 1 0.964606 0.82347 0.512596
4960 1 0.976488 0.829285 0.514339
4956 1 0.993252 0.832565 0.514115
5322 1 0.507311 0.845835 0.520822
2516 1 0.518466 0.855829 0.518034
5189 1 0.5074 0.85772 0.520809
2305 1 0.521467 0.84292 0.519526
2377 1 0.532489 0.85113 0.516516
5261 1 0.546335 0.845835 0.513112
5193 1 0.547172 0.861559 0.512814
5384 1 0.969327 0.844322 0.513005
5595 1 0.986665 0.846307 0.513079
5583 1 0.989847 0.85852 0.512364
2372 1 0.507009 0.87101 0.519903
5042 1 0.532276 0.865145 0.515374
5192 1 0.522256 0.868906 0.518397
2518 1 0.533109 0.881436 0.516082
2513 1 0.542049 0.873511 0.514178
5394 1 0.560538 0.861655 0.510909
5310 1 0.995753 0.873999 0.511611
2655 1 0.519703 0.883688 0.51831
5183 1 0.50637 0.882885 0.518615
2589 1 0.509551 0.897796 0.518984
5188 1 0.538001 0.89578 0.51673
2590 1 0.52205 0.895384 0.516706
2520 1 0.547944 0.889324 0.512518
5470 1 0.566112 0.888776 0.511223
5450 1 0.995726 0.891933 0.510714
5256 1 0.507924 0.911337 0.51891
5541 1 0.520268 0.909349 0.515858
2652 1 0.532617 0.909598 0.515872
5254 1 0.548926 0.901572 0.514297
2730 1 0.545946 0.917022 0.515104
5540 1 0.559184 0.915968 0.51407
5399 1 0.5611 0.902448 0.513028
5325 1 0.5734 0.91169 0.511443
62 1 0.506522 0.935627 0.518869
55 1 0.504469 0.923115 0.518826
2717 1 0.520123 0.921524 0.516377
2729 1 0.532554 0.921915 0.517407
2658 1 0.533339 0.93463 0.516386
5393 1 0.522041 0.936627 0.517739
5252 1 0.546059 0.928951 0.514925
5464 1 0.558062 0.930555 0.514155
5536 1 0.573615 0.938293 0.512737
127 1 0.500483 0.951832 0.521635
5323 1 0.512912 0.952779 0.51946
2793 1 0.526176 0.952292 0.516254
5114 1 0.536614 0.944999 0.515265
5396 1 0.547035 0.943919 0.514264
5462 1 0.553039 0.958093 0.514742
2813 1 0.58133 0.949967 0.511447
5461 1 0.562773 0.945562 0.513079
5321 1 0.513003 0.964583 0.521083
5398 1 0.539465 0.958272 0.515271
2789 1 0.525995 0.967076 0.51926
5465 1 0.542203 0.973698 0.517061
59 1 0.557881 0.970219 0.514131
2880 1 0.569423 0.961077 0.513373
5537 1 0.573982 0.974701 0.513351
2649 1 0.532219 0.983561 0.521269
2809 1 0.543812 0.991331 0.520694
5546 1 0.553807 0.984812 0.516909
2815 1 0.557982 0.996441 0.518341
2882 1 0.569026 0.987882 0.516155
2800 1 0.58173 0.989569 0.516164
3028 1 0.587604 0.978383 0.513149
2949 1 0.595366 0.993861 0.514707
5472 1 0.603211 0.983412 0.513202
1328 1 0.50177 0.509417 0.523636
4294 1 0.500611 0.522585 0.524675
4351 1 0.502736 0.556176 0.52785
4085 1 0.51161 0.547627 0.523767
4360 1 0.517987 0.561981 0.524041
4431 1 0.506017 0.571519 0.527584
4424 1 0.520081 0.576228 0.523227
4357 1 0.506453 0.584735 0.528605
4423 1 0.509699 0.600765 0.530375
4148 1 0.519321 0.591001 0.525264
4489 1 0.511547 0.617134 0.53283
4647 1 0.519644 0.608289 0.528107
4495 1 0.526559 0.616319 0.523554
4493 1 0.517388 0.635261 0.532117
4292 1 0.53755 0.624226 0.52364
4567 1 0.522323 0.62362 0.529306
4564 1 0.528128 0.633757 0.52729
4692 1 0.513707 0.651544 0.532418
4705 1 0.536016 0.643511 0.525859
4635 1 0.523253 0.645946 0.529034
4625 1 0.53392 0.657971 0.526472
4560 1 0.545038 0.650757 0.523412
2237 1 0.508363 0.677704 0.532889
2099 1 0.519981 0.664013 0.530671
4565 1 0.532962 0.671498 0.526147
2299 1 0.519888 0.679059 0.529928
4559 1 0.505812 0.689737 0.530847
2169 1 0.519922 0.692713 0.527604
4971 1 0.529751 0.685521 0.524821
2094 1 0.510603 0.7163 0.530039
4570 1 0.513963 0.704391 0.528156
4630 1 0.522896 0.716124 0.52724
4765 1 0.527622 0.703555 0.525657
4764 1 0.508365 0.733407 0.5288
4770 1 0.535797 0.719534 0.523451
2371 1 0.52329 0.731966 0.52627
2653 1 0.507872 0.746437 0.527986
4762 1 0.516899 0.759637 0.527849
4704 1 0.520823 0.74453 0.527315
4707 1 0.534467 0.746418 0.524341
4907 1 0.503027 0.761101 0.52657
4913 1 0.50991 0.771807 0.524252
5051 1 0.520695 0.77588 0.524051
2027 1 0.526696 0.759265 0.523659
4486 1 0.515217 0.787268 0.523781
4698 1 0.504117 0.795329 0.526406
4901 1 0.50509 0.781746 0.527184
4699 1 0.528035 0.786707 0.522961
4700 1 0.51064 0.805529 0.523586
2441 1 0.50153 0.82053 0.524727
5533 1 0.516649 0.977833 0.523768
197 1 0.504089 0.975983 0.526063
5463 1 0.500611 0.964378 0.524003
2797 1 0.507005 0.989315 0.527437
2725 1 0.519751 0.995519 0.52559
2794 1 0.531977 0.999635 0.52552
4487 1 0.502777 0.610247 0.53371
4553 1 0.507903 0.627651 0.535672
4706 1 0.503416 0.645269 0.534244
4624 1 0.503005 0.663235 0.535366
