ITEM: TIMESTEP
399800
ITEM: NUMBER OF ATOMS
5600
ITEM: BOX BOUNDS pp pp pp
-3.3284999999999989e+01 3.3284999999999989e+01
-3.2943606359959993e+01 3.2943606359959993e+01
-5.7059999999999988e+01 5.7059999999999988e+01
ITEM: ATOMS id type xs ys zs
766 1 0.391051 0.236381 0.374254
696 1 0.407412 0.238403 0.372056
763 1 0.402638 0.223531 0.374928
695 1 0.419612 0.226356 0.374002
698 1 0.435305 0.232925 0.371545
629 1 0.45082 0.234679 0.370738
627 1 0.446333 0.219971 0.373364
3361 1 0.464326 0.221861 0.372777
770 1 0.469305 0.237255 0.371732
3503 1 0.497048 0.231401 0.374962
3432 1 0.481115 0.228129 0.371512
764 1 0.381371 0.250494 0.374928
836 1 0.397166 0.251626 0.370195
838 1 0.412078 0.254137 0.366628
697 1 0.423466 0.241436 0.368772
767 1 0.427651 0.255531 0.365998
694 1 0.440787 0.246378 0.367493
3571 1 0.447088 0.260306 0.366096
699 1 0.455643 0.24591 0.367055
3574 1 0.473655 0.25188 0.367873
3434 1 0.485245 0.241881 0.369347
3502 1 0.489323 0.257107 0.369923
758 1 0.364559 0.277968 0.374131
762 1 0.376125 0.26658 0.374215
833 1 0.389486 0.261617 0.370446
830 1 0.379965 0.281684 0.371535
834 1 0.393346 0.278379 0.368715
760 1 0.401072 0.265501 0.367335
837 1 0.407045 0.279184 0.366375
3643 1 0.423766 0.277949 0.366751
839 1 0.415914 0.267638 0.364185
768 1 0.437769 0.269325 0.367913
3573 1 0.450353 0.273887 0.367197
3507 1 0.461574 0.262747 0.36768
3436 1 0.478153 0.26885 0.368025
3504 1 0.466655 0.276883 0.366462
3575 1 0.493663 0.272677 0.370256
829 1 0.355249 0.293176 0.374812
975 1 0.370048 0.297146 0.373014
907 1 0.384845 0.29657 0.369474
3641 1 0.39739 0.292621 0.366901
903 1 0.407367 0.304129 0.367369
906 1 0.418354 0.291839 0.36689
3645 1 0.437267 0.290633 0.365931
3644 1 0.452363 0.287293 0.367367
3715 1 0.440534 0.302115 0.369459
3717 1 0.467185 0.292887 0.367735
3646 1 0.482003 0.284413 0.369009
909 1 0.495244 0.295116 0.371493
840 1 0.482811 0.30161 0.369231
831 1 0.358149 0.308609 0.374592
823 1 0.366382 0.320172 0.370708
755 1 0.376475 0.311159 0.370326
905 1 0.382638 0.325751 0.367124
828 1 0.390475 0.306682 0.367285
904 1 0.395714 0.31977 0.366536
835 1 0.413567 0.318999 0.365971
908 1 0.425662 0.308428 0.366346
3713 1 0.439997 0.317597 0.367711
3647 1 0.45331 0.306277 0.367311
3714 1 0.456014 0.32284 0.366839
3721 1 0.469888 0.310743 0.367757
3650 1 0.482308 0.316861 0.370102
3722 1 0.492044 0.325741 0.371448
686 1 0.355701 0.327382 0.3749
972 1 0.362343 0.340314 0.374161
832 1 0.37297 0.332795 0.370839
902 1 0.383564 0.344672 0.371851
1047 1 0.408577 0.331159 0.368876
973 1 0.394409 0.336299 0.369275
1044 1 0.41057 0.346222 0.370682
3642 1 0.42662 0.32696 0.367052
976 1 0.424878 0.341836 0.368791
977 1 0.440647 0.332646 0.368574
3719 1 0.45466 0.340172 0.370009
3648 1 0.470439 0.328969 0.368
979 1 0.469168 0.345911 0.37087
3712 1 0.482152 0.336947 0.371563
895 1 0.372494 0.349117 0.374487
970 1 0.395885 0.351651 0.374156
974 1 0.424557 0.358986 0.372245
3711 1 0.439261 0.350124 0.371193
1046 1 0.440181 0.363636 0.374788
910 1 0.455308 0.355252 0.373051
3851 1 0.471894 0.362518 0.37469
619 1 0.424586 0.188455 0.387023
628 1 0.441645 0.192962 0.384458
3229 1 0.4663 0.186165 0.387078
3298 1 0.483068 0.188373 0.386176
3225 1 0.499368 0.191259 0.384495
538 1 0.326894 0.21727 0.387447
685 1 0.369962 0.20682 0.385371
623 1 0.385252 0.209912 0.383901
625 1 0.399003 0.211336 0.381195
616 1 0.396736 0.197587 0.386844
621 1 0.411581 0.200437 0.383991
3501 1 0.429167 0.202435 0.381244
691 1 0.415265 0.213553 0.378447
550 1 0.446175 0.206186 0.378663
626 1 0.454918 0.19572 0.38368
3291 1 0.471227 0.199041 0.382823
3292 1 0.461399 0.20938 0.377473
700 1 0.478193 0.213441 0.376531
3294 1 0.48788 0.203124 0.380768
3362 1 0.493588 0.216543 0.375459
536 1 0.314701 0.230857 0.386708
540 1 0.331188 0.232839 0.386816
681 1 0.345668 0.230843 0.383323
684 1 0.356356 0.219994 0.384511
759 1 0.361091 0.233053 0.381183
618 1 0.371555 0.221324 0.381789
622 1 0.376209 0.235687 0.379352
765 1 0.386607 0.224049 0.379062
769 1 0.432799 0.217562 0.376669
678 1 0.30343 0.240666 0.386414
613 1 0.317966 0.245904 0.384167
606 1 0.308371 0.25906 0.383905
692 1 0.338943 0.24682 0.383747
671 1 0.327743 0.258994 0.382957
677 1 0.343571 0.260806 0.381084
761 1 0.366479 0.25172 0.377907
690 1 0.351467 0.248473 0.381901
752 1 0.301499 0.27343 0.383758
680 1 0.292563 0.265361 0.387198
669 1 0.316438 0.272911 0.38101
608 1 0.334743 0.275753 0.380758
821 1 0.359542 0.263205 0.377348
753 1 0.348114 0.278009 0.376297
672 1 0.295455 0.286842 0.384587
883 1 0.290835 0.299292 0.38635
817 1 0.3039 0.302036 0.383603
744 1 0.324346 0.286121 0.380545
754 1 0.318999 0.299252 0.378076
748 1 0.308998 0.289282 0.381519
679 1 0.331806 0.30321 0.377177
687 1 0.339713 0.291379 0.378117
822 1 0.295171 0.311991 0.386627
820 1 0.31733 0.313956 0.379567
826 1 0.305097 0.320211 0.383647
610 1 0.3456 0.304505 0.377484
825 1 0.346238 0.321674 0.378772
757 1 0.332138 0.3168 0.377967
607 1 0.318438 0.333115 0.381616
819 1 0.304363 0.335713 0.38572
824 1 0.317005 0.345769 0.386446
749 1 0.332988 0.331515 0.38048
1027 1 0.331096 0.345272 0.382725
901 1 0.345265 0.339009 0.378498
3789 1 0.496026 0.340203 0.375253
816 1 0.34437 0.354528 0.38178
892 1 0.327458 0.356256 0.387269
961 1 0.339221 0.369163 0.386752
897 1 0.358299 0.354903 0.377462
899 1 0.352942 0.366678 0.383359
896 1 0.37065 0.364482 0.380066
1045 1 0.38344 0.358018 0.377408
971 1 0.410878 0.361314 0.375014
1040 1 0.396395 0.365154 0.379117
1048 1 0.454323 0.367533 0.377343
3783 1 0.482797 0.350178 0.375137
3781 1 0.483454 0.368576 0.379323
3718 1 0.497334 0.356546 0.379921
963 1 0.36557 0.377893 0.383477
900 1 0.381094 0.373167 0.382035
967 1 0.379237 0.388861 0.385847
1043 1 0.410829 0.373464 0.381188
827 1 0.395708 0.381754 0.383007
1037 1 0.410068 0.388904 0.387047
1115 1 0.424696 0.371608 0.377274
1041 1 0.424485 0.382073 0.384026
1187 1 0.437513 0.386221 0.385269
1117 1 0.438592 0.375556 0.379755
978 1 0.45357 0.379925 0.382719
1049 1 0.46872 0.374709 0.380085
980 1 0.466824 0.38594 0.387025
3782 1 0.497871 0.370926 0.3838
3784 1 0.481433 0.378726 0.385929
545 1 0.387671 0.173109 0.399535
549 1 0.403396 0.17375 0.396111
554 1 0.415264 0.163097 0.39988
488 1 0.430595 0.167707 0.395604
624 1 0.445034 0.169959 0.394362
560 1 0.476371 0.160743 0.395838
558 1 0.462741 0.169876 0.393911
557 1 0.457006 0.157726 0.398296
555 1 0.489419 0.16514 0.396008
532 1 0.295318 0.192536 0.399985
544 1 0.320045 0.185135 0.398365
470 1 0.333877 0.188852 0.39327
693 1 0.341676 0.178797 0.398724
609 1 0.350407 0.190666 0.392504
751 1 0.361151 0.18065 0.396612
689 1 0.365205 0.192879 0.389816
612 1 0.375886 0.181095 0.394418
615 1 0.380158 0.195534 0.388145
683 1 0.392793 0.185503 0.392072
474 1 0.408629 0.186745 0.389007
617 1 0.419876 0.17852 0.393101
556 1 0.434643 0.181955 0.390646
552 1 0.453028 0.183384 0.389391
3295 1 0.476814 0.175229 0.391712
3223 1 0.49471 0.177824 0.389712
603 1 0.284619 0.205975 0.398648
602 1 0.297919 0.208986 0.394391
593 1 0.310158 0.195684 0.394913
531 1 0.320745 0.200986 0.391427
605 1 0.311727 0.215696 0.389496
688 1 0.34261 0.216671 0.387578
682 1 0.336339 0.203051 0.389877
466 1 0.353821 0.204967 0.388277
596 1 0.274525 0.221264 0.399456
601 1 0.274948 0.236126 0.396607
528 1 0.288381 0.222765 0.395838
604 1 0.289756 0.237391 0.39273
676 1 0.300076 0.224464 0.389377
667 1 0.253522 0.260437 0.399333
675 1 0.280126 0.249048 0.393983
665 1 0.265271 0.249344 0.3978
673 1 0.291961 0.251027 0.390087
809 1 0.259483 0.275722 0.398152
750 1 0.268306 0.262371 0.395888
746 1 0.273827 0.276371 0.392833
747 1 0.279745 0.26114 0.39222
674 1 0.28509 0.281642 0.389266
745 1 0.278761 0.295769 0.389403
808 1 0.266417 0.288717 0.395115
742 1 0.269512 0.301712 0.394022
805 1 0.269723 0.31347 0.397021
814 1 0.282291 0.309781 0.388327
818 1 0.28187 0.321347 0.39464
891 1 0.26495 0.325454 0.399604
756 1 0.294845 0.325316 0.389247
815 1 0.277806 0.337541 0.39704
893 1 0.29227 0.338702 0.392489
884 1 0.300231 0.348839 0.39085
959 1 0.299443 0.360411 0.39654
882 1 0.288223 0.352278 0.397716
885 1 0.312457 0.358896 0.392974
960 1 0.322454 0.383891 0.39879
1028 1 0.310932 0.375369 0.398038
889 1 0.324026 0.370477 0.393343
898 1 0.335719 0.382853 0.393054
894 1 0.35038 0.379984 0.38796
969 1 0.363284 0.389072 0.389674
1257 1 0.450159 0.390476 0.389532
3852 1 0.493902 0.385037 0.390551
1119 1 0.480097 0.390551 0.393059
966 1 0.3369 0.395593 0.399142
962 1 0.348554 0.394397 0.395775
1035 1 0.362235 0.40099 0.395687
965 1 0.379945 0.402012 0.391101
1038 1 0.375717 0.412002 0.395908
964 1 0.393371 0.396561 0.388311
1109 1 0.391749 0.408066 0.394216
1039 1 0.406954 0.403452 0.391075
1113 1 0.423264 0.395132 0.389267
1042 1 0.420218 0.41028 0.393922
1116 1 0.436907 0.400159 0.390958
1118 1 0.450268 0.404 0.395625
1189 1 0.465204 0.397999 0.392836
1050 1 0.478034 0.40772 0.397303
1112 1 0.462443 0.411526 0.39974
3923 1 0.493424 0.398715 0.395792
1183 1 0.40734 0.413426 0.397148
1114 1 0.434677 0.41306 0.396734
1182 1 0.422336 0.422233 0.39997
277 1 0.477189 0.12888 0.411367
3151 1 0.495596 0.126838 0.410388
546 1 0.393995 0.150879 0.410185
547 1 0.41205 0.151441 0.406133
548 1 0.422731 0.14289 0.410131
485 1 0.449956 0.135194 0.410832
487 1 0.437446 0.14495 0.406411
551 1 0.452837 0.14628 0.40404
3081 1 0.476282 0.143809 0.405211
418 1 0.465064 0.136669 0.406377
3222 1 0.488323 0.151431 0.402136
350 1 0.486881 0.137992 0.407384
3221 1 0.498868 0.140761 0.403704
524 1 0.284958 0.166457 0.41235
537 1 0.302025 0.166452 0.407465
469 1 0.313191 0.157825 0.410046
465 1 0.325402 0.162813 0.408088
460 1 0.314102 0.170328 0.403321
542 1 0.342461 0.167587 0.405561
611 1 0.328082 0.173879 0.401076
614 1 0.355315 0.172266 0.403053
539 1 0.356229 0.161059 0.411491
541 1 0.370859 0.163787 0.407965
400 1 0.38474 0.16341 0.40556
620 1 0.37247 0.172407 0.401123
543 1 0.401713 0.162977 0.402942
480 1 0.427817 0.154863 0.402167
486 1 0.442158 0.158844 0.400253
559 1 0.468387 0.152401 0.400902
589 1 0.250232 0.189074 0.411194
520 1 0.265099 0.193145 0.408633
595 1 0.280877 0.192137 0.404563
522 1 0.274999 0.17943 0.41087
529 1 0.292186 0.178637 0.405718
530 1 0.305146 0.181089 0.401033
587 1 0.207936 0.20863 0.408682
666 1 0.237431 0.197892 0.40908
661 1 0.223897 0.212074 0.407246
664 1 0.221453 0.19592 0.411326
597 1 0.24209 0.214896 0.405674
594 1 0.253584 0.202691 0.405753
591 1 0.257014 0.21674 0.40305
592 1 0.267789 0.204093 0.402169
659 1 0.211405 0.225935 0.406879
657 1 0.202225 0.236322 0.409447
870 1 0.197092 0.220884 0.409195
658 1 0.228687 0.224663 0.404538
599 1 0.260761 0.234009 0.4004
598 1 0.244363 0.229074 0.403505
734 1 0.192812 0.249866 0.412053
733 1 0.209099 0.252006 0.408667
600 1 0.217073 0.24067 0.405329
660 1 0.234195 0.240765 0.404045
662 1 0.22415 0.254128 0.405687
738 1 0.248347 0.246984 0.402663
741 1 0.242165 0.26018 0.402571
737 1 0.214786 0.266851 0.409497
730 1 0.207421 0.280196 0.411335
732 1 0.199563 0.263281 0.412456
807 1 0.230478 0.270561 0.4059
670 1 0.219313 0.281093 0.407922
743 1 0.245849 0.273705 0.40244
869 1 0.213851 0.295875 0.410616
668 1 0.237595 0.285755 0.404345
802 1 0.227967 0.294855 0.406949
877 1 0.258355 0.301275 0.400784
800 1 0.252172 0.287197 0.400302
801 1 0.245346 0.302096 0.403656
873 1 0.216091 0.311862 0.411603
740 1 0.233149 0.305951 0.407913
879 1 0.229661 0.323106 0.410098
803 1 0.242797 0.31952 0.407472
739 1 0.255931 0.316286 0.40158
875 1 0.237706 0.333547 0.410095
813 1 0.25326 0.329565 0.404695
811 1 0.249749 0.342393 0.407756
812 1 0.263053 0.339904 0.402888
1023 1 0.245769 0.350708 0.411978
952 1 0.260893 0.350634 0.407216
957 1 0.273911 0.353189 0.401101
887 1 0.271163 0.363874 0.407459
953 1 0.28407 0.366049 0.403258
890 1 0.298308 0.376717 0.402995
1025 1 0.282977 0.375433 0.40887
888 1 0.2956 0.38771 0.40931
1029 1 0.3085 0.386609 0.404018
1102 1 0.324769 0.397118 0.405027
1093 1 0.307054 0.396925 0.410628
1101 1 0.33816 0.404921 0.406388
968 1 0.349982 0.406175 0.401781
3854 1 0.491127 0.412242 0.400372
1031 1 0.362352 0.415595 0.401093
1030 1 0.350312 0.415185 0.408613
1107 1 0.3612 0.425457 0.408259
1108 1 0.377141 0.421677 0.403605
1104 1 0.391138 0.431576 0.40712
1036 1 0.376719 0.431762 0.411991
1111 1 0.392596 0.420979 0.400206
1110 1 0.406169 0.425771 0.403962
1181 1 0.418246 0.43379 0.407618
1184 1 0.434591 0.424776 0.404578
1188 1 0.448062 0.419691 0.400303
3991 1 0.446573 0.430745 0.40794
1120 1 0.477874 0.417509 0.402091
1185 1 0.460235 0.422909 0.404281
3992 1 0.47441 0.430713 0.407329
3921 1 0.493319 0.425135 0.405294
1253 1 0.402242 0.435929 0.411515
1259 1 0.435533 0.437854 0.411977
1330 1 0.458962 0.436278 0.411695
3993 1 0.491023 0.435748 0.412043
3011 1 0.471642 0.104209 0.422917
2874 1 0.497516 0.0935166 0.423607
3013 1 0.486148 0.105721 0.420841
479 1 0.413362 0.123469 0.424137
484 1 0.429604 0.123323 0.41919
416 1 0.441476 0.115863 0.422838
553 1 0.448063 0.124691 0.416229
419 1 0.462538 0.124636 0.414743
348 1 0.459316 0.114078 0.421171
279 1 0.475325 0.11609 0.41636
3082 1 0.488403 0.117141 0.414933
523 1 0.26255 0.150482 0.423487
458 1 0.276382 0.144624 0.424514
462 1 0.292423 0.145144 0.419991
396 1 0.321702 0.138783 0.422544
534 1 0.30909 0.147754 0.418854
468 1 0.322268 0.14947 0.41472
535 1 0.335153 0.145251 0.420582
397 1 0.348551 0.139914 0.423944
401 1 0.364145 0.141455 0.421607
399 1 0.350155 0.149293 0.41812
477 1 0.391104 0.132377 0.424017
472 1 0.377842 0.143552 0.419399
403 1 0.373953 0.131553 0.424893
478 1 0.392033 0.143093 0.417033
476 1 0.405275 0.141059 0.412873
475 1 0.403102 0.132876 0.420048
489 1 0.416799 0.132055 0.416243
482 1 0.433494 0.133817 0.41353
585 1 0.209905 0.169641 0.422483
580 1 0.195867 0.171331 0.423788
446 1 0.227788 0.171833 0.420384
447 1 0.240466 0.16479 0.420923
519 1 0.254988 0.164427 0.419875
521 1 0.271144 0.160837 0.417851
526 1 0.283713 0.153776 0.419106
527 1 0.299311 0.154611 0.413267
533 1 0.338285 0.153395 0.413118
398 1 0.38301 0.152996 0.414792
471 1 0.370447 0.15258 0.415119
796 1 0.147133 0.190086 0.424218
728 1 0.162776 0.191197 0.423432
584 1 0.186273 0.182425 0.422541
794 1 0.174011 0.192063 0.420899
588 1 0.188599 0.192462 0.417302
590 1 0.202323 0.182647 0.417756
516 1 0.21661 0.181806 0.416007
518 1 0.23317 0.184932 0.414235
517 1 0.244061 0.176291 0.417535
448 1 0.261994 0.177213 0.413838
722 1 0.125544 0.19783 0.424199
578 1 0.13901 0.202788 0.423781
791 1 0.152552 0.202772 0.421964
790 1 0.165213 0.20511 0.419616
792 1 0.153484 0.215652 0.419711
797 1 0.179219 0.205831 0.416853
586 1 0.193355 0.205578 0.412733
663 1 0.203642 0.19644 0.413723
723 1 0.138745 0.218556 0.423141
799 1 0.146506 0.228089 0.421714
720 1 0.135734 0.237004 0.424488
795 1 0.171779 0.221028 0.417756
729 1 0.160135 0.231851 0.419992
725 1 0.184887 0.218657 0.41544
864 1 0.174749 0.236488 0.416992
731 1 0.188437 0.234528 0.413246
935 1 0.149987 0.2453 0.422405
727 1 0.161799 0.248858 0.41959
736 1 0.18076 0.252447 0.417455
937 1 0.170342 0.261107 0.421306
1006 1 0.164915 0.276704 0.424318
868 1 0.155359 0.261376 0.42489
871 1 0.18428 0.266266 0.418662
867 1 0.192982 0.278778 0.416163
798 1 0.169408 0.291233 0.423991
936 1 0.179615 0.283372 0.419929
874 1 0.187617 0.295462 0.419894
804 1 0.177919 0.304073 0.422467
735 1 0.199338 0.292009 0.415605
876 1 0.194328 0.311093 0.419289
863 1 0.178557 0.317549 0.422399
940 1 0.193734 0.325392 0.419737
810 1 0.20484 0.306476 0.414132
944 1 0.209445 0.32166 0.415901
946 1 0.189767 0.33891 0.422555
939 1 0.179028 0.330325 0.424082
943 1 0.206216 0.337398 0.419411
806 1 0.220944 0.331044 0.414791
955 1 0.231101 0.342867 0.41563
880 1 0.219793 0.346335 0.419086
954 1 0.215809 0.362666 0.422112
951 1 0.203899 0.350633 0.422194
878 1 0.230511 0.357601 0.417876
948 1 0.255488 0.361477 0.412927
881 1 0.242424 0.363887 0.417072
956 1 0.227888 0.370567 0.423609
1016 1 0.241669 0.380257 0.424159
949 1 0.254723 0.373627 0.418771
1094 1 0.26937 0.37247 0.413641
886 1 0.26792 0.385712 0.418321
1091 1 0.281508 0.383968 0.414821
958 1 0.281762 0.395299 0.422474
1095 1 0.29377 0.39575 0.416717
1022 1 0.307893 0.403921 0.418921
1026 1 0.322868 0.403912 0.413403
1171 1 0.320334 0.414741 0.41992
1096 1 0.334627 0.4154 0.413588
1032 1 0.336334 0.425141 0.42165
1033 1 0.348519 0.424107 0.415206
1103 1 0.360958 0.434854 0.416482
1105 1 0.348099 0.435497 0.422354
1106 1 0.388551 0.440135 0.414494
1179 1 0.374465 0.440971 0.420549
1247 1 0.389615 0.449943 0.422385
1180 1 0.404906 0.447243 0.419524
1186 1 0.418121 0.442501 0.413964
1256 1 0.433273 0.448156 0.4202
1249 1 0.418256 0.4539 0.421851
4062 1 0.44727 0.442162 0.416746
4061 1 0.447223 0.452785 0.422977
1190 1 0.47447 0.441844 0.414002
1258 1 0.460524 0.44892 0.420406
3922 1 0.486839 0.45014 0.419656
1325 1 0.431365 0.460586 0.42436
4065 1 0.471848 0.45671 0.421433
2804 1 0.499362 0.0534268 0.434943
66 1 0.4749 0.0662811 0.436018
210 1 0.465708 0.080777 0.434776
139 1 0.478987 0.0821407 0.430438
2872 1 0.495271 0.0791558 0.429132
2802 1 0.488409 0.0664082 0.432864
415 1 0.424894 0.0991333 0.433863
2941 1 0.454021 0.103706 0.426852
140 1 0.450142 0.0906445 0.432206
347 1 0.438412 0.0895539 0.435133
417 1 0.440909 0.102437 0.429137
2943 1 0.465096 0.0925696 0.427288
2942 1 0.481916 0.0914826 0.425169
385 1 0.285641 0.123697 0.435289
525 1 0.300389 0.125747 0.431675
464 1 0.317018 0.128749 0.43016
394 1 0.330896 0.124739 0.434792
463 1 0.34759 0.126771 0.431463
326 1 0.354947 0.121993 0.437308
467 1 0.361356 0.13038 0.427808
328 1 0.369278 0.121181 0.43243
331 1 0.385932 0.122288 0.430153
412 1 0.399453 0.1226 0.428198
483 1 0.412821 0.11239 0.431543
406 1 0.39774 0.113511 0.433991
349 1 0.425549 0.114755 0.428443
581 1 0.205543 0.149413 0.434462
445 1 0.232147 0.139057 0.434186
514 1 0.219688 0.147525 0.431741
515 1 0.237264 0.149974 0.429126
451 1 0.248644 0.138224 0.431182
452 1 0.259942 0.141348 0.429796
382 1 0.257353 0.130464 0.43577
384 1 0.274354 0.133351 0.431607
453 1 0.289719 0.135404 0.426802
456 1 0.305402 0.137258 0.42542
395 1 0.333063 0.133128 0.42754
577 1 0.120153 0.16598 0.435647
649 1 0.13794 0.164862 0.434848
579 1 0.154931 0.162486 0.431224
655 1 0.168493 0.165062 0.430323
582 1 0.166523 0.152884 0.435911
653 1 0.185545 0.165288 0.427659
652 1 0.18419 0.154056 0.433729
651 1 0.199611 0.157912 0.429385
583 1 0.214677 0.160283 0.427653
512 1 0.23093 0.157968 0.425911
450 1 0.248889 0.153502 0.425854
645 1 0.0864423 0.192365 0.435437
719 1 0.103277 0.192098 0.431872
576 1 0.09909 0.178116 0.436081
434 1 0.114509 0.17654 0.433029
650 1 0.127288 0.176117 0.429058
647 1 0.113841 0.186831 0.428161
724 1 0.143689 0.174049 0.428859
654 1 0.133105 0.187249 0.425575
721 1 0.159317 0.177297 0.426984
656 1 0.174801 0.177912 0.426129
702 1 0.0187562 0.204681 0.437426
772 1 0.0354952 0.210921 0.43509
781 1 0.0511229 0.209734 0.434867
775 1 0.0621664 0.198969 0.434926
778 1 0.0451764 0.196406 0.436252
714 1 0.0789215 0.205287 0.434309
712 1 0.0669545 0.212398 0.432433
646 1 0.0958543 0.207613 0.432974
716 1 0.113009 0.201738 0.428448
648 1 0.125461 0.211575 0.426173
3638 1 0.0104043 0.218631 0.434881
3640 1 0.00917216 0.232932 0.432064
773 1 0.0239653 0.22061 0.434593
3709 1 0.0376666 0.224833 0.432245
777 1 0.0245405 0.23522 0.433229
780 1 0.052997 0.22418 0.431973
841 1 0.0568608 0.237748 0.432092
783 1 0.0695871 0.228418 0.434616
644 1 0.0816316 0.223431 0.432125
574 1 0.0853323 0.237144 0.432649
718 1 0.0987165 0.225647 0.431229
717 1 0.111083 0.217716 0.430664
857 1 0.126114 0.225322 0.426611
788 1 0.112421 0.234492 0.430502
771 1 0.0100508 0.248322 0.432532
3569 1 0.0262959 0.250381 0.432213
849 1 0.0421336 0.240023 0.431586
847 1 0.0396167 0.259311 0.43352
922 1 0.0543543 0.254515 0.432388
850 1 0.0712564 0.244441 0.432057
782 1 0.0842563 0.252998 0.431745
851 1 0.0984251 0.243338 0.431447
852 1 0.0976149 0.260065 0.431725
785 1 0.110918 0.25426 0.43144
793 1 0.124124 0.243523 0.429014
789 1 0.138501 0.254583 0.426728
3707 1 0.00432057 0.261404 0.430384
843 1 0.0107551 0.280358 0.430413
3706 1 0.0233774 0.266367 0.431622
704 1 0.04083 0.276931 0.434511
3775 1 0.0555201 0.270403 0.435075
920 1 0.0708788 0.26326 0.431969
925 1 0.0846233 0.269467 0.433808
855 1 0.0693672 0.277815 0.435046
921 1 0.0965138 0.276695 0.434315
859 1 0.127056 0.262265 0.430557
784 1 0.110352 0.268495 0.433256
860 1 0.127594 0.277642 0.43152
858 1 0.11293 0.282341 0.434645
865 1 0.139121 0.270534 0.428211
726 1 0.151963 0.276015 0.427291
915 1 0.00917775 0.2942 0.433805
776 1 0.0259646 0.284772 0.433504
854 1 0.0393688 0.293857 0.436611
846 1 0.0255508 0.299083 0.436419
845 1 0.0550375 0.287275 0.43556
715 1 0.0834998 0.286314 0.436004
642 1 0.100229 0.291958 0.437102
934 1 0.128382 0.295797 0.432811
929 1 0.114342 0.296795 0.435616
933 1 0.139696 0.288646 0.429189
938 1 0.151231 0.303675 0.430707
866 1 0.155566 0.291937 0.427929
861 1 0.12159 0.308323 0.435939
862 1 0.138806 0.305779 0.433692
1003 1 0.141681 0.317286 0.435269
1005 1 0.154494 0.315623 0.431525
1008 1 0.166003 0.308161 0.427296
872 1 0.166982 0.326832 0.428601
941 1 0.152405 0.329138 0.434784
1009 1 0.164023 0.3421 0.43406
1013 1 0.17529 0.342621 0.428906
1079 1 0.172751 0.356853 0.432994
945 1 0.187119 0.350624 0.427624
1087 1 0.186471 0.365408 0.432595
947 1 0.201286 0.360937 0.427155
1014 1 0.211693 0.374348 0.427621
1015 1 0.198125 0.37478 0.431418
1090 1 0.211812 0.385418 0.434046
1092 1 0.224818 0.381505 0.428505
1099 1 0.25431 0.387575 0.425299
950 1 0.239449 0.389277 0.431044
1018 1 0.225533 0.393452 0.434422
1017 1 0.244732 0.403853 0.436393
1021 1 0.256031 0.399767 0.432697
1097 1 0.266599 0.396817 0.426974
1165 1 0.267369 0.408135 0.43422
1164 1 0.278504 0.406485 0.430154
1160 1 0.29414 0.405172 0.425165
1167 1 0.281395 0.416722 0.436361
1239 1 0.292132 0.415819 0.431213
1166 1 0.305554 0.41662 0.425057
1034 1 0.307707 0.427778 0.431839
1098 1 0.319976 0.425494 0.426237
1100 1 0.320212 0.43535 0.435093
1173 1 0.334921 0.436381 0.427497
1172 1 0.347118 0.444726 0.430023
1168 1 0.33319 0.444248 0.436059
1174 1 0.36066 0.442707 0.425077
1252 1 0.361124 0.453144 0.432283
1177 1 0.374869 0.450344 0.428197
1251 1 0.403506 0.455124 0.426582
1245 1 0.375563 0.462381 0.435377
1248 1 0.389963 0.470501 0.436912
1178 1 0.389214 0.46022 0.4305
1329 1 0.404387 0.468155 0.431647
1255 1 0.415449 0.466345 0.42726
1260 1 0.429437 0.471104 0.43152
1317 1 0.416518 0.47673 0.435413
4131 1 0.444811 0.468022 0.42977
4132 1 0.46124 0.462401 0.426086
3997 1 0.473954 0.470311 0.427785
1328 1 0.461835 0.474981 0.432029
3998 1 0.48929 0.462306 0.425425
4002 1 0.487091 0.47463 0.431179
1397 1 0.449055 0.47888 0.435043
4063 1 0.475753 0.483315 0.433471
204 1 0.461786 0.042526 0.448032
2801 1 0.488311 0.0356655 0.44869
206 1 0.453123 0.0555331 0.446239
278 1 0.470266 0.0550592 0.442958
209 1 0.479683 0.0450139 0.445778
137 1 0.484029 0.054295 0.439753
68 1 0.496533 0.0453093 0.441186
473 1 0.399916 0.0800596 0.449495
413 1 0.412825 0.0766435 0.44561
346 1 0.424995 0.0690883 0.448259
481 1 0.433787 0.0791319 0.442755
414 1 0.422352 0.0866345 0.43943
342 1 0.450698 0.0802358 0.438267
411 1 0.443306 0.0683898 0.444868
344 1 0.461982 0.0691834 0.440248
324 1 0.359712 0.100354 0.449067
262 1 0.385919 0.0913074 0.445457
330 1 0.378295 0.103536 0.443874
408 1 0.412051 0.0994238 0.437799
402 1 0.395765 0.102299 0.440637
404 1 0.40463 0.0885216 0.442415
381 1 0.255483 0.12403 0.443411
378 1 0.239154 0.121704 0.446689
443 1 0.242241 0.128159 0.44045
383 1 0.271245 0.125543 0.438513
314 1 0.266307 0.117059 0.447575
386 1 0.281555 0.116267 0.443131
455 1 0.296155 0.115269 0.440027
459 1 0.317669 0.122721 0.437722
454 1 0.309196 0.114563 0.445284
457 1 0.326344 0.115278 0.443835
393 1 0.335311 0.110343 0.447611
329 1 0.34041 0.118826 0.440316
334 1 0.366262 0.113373 0.441198
335 1 0.351162 0.113049 0.44458
405 1 0.382848 0.114155 0.437687
633 1 0.00179944 0.145311 0.446956
643 1 0.0759496 0.151608 0.449082
502 1 0.131934 0.148973 0.448236
503 1 0.14714 0.147748 0.446648
296 1 0.161459 0.145109 0.44303
507 1 0.191804 0.14828 0.438205
366 1 0.174657 0.137917 0.449572
506 1 0.178118 0.14701 0.441642
508 1 0.187195 0.138317 0.446629
442 1 0.212627 0.132269 0.444832
513 1 0.199338 0.137458 0.442021
444 1 0.215839 0.138248 0.437614
441 1 0.226247 0.130553 0.442319
634 1 0.0175457 0.154906 0.449027
631 1 0.00708193 0.162754 0.444979
632 1 0.0218494 0.168595 0.445678
779 1 0.0328166 0.15529 0.448748
707 1 0.0388761 0.168741 0.444047
567 1 0.0478762 0.157165 0.445824
637 1 0.0632439 0.163291 0.445494
636 1 0.0544908 0.173352 0.443271
711 1 0.0797777 0.163477 0.445056
570 1 0.0913981 0.152569 0.449574
575 1 0.095696 0.165181 0.443245
504 1 0.105196 0.154741 0.449278
572 1 0.106514 0.165969 0.440368
501 1 0.115623 0.157547 0.444637
505 1 0.130969 0.158852 0.441515
436 1 0.14898 0.157374 0.437503
3570 1 0.0146491 0.193146 0.440274
3430 1 0.0086013 0.178879 0.442728
3499 1 0.024009 0.183167 0.443735
710 1 0.0400957 0.183444 0.441674
635 1 0.0561642 0.187709 0.439264
709 1 0.0727953 0.18895 0.437554
641 1 0.0696141 0.17571 0.440992
713 1 0.0868732 0.176018 0.440066
703 1 0.00391491 0.202302 0.437906
706 1 0.0302443 0.196457 0.439333
848 1 0.0565461 0.300448 0.438917
853 1 0.0719621 0.294383 0.437567
856 1 0.0890152 0.301224 0.439097
917 1 0.0141967 0.307175 0.438232
1052 1 0.0122769 0.323591 0.442462
842 1 0.000529295 0.312964 0.438276
918 1 0.0264245 0.313303 0.441314
923 1 0.0390607 0.306365 0.44078
924 1 0.0383181 0.320219 0.44496
919 1 0.0549235 0.312373 0.445926
786 1 0.071362 0.306633 0.441083
998 1 0.0857508 0.314915 0.442668
926 1 0.0715969 0.319817 0.44746
787 1 0.102184 0.308881 0.440743
994 1 0.0982429 0.324046 0.445996
1077 1 0.112999 0.3217 0.441817
932 1 0.129856 0.317238 0.438907
989 1 0.0115579 0.337751 0.448102
991 1 0.0257198 0.330401 0.446772
995 1 0.0539899 0.327038 0.449716
1074 1 0.0973091 0.336555 0.449346
999 1 0.110137 0.337779 0.446056
930 1 0.122616 0.33211 0.443295
928 1 0.121881 0.347552 0.447848
1004 1 0.139352 0.331921 0.440731
942 1 0.150336 0.342987 0.439921
931 1 0.134577 0.345547 0.443524
1075 1 0.134567 0.356188 0.448533
1145 1 0.150388 0.356953 0.446425
1007 1 0.159772 0.354925 0.439186
1078 1 0.163353 0.368456 0.445215
1162 1 0.175195 0.368271 0.439615
1217 1 0.162084 0.382448 0.448999
1011 1 0.174475 0.379664 0.443877
1088 1 0.188198 0.377206 0.438958
1086 1 0.188588 0.390683 0.445967
1163 1 0.201548 0.385229 0.439369
1161 1 0.211639 0.398848 0.439381
1159 1 0.198384 0.401115 0.445546
1155 1 0.214799 0.409043 0.445096
1225 1 0.226822 0.406105 0.439889
1019 1 0.255322 0.410827 0.440359
1020 1 0.240631 0.410693 0.44421
1154 1 0.226098 0.41496 0.447323
1227 1 0.25386 0.418333 0.447329
1233 1 0.270412 0.417297 0.443043
1234 1 0.282399 0.427653 0.444378
1236 1 0.266424 0.426024 0.449043
1305 1 0.293002 0.427066 0.437953
1309 1 0.304979 0.433934 0.441107
1237 1 0.295305 0.438218 0.446638
1312 1 0.319588 0.442318 0.442327
1235 1 0.309549 0.445946 0.44854
1240 1 0.335033 0.449554 0.445261
1175 1 0.34753 0.451638 0.438519
1169 1 0.347612 0.458462 0.446809
1243 1 0.361766 0.459383 0.440696
1242 1 0.363352 0.468358 0.448493
1176 1 0.377735 0.468399 0.442571
1315 1 0.388317 0.479681 0.443514
1244 1 0.37639 0.478952 0.44912
1246 1 0.402467 0.478663 0.440792
1250 1 0.401485 0.490923 0.446892
1327 1 0.433942 0.484463 0.437987
1321 1 0.416968 0.488892 0.4424
1466 1 0.432335 0.497033 0.444556
1254 1 0.447395 0.488143 0.442643
1326 1 0.462348 0.485327 0.438212
1398 1 0.46276 0.494612 0.44459
4135 1 0.491912 0.486699 0.43824
1400 1 0.478361 0.49338 0.440272
207 1 0.453926 0.0211177 0.461215
69 1 0.478304 0.00877555 0.46178
5533 1 0.495581 0.0122853 0.458901
136 1 0.485005 0.0204051 0.453558
202 1 0.426107 0.0303703 0.460997
269 1 0.417011 0.0408368 0.459089
200 1 0.439724 0.0324148 0.457548
276 1 0.447282 0.0416164 0.451676
138 1 0.469402 0.0222013 0.458001
345 1 0.458677 0.0312613 0.452245
208 1 0.474154 0.0305393 0.45102
272 1 0.390522 0.0589085 0.461854
338 1 0.406019 0.0546255 0.458264
343 1 0.429383 0.0446348 0.455331
274 1 0.418227 0.0567444 0.453618
410 1 0.436807 0.0567376 0.450628
265 1 0.35469 0.0810306 0.461691
264 1 0.369048 0.0795129 0.457913
336 1 0.378104 0.0696282 0.460505
332 1 0.382933 0.0835613 0.452979
407 1 0.393778 0.0702476 0.455331
409 1 0.408333 0.0655159 0.453691
306 1 0.245493 0.105585 0.459496
379 1 0.276064 0.104655 0.461475
242 1 0.290918 0.10515 0.458971
389 1 0.321567 0.107931 0.451053
316 1 0.309565 0.104526 0.453774
390 1 0.320313 0.099407 0.459987
327 1 0.34154 0.0895036 0.457917
325 1 0.331544 0.101634 0.454751
333 1 0.345429 0.101707 0.450836
461 1 0.357407 0.0908086 0.454903
263 1 0.370504 0.0938106 0.450211
3358 1 0.0027388 0.126786 0.456243
562 1 0.00935659 0.120534 0.461614
429 1 0.0616088 0.128758 0.462164
438 1 0.194105 0.124777 0.458294
511 1 0.212641 0.122232 0.453337
510 1 0.197286 0.130339 0.450333
372 1 0.225706 0.123355 0.450178
376 1 0.233811 0.114351 0.455523
370 1 0.219601 0.115155 0.458844
449 1 0.24915 0.116954 0.450491
380 1 0.262708 0.109257 0.456048
312 1 0.276937 0.110999 0.45201
388 1 0.292481 0.111447 0.450085
564 1 0.0120835 0.139634 0.451188
708 1 0.0195393 0.131291 0.456851
493 1 0.0268668 0.140616 0.451974
638 1 0.0427795 0.144368 0.451739
705 1 0.0356993 0.132691 0.457042
427 1 0.052078 0.137356 0.456515
640 1 0.0585628 0.147822 0.450652
639 1 0.0684996 0.140481 0.456575
424 1 0.0792837 0.130435 0.460933
568 1 0.084105 0.141442 0.454885
426 1 0.0947403 0.133173 0.459428
498 1 0.10111 0.143467 0.453977
569 1 0.111804 0.138858 0.45869
500 1 0.129575 0.140121 0.457301
571 1 0.12155 0.148035 0.452987
361 1 0.150904 0.134954 0.458854
435 1 0.141423 0.140332 0.453224
292 1 0.137076 0.13144 0.462463
367 1 0.160022 0.138846 0.45182
437 1 0.166165 0.131427 0.457529
509 1 0.18351 0.131517 0.456548
992 1 0.0376296 0.336109 0.450321
988 1 0.0237357 0.345624 0.452731
1131 1 0.0538588 0.341359 0.454544
927 1 0.0839238 0.326204 0.45012
1067 1 0.0692585 0.332722 0.452936
1001 1 0.0824279 0.339537 0.453553
916 1 0.00512642 0.351115 0.452978
1054 1 0.00709731 0.366127 0.458259
987 1 0.0211715 0.358602 0.454733
1060 1 0.0391731 0.35258 0.454706
985 1 0.0353099 0.365553 0.458218
990 1 0.0522144 0.355966 0.459507
996 1 0.0687585 0.347992 0.457255
1065 1 0.0819353 0.355633 0.457397
1143 1 0.108012 0.349407 0.450248
1000 1 0.0950089 0.350578 0.45422
1070 1 0.10507 0.362232 0.456876
1069 1 0.0935239 0.365253 0.459491
1002 1 0.122667 0.361903 0.452448
1010 1 0.149682 0.368681 0.450281
1061 1 0.0188303 0.373355 0.460633
1122 1 0.00201573 0.377498 0.460453
1068 1 0.0497845 0.370168 0.462468
1072 1 0.106331 0.375382 0.4621
1142 1 0.120751 0.375451 0.458185
1076 1 0.136807 0.371584 0.453885
1215 1 0.134445 0.386766 0.459268
1144 1 0.147785 0.385082 0.454934
1080 1 0.146197 0.39684 0.462081
1219 1 0.159651 0.397545 0.45598
1147 1 0.173131 0.408875 0.456621
1089 1 0.173249 0.394226 0.450031
1146 1 0.158963 0.407564 0.461222
1012 1 0.18605 0.402347 0.451255
1083 1 0.199528 0.409794 0.452768
1082 1 0.187261 0.415855 0.455714
1085 1 0.21316 0.417883 0.454658
1153 1 0.199824 0.420945 0.45891
1158 1 0.227734 0.422292 0.456207
1156 1 0.238862 0.431049 0.460155
1024 1 0.23936 0.42223 0.450844
1230 1 0.253202 0.428913 0.454279
1229 1 0.254143 0.439208 0.462286
1303 1 0.266915 0.435665 0.45809
1302 1 0.28197 0.44477 0.460232
1308 1 0.280309 0.434914 0.452766
1311 1 0.295984 0.447071 0.455011
1377 1 0.308876 0.455048 0.457799
1307 1 0.323255 0.448696 0.450086
1313 1 0.33531 0.455792 0.454018
1380 1 0.322156 0.459493 0.458735
1238 1 0.336124 0.469845 0.462198
1170 1 0.348833 0.465934 0.454633
1241 1 0.363447 0.477053 0.456414
1314 1 0.377946 0.487152 0.457665
1316 1 0.389602 0.489149 0.450426
1318 1 0.389523 0.496286 0.458806
273 1 0.423577 0.0202426 0.468584
133 1 0.434061 0.0119648 0.472218
203 1 0.445217 0.0122384 0.468158
271 1 0.437409 0.0215065 0.46406
2800 1 0.462011 0.010039 0.465615
125 1 0.411074 0.0232233 0.473754
196 1 0.398266 0.0349309 0.470655
197 1 0.411933 0.0328461 0.465795
267 1 0.362347 0.0586491 0.472121
340 1 0.377729 0.0561788 0.46582
341 1 0.388052 0.044292 0.467641
268 1 0.374533 0.0452257 0.473221
198 1 0.401221 0.0455495 0.463478
319 1 0.309495 0.0793067 0.4744
322 1 0.326784 0.0800728 0.47048
261 1 0.340188 0.0683372 0.473399
260 1 0.341756 0.0802311 0.465007
339 1 0.366385 0.069057 0.464084
320 1 0.352887 0.0684558 0.468531
491 1 0.0108242 0.102033 0.472308
3218 1 0.0250494 0.101406 0.474409
357 1 0.0525334 0.107871 0.474728
369 1 0.216774 0.108443 0.468092
377 1 0.230018 0.10747 0.464306
374 1 0.227646 0.0998367 0.47149
307 1 0.244925 0.0999127 0.468023
309 1 0.255169 0.0914748 0.471485
238 1 0.258303 0.10187 0.463004
311 1 0.270738 0.0951403 0.467862
313 1 0.282627 0.0895512 0.472505
391 1 0.299459 0.0895714 0.470703
248 1 0.288798 0.0969285 0.466645
387 1 0.304842 0.100978 0.463689
318 1 0.314943 0.0918189 0.4672
392 1 0.330829 0.093199 0.464449
495 1 0.014706 0.111645 0.467278
566 1 0.0269044 0.120415 0.462683
3290 1 0.0283192 0.110552 0.469737
563 1 0.0401277 0.114035 0.467844
565 1 0.0466244 0.124077 0.462721
422 1 0.0569313 0.116063 0.468501
288 1 0.0723466 0.120175 0.467704
423 1 0.0699119 0.113225 0.474016
362 1 0.0881694 0.123979 0.467962
363 1 0.102167 0.121238 0.474522
359 1 0.101563 0.128517 0.466592
430 1 0.116247 0.124305 0.471922
499 1 0.130725 0.125871 0.470309
365 1 0.148052 0.126598 0.467796
439 1 0.16138 0.125879 0.465534
432 1 0.159568 0.119924 0.473484
301 1 0.174726 0.118367 0.470653
298 1 0.176241 0.122778 0.462724
302 1 0.191632 0.119318 0.466787
231 1 0.188131 0.115153 0.47461
440 1 0.205842 0.115788 0.462668
371 1 0.204724 0.110397 0.472317
573 1 0.120751 0.131597 0.464982
997 1 0.0668084 0.362651 0.462655
1063 1 0.0189898 0.386699 0.464774
1129 1 0.035569 0.379627 0.46293
1130 1 0.0457037 0.384884 0.469067
1139 1 0.0615885 0.377673 0.465664
1071 1 0.0785277 0.371285 0.463829
1137 1 0.0768356 0.385443 0.467971
1073 1 0.093972 0.38009 0.465975
1211 1 0.104367 0.389979 0.46838
1209 1 0.119707 0.38829 0.464417
1205 1 0.0186766 0.398936 0.471202
1059 1 0.00385367 0.391671 0.466936
1127 1 0.0053409 0.404123 0.47281
993 1 0.0327999 0.3928 0.470288
1062 1 0.0623794 0.39164 0.472066
1133 1 0.046828 0.39671 0.474721
1066 1 0.0911476 0.393273 0.472799
1216 1 0.103048 0.405179 0.473974
1140 1 0.116657 0.399368 0.470097
1359 1 0.129919 0.409817 0.472107
1213 1 0.131129 0.397368 0.466921
1220 1 0.145106 0.407265 0.468092
1148 1 0.143601 0.419785 0.47444
1081 1 0.158609 0.419092 0.468514
1084 1 0.171023 0.417054 0.463327
1151 1 0.171486 0.424595 0.470577
1150 1 0.184966 0.424634 0.46362
1152 1 0.182408 0.433314 0.472429
1293 1 0.214439 0.427326 0.462739
1157 1 0.195964 0.43054 0.466848
1231 1 0.227342 0.433824 0.465535
1361 1 0.210795 0.435046 0.469149
1290 1 0.197986 0.441548 0.47435
1223 1 0.226025 0.443988 0.472486
1224 1 0.240486 0.44042 0.468639
1299 1 0.252929 0.44802 0.471791
1226 1 0.266276 0.445843 0.465656
1301 1 0.282642 0.456085 0.468369
1310 1 0.297647 0.453897 0.463026
1228 1 0.268131 0.457188 0.471826
1306 1 0.298445 0.460726 0.472062
1378 1 0.311096 0.459307 0.466672
1447 1 0.322961 0.466214 0.467716
1374 1 0.323793 0.478186 0.474521
1381 1 0.351506 0.477179 0.463453
1451 1 0.336379 0.478416 0.469794
1452 1 0.347201 0.48852 0.470755
1384 1 0.364769 0.494889 0.472523
1383 1 0.361938 0.486665 0.465771
1382 1 0.378582 0.493387 0.466859
199 1 0.405265 0.0134691 0.481645
126 1 0.392961 0.0145511 0.484576
128 1 0.417113 0.0100262 0.476774
131 1 0.416758 0.00157559 0.484257
132 1 0.430482 0.00192846 0.478822
201 1 0.444677 0.00257326 0.475369
270 1 0.383636 0.0347324 0.47556
192 1 0.372722 0.0377634 0.482776
266 1 0.383428 0.0249771 0.483764
129 1 0.394572 0.0275207 0.47754
254 1 0.320648 0.0605327 0.486588
323 1 0.33603 0.0616393 0.480117
256 1 0.349956 0.0514566 0.483536
337 1 0.349649 0.0592756 0.476431
194 1 0.362756 0.047381 0.480182
3286 1 0.0127653 0.0842059 0.486496
304 1 0.237874 0.0822946 0.481855
308 1 0.253964 0.0827113 0.479736
249 1 0.267785 0.0782938 0.484186
244 1 0.281116 0.077253 0.481565
310 1 0.268592 0.0840961 0.476029
251 1 0.295 0.0783163 0.477893
177 1 0.292131 0.0689801 0.486134
317 1 0.322497 0.0689168 0.476327
250 1 0.304844 0.0691617 0.48188
3216 1 0.00137161 0.0925417 0.4782
3288 1 0.0182766 0.0925574 0.480383
421 1 0.0387765 0.105613 0.476407
3287 1 0.0343476 0.0930238 0.481254
150 1 0.047183 0.0984322 0.482304
216 1 0.0628859 0.105532 0.480555
149 1 0.0730071 0.0991349 0.486377
228 1 0.165412 0.105808 0.486295
300 1 0.179532 0.106194 0.484311
162 1 0.192151 0.0949799 0.48726
297 1 0.195776 0.105029 0.48086
303 1 0.210572 0.0948581 0.483075
234 1 0.21202 0.100149 0.476075
373 1 0.225828 0.0931846 0.480289
375 1 0.240858 0.0919892 0.475005
360 1 0.0865595 0.116043 0.475711
221 1 0.0797884 0.108954 0.48056
82 1 0.0971699 0.113182 0.481384
428 1 0.12317 0.109765 0.4873
291 1 0.11233 0.113037 0.479885
356 1 0.125891 0.117486 0.478791
433 1 0.143878 0.122419 0.475554
294 1 0.138279 0.113371 0.483084
431 1 0.153699 0.112412 0.481691
230 1 0.168638 0.110225 0.478787
1135 1 0.0182205 0.409772 0.478744
1128 1 0.0344786 0.404647 0.477235
1064 1 0.0475251 0.408941 0.482436
1134 1 0.0602936 0.403621 0.478891
1136 1 0.0783366 0.400812 0.475933
1274 1 0.0741473 0.41087 0.482419
1206 1 0.0899027 0.410314 0.477904
1149 1 0.119689 0.412673 0.477037
1201 1 0.00441256 0.415862 0.479092
1203 1 0.0128256 0.423797 0.484283
1204 1 0.0297906 0.415828 0.483101
1207 1 0.059428 0.414657 0.486824
1214 1 0.0857591 0.422583 0.482317
1141 1 0.105005 0.416356 0.479959
1286 1 0.104025 0.427459 0.48669
1285 1 0.117404 0.423036 0.484066
1218 1 0.129281 0.422426 0.479312
1291 1 0.144525 0.432488 0.481476
1287 1 0.158371 0.429374 0.476874
1221 1 0.170973 0.43439 0.479101
1421 1 0.16141 0.439476 0.484101
1222 1 0.184595 0.44346 0.481373
1356 1 0.203539 0.450641 0.482636
1292 1 0.213025 0.443321 0.47661
1298 1 0.225325 0.452584 0.48182
1295 1 0.239516 0.452628 0.478092
1294 1 0.215121 0.458731 0.486998
1304 1 0.256154 0.458889 0.477954
1297 1 0.243255 0.460447 0.485385
1369 1 0.257794 0.465746 0.485538
1232 1 0.268911 0.468265 0.4806
1375 1 0.282756 0.46508 0.476113
1373 1 0.29694 0.469309 0.480546
1371 1 0.284248 0.473106 0.484297
1379 1 0.312174 0.466161 0.475441
1372 1 0.299136 0.480548 0.487414
1445 1 0.310684 0.479096 0.480777
1376 1 0.324298 0.48768 0.484017
1446 1 0.33522 0.488843 0.477005
1450 1 0.33744 0.4964 0.484181
1449 1 0.351692 0.494346 0.47715
195 1 0.381922 0.0174367 0.492002
56 1 0.390315 0.00741246 0.496673
62 1 0.406467 0.00624147 0.490329
122 1 0.343762 0.0371341 0.499979
114 1 0.33189 0.0431041 0.498038
188 1 0.361077 0.0422291 0.488933
190 1 0.359483 0.0317061 0.497585
124 1 0.371134 0.0293454 0.490939
243 1 0.269572 0.0634347 0.498514
252 1 0.302287 0.0537148 0.498365
246 1 0.28938 0.0612472 0.495222
185 1 0.305764 0.0600325 0.491046
259 1 0.319292 0.0522592 0.494368
191 1 0.34782 0.0438929 0.493075
321 1 0.335097 0.0534527 0.489326
3078 1 0.0124865 0.0666897 0.499874
282 1 0.00268068 0.0736216 0.492759
3150 1 0.0192176 0.0775198 0.494469
281 1 0.0295382 0.0709088 0.499784
3289 1 0.0287321 0.0857945 0.489237
3219 1 0.0372446 0.0799955 0.494118
3220 1 0.0540043 0.0852624 0.495146
218 1 0.0464565 0.0756306 0.499709
169 1 0.208906 0.0768808 0.497935
232 1 0.207 0.085584 0.490392
235 1 0.222028 0.0845987 0.488744
172 1 0.22153 0.0731851 0.49536
236 1 0.235916 0.0747978 0.491415
237 1 0.247032 0.0690821 0.496932
166 1 0.250876 0.0753039 0.487507
305 1 0.260512 0.0707664 0.493394
240 1 0.276791 0.0707444 0.490744
354 1 0.0587021 0.096169 0.488296
358 1 0.0444062 0.0884624 0.488048
425 1 0.0681515 0.0881121 0.49456
290 1 0.0819621 0.0915378 0.494035
222 1 0.0905875 0.104032 0.487608
293 1 0.106616 0.104524 0.487721
497 1 0.0987354 0.0941936 0.493651
295 1 0.116567 0.0967874 0.49604
299 1 0.130231 0.0964301 0.49772
364 1 0.134288 0.106161 0.491585
368 1 0.146367 0.0981457 0.498036
224 1 0.148417 0.105737 0.489015
229 1 0.158692 0.0998163 0.493065
233 1 0.164561 0.0940252 0.499066
163 1 0.178998 0.0892757 0.499175
167 1 0.191463 0.0872308 0.494288
168 1 0.174623 0.0982524 0.491996
1202 1 0.0285157 0.429941 0.48953
1276 1 0.0434841 0.418897 0.488746
1275 1 0.0609066 0.426083 0.492938
1272 1 0.043777 0.433473 0.494699
1208 1 0.074069 0.4241 0.48905
1138 1 0.0869859 0.429796 0.491151
1289 1 0.1171 0.434394 0.490608
1283 1 0.132962 0.43283 0.48795
1199 1 0.00689646 0.435786 0.489111
1124 1 0.00937594 0.448466 0.49625
1126 1 0.0189021 0.438005 0.492343
1269 1 0.0320612 0.441989 0.496172
1351 1 0.057447 0.439545 0.498979
1279 1 0.0697029 0.438343 0.495311
1212 1 0.0882276 0.444075 0.498825
1277 1 0.102968 0.438529 0.494806
1282 1 0.146045 0.440224 0.49122
1352 1 0.13199 0.441604 0.494628
1355 1 0.146389 0.45089 0.495833
1354 1 0.17286 0.446917 0.48752
1284 1 0.161157 0.449798 0.491752
1360 1 0.191065 0.452698 0.488247
1357 1 0.159317 0.456914 0.499412
1429 1 0.174114 0.45792 0.493809
1358 1 0.187118 0.463455 0.496612
1431 1 0.202508 0.47217 0.498886
1288 1 0.202051 0.46131 0.491388
1362 1 0.215052 0.469251 0.49461
1365 1 0.229248 0.465825 0.488484
1363 1 0.230534 0.472833 0.495981
1300 1 0.245288 0.469587 0.491966
1364 1 0.258627 0.476351 0.494907
1370 1 0.271428 0.475524 0.489875
1435 1 0.245559 0.480824 0.498989
1368 1 0.272331 0.48347 0.497616
1444 1 0.286892 0.480317 0.491753
1448 1 0.297422 0.489702 0.49564
1519 1 0.311241 0.488165 0.488789
1515 1 0.323335 0.497228 0.492729
1518 1 0.311298 0.498956 0.497164
258 1 0.36213 0.0103329 0.505866
121 1 0.367359 0.0210279 0.500079
60 1 0.37666 0.0083435 0.500128
183 1 0.300541 0.0416439 0.5062
189 1 0.314624 0.0321621 0.509598
53 1 0.33872 0.025381 0.509644
113 1 0.327661 0.0351681 0.505
193 1 0.352369 0.0239583 0.503702
212 1 0.00646006 0.0549858 0.503772
285 1 0.0106767 0.0460757 0.511389
352 1 0.0228956 0.060508 0.506008
217 1 0.0364999 0.0636065 0.505187
8 1 0.0396695 0.0559854 0.512497
219 1 0.0524255 0.0645215 0.507044
103 1 0.216919 0.0608665 0.509981
176 1 0.234009 0.0602736 0.509245
175 1 0.24743 0.0599506 0.507402
315 1 0.259551 0.0592241 0.503857
182 1 0.268323 0.0524086 0.509719
180 1 0.278863 0.0578837 0.502959
181 1 0.281555 0.047027 0.510759
255 1 0.29012 0.049035 0.50226
257 1 0.317229 0.0452419 0.502167
286 1 0.0630282 0.077695 0.500176
287 1 0.0679789 0.070383 0.508357
289 1 0.0860413 0.0743021 0.50921
355 1 0.0781807 0.080087 0.501849
80 1 0.0988436 0.0798995 0.507853
79 1 0.0928275 0.0847975 0.500328
151 1 0.112881 0.0814876 0.509701
88 1 0.126731 0.0836844 0.511367
160 1 0.140331 0.0821186 0.51052
164 1 0.167774 0.0835934 0.50727
158 1 0.183969 0.0818881 0.504604
96 1 0.193752 0.0702371 0.510382
27 1 0.178283 0.0725891 0.511516
165 1 0.195698 0.0780212 0.500845
98 1 0.205867 0.0680741 0.504993
100 1 0.221984 0.0671468 0.502809
170 1 0.235825 0.0676788 0.500292
86 1 0.108555 0.0907838 0.50266
223 1 0.120666 0.089105 0.504371
226 1 0.135281 0.0899135 0.505198
227 1 0.154374 0.0887786 0.506294
1125 1 0.0207661 0.450401 0.500977
1273 1 0.0330411 0.451335 0.504623
1347 1 0.0441649 0.444319 0.501749
1343 1 0.06048 0.449505 0.504661
1281 1 0.0743974 0.451543 0.502673
1353 1 0.10432 0.451086 0.5026
1210 1 0.118369 0.444762 0.500288
1280 1 0.131472 0.451607 0.501368
1198 1 0.00724303 0.456677 0.503361
1268 1 0.00895906 0.471024 0.508957
1200 1 0.0230471 0.460382 0.508299
1409 1 0.0453818 0.457238 0.508456
1341 1 0.0599458 0.464345 0.512108
1483 1 0.0733993 0.45995 0.508893
1349 1 0.0888015 0.457983 0.504181
1418 1 0.103194 0.46618 0.508712
1278 1 0.0886809 0.469128 0.511161
1348 1 0.116362 0.458915 0.505263
1417 1 0.116922 0.470413 0.511253
1491 1 0.132487 0.466268 0.507939
1350 1 0.144919 0.460553 0.503213
1419 1 0.14239 0.474712 0.512274
1492 1 0.157401 0.470199 0.506785
1423 1 0.173517 0.466016 0.502684
1422 1 0.171911 0.476701 0.511194
1427 1 0.187846 0.474141 0.505245
1433 1 0.219014 0.473666 0.501255
1425 1 0.186017 0.486833 0.511208
1428 1 0.203151 0.479805 0.505798
1436 1 0.216333 0.483174 0.508501
1505 1 0.230646 0.482812 0.503324
1296 1 0.257803 0.486927 0.503145
1367 1 0.244578 0.490157 0.506969
1439 1 0.256418 0.49456 0.511227
1441 1 0.27058 0.49396 0.505488
1442 1 0.287582 0.498226 0.507391
1443 1 0.287077 0.489607 0.500609
186 1 0.319615 0.0171641 0.524655
123 1 0.346477 0.013485 0.512506
120 1 0.332944 0.0176042 0.517676
46 1 0.343617 0.00354719 0.521005
54 1 0.356826 0.00349234 0.515428
351 1 0.00290728 0.0403555 0.517332
215 1 0.0208435 0.0413767 0.520668
174 1 0.264979 0.0403994 0.524949
241 1 0.284613 0.0367503 0.517389
245 1 0.298668 0.0347316 0.514445
178 1 0.292264 0.0258225 0.522325
187 1 0.323705 0.0256347 0.515105
118 1 0.308383 0.0256643 0.518743
214 1 0.0251304 0.0516378 0.513497
146 1 0.0347092 0.0466305 0.521188
353 1 0.059358 0.0627042 0.513881
9 1 0.0501157 0.0517708 0.52003
78 1 0.0647371 0.0548518 0.521028
11 1 0.0824436 0.0574044 0.521374
284 1 0.0739064 0.0640582 0.51435
15 1 0.0970287 0.0625769 0.522878
84 1 0.127189 0.0626502 0.524359
159 1 0.171995 0.0647771 0.520183
26 1 0.187403 0.0614146 0.518547
173 1 0.213931 0.0557471 0.521422
99 1 0.203915 0.0608528 0.513949
161 1 0.198217 0.0529371 0.523166
171 1 0.226978 0.0547738 0.518398
239 1 0.25725 0.0522953 0.514001
102 1 0.253698 0.0489112 0.521449
106 1 0.241103 0.055565 0.516332
105 1 0.239852 0.0490121 0.524728
247 1 0.270209 0.0444917 0.517101
81 1 0.0899505 0.066962 0.515181
220 1 0.102428 0.0731728 0.5147
12 1 0.113769 0.0660084 0.522945
83 1 0.114295 0.0738528 0.516418
152 1 0.130434 0.0739864 0.517354
87 1 0.138821 0.0657682 0.522285
153 1 0.148484 0.0727476 0.51772
157 1 0.155288 0.0782229 0.512885
89 1 0.156869 0.0662655 0.522054
156 1 0.166179 0.0735411 0.516673
1408 1 0.0200287 0.470054 0.514459
1271 1 0.0330544 0.462997 0.513919
1410 1 0.0324229 0.477264 0.519006
1339 1 0.0469118 0.469666 0.513922
1338 1 0.0591613 0.475208 0.51693
1342 1 0.0747996 0.473085 0.51548
1346 1 0.104283 0.476706 0.513496
1337 1 0.00668598 0.479639 0.515829
1270 1 0.00729187 0.491647 0.52388
1477 1 0.0188717 0.482826 0.519003
1406 1 0.0331807 0.48945 0.523048
1481 1 0.0491807 0.482946 0.519321
1412 1 0.0731287 0.482862 0.52149
1345 1 0.0881361 0.480746 0.517172
1482 1 0.102771 0.484687 0.523003
1344 1 0.117874 0.480376 0.519958
1489 1 0.131028 0.479285 0.51639
1416 1 0.132059 0.489028 0.524089
1490 1 0.143151 0.484878 0.520718
1420 1 0.155704 0.480463 0.51405
1494 1 0.157639 0.493188 0.520986
1493 1 0.17077 0.487579 0.517453
1565 1 0.171421 0.497557 0.523444
1426 1 0.186439 0.493141 0.519627
1430 1 0.200511 0.497741 0.520823
1432 1 0.201048 0.488547 0.51443
1434 1 0.216198 0.494534 0.51712
1366 1 0.229904 0.492661 0.512755
1437 1 0.243393 0.499467 0.514732
1507 1 0.274952 0.498099 0.51416
179 1 0.274945 0.0198553 0.533844
108 1 0.298922 0.00781423 0.534575
107 1 0.287469 0.0177162 0.529529
184 1 0.304868 0.0151472 0.52584
36 1 0.315449 0.00516538 0.530741
116 1 0.330824 0.00656107 0.525203
148 1 0.0103351 0.0317867 0.525641
213 1 0.0074213 0.0217845 0.533544
2940 1 0.0221963 0.0280396 0.533895
73 1 0.0264114 0.0364244 0.52712
143 1 0.0362461 0.0347015 0.534925
7 1 0.0502242 0.0382366 0.535155
2749 1 0.0815134 0.0428929 0.535699
10 1 0.0692615 0.0388748 0.534326
101 1 0.202121 0.0410116 0.536568
29 1 0.218133 0.0402274 0.53576
2760 1 0.233277 0.0398268 0.533352
109 1 0.25179 0.0388484 0.530185
30 1 0.246675 0.0302037 0.537191
253 1 0.277992 0.0304358 0.525326
37 1 0.261236 0.0231045 0.535925
38 1 0.263068 0.029083 0.52869
76 1 0.0397591 0.0437464 0.528675
147 1 0.0577212 0.0447608 0.527749
77 1 0.0755673 0.0495027 0.527656
6 1 0.0914014 0.0511759 0.528521
2745 1 0.0976755 0.0437529 0.536721
14 1 0.108366 0.0542619 0.529978
225 1 0.121302 0.058328 0.531106
154 1 0.135793 0.0554317 0.531005
91 1 0.146348 0.0493995 0.536822
25 1 0.150407 0.0624658 0.528873
92 1 0.165894 0.0577545 0.528815
20 1 0.162945 0.0480613 0.534256
155 1 0.181372 0.0551524 0.525274
90 1 0.177674 0.0468425 0.533599
22 1 0.193226 0.0463018 0.531017
94 1 0.207922 0.0479165 0.529235
97 1 0.222543 0.0489033 0.527379
1405 1 0.0200685 0.494273 0.525609
1411 1 0.0481838 0.495264 0.528409
1340 1 0.0603578 0.488836 0.525117
1480 1 0.0619868 0.499545 0.534975
1485 1 0.0756874 0.490814 0.530109
1413 1 0.087745 0.486939 0.526905
1488 1 0.103597 0.492419 0.530775
1551 1 0.0904568 0.49552 0.534836
1484 1 0.116063 0.49818 0.536752
1415 1 0.11676 0.491652 0.527516
1486 1 0.129031 0.498283 0.531797
1414 1 0.144913 0.496484 0.526766
144 1 0.0189575 0.0186963 0.539775
3005 1 0.00617944 0.00842218 0.544458
3009 1 0.0214632 0.0119131 0.54633
4 1 0.0372717 0.0138741 0.546954
72 1 0.0509821 0.0166061 0.546069
2738 1 0.0688631 0.0202959 0.548654
40 1 0.253916 0.0196855 0.543169
34 1 0.257841 0.00681344 0.547624
2766 1 0.274711 0.00229226 0.545789
110 1 0.282414 0.0065698 0.537874
2765 1 0.267018 0.0127477 0.540862
2938 1 0.0311304 0.0233642 0.54085
145 1 0.044071 0.0270022 0.542
74 1 0.0602561 0.0325141 0.54106
13 1 0.07413 0.0323045 0.542377
2739 1 0.0830717 0.0255541 0.548562
2741 1 0.0898776 0.0363322 0.542828
2747 1 0.0971046 0.0278616 0.547381
2740 1 0.110359 0.0359818 0.543486
2748 1 0.122959 0.0402452 0.544259
2746 1 0.113954 0.0264326 0.549523
19 1 0.138597 0.0417106 0.543263
18 1 0.149188 0.0325899 0.549343
21 1 0.164812 0.0342025 0.549948
95 1 0.17009 0.0412145 0.542204
28 1 0.18773 0.0386337 0.540012
93 1 0.181437 0.0312639 0.548127
31 1 0.197727 0.0378433 0.545194
39 1 0.213379 0.0345746 0.544958
2761 1 0.225116 0.0258245 0.549467
104 1 0.22855 0.0313748 0.540906
2620 1 0.24052 0.023486 0.546908
85 1 0.115369 0.0495393 0.537775
17 1 0.128647 0.0525186 0.539138
16 1 0.155926 0.043565 0.541832
2936 1 0.0278041 0.0045573 0.552563
2935 1 0.0546162 0.00237907 0.561336
2 1 0.0437799 0.00595315 0.553038
2734 1 0.057682 0.0119407 0.553562
2664 1 0.0700597 0.00229235 0.561963
75 1 0.0750754 0.0143838 0.556638
2737 1 0.0841269 0.00659278 0.56179
2675 1 0.091675 0.0168151 0.555047
2672 1 0.100205 0.00831859 0.561636
2742 1 0.107233 0.0185383 0.555702
2674 1 0.1179 0.00857095 0.561603
2750 1 0.133065 0.0106321 0.560988
2679 1 0.148711 0.0138377 0.561358
2756 1 0.164823 0.0161214 0.560848
2751 1 0.186472 0.018529 0.560865
2680 1 0.20114 0.018464 0.558457
2687 1 0.216131 0.0202725 0.556346
2757 1 0.227457 0.0105439 0.561903
2758 1 0.234314 0.013456 0.554976
32 1 0.24741 0.0111762 0.553933
2759 1 0.241896 0.00442476 0.560072
2676 1 0.123775 0.0218199 0.555929
2744 1 0.131798 0.0308552 0.550439
2682 1 0.143856 0.0230605 0.555853
23 1 0.158749 0.025226 0.555509
24 1 0.175181 0.0228878 0.555774
2688 1 0.193739 0.0285373 0.554202
2689 1 0.208089 0.03044 0.551448
2678 1 0.143256 0.00114997 0.566347
2754 1 0.172919 0.0109194 0.567146
2752 1 0.157581 0.00346248 0.566871
2614 1 0.192017 0.0110109 0.567343
2464 1 0.185102 0.00187993 0.572015
2686 1 0.210304 0.00979239 0.563248
2552 1 0.21986 0.00207476 0.568393
1395 1 0.416922 0.500578 0.448788
1399 1 0.448135 0.500111 0.448398
1467 1 0.474678 0.506398 0.446209
4134 1 0.488665 0.514839 0.44935
4136 1 0.489314 0.502534 0.444206
1319 1 0.400791 0.509965 0.461651
1324 1 0.403064 0.502728 0.453313
1323 1 0.417185 0.509664 0.457191
1394 1 0.433395 0.515873 0.460418
1393 1 0.429907 0.504513 0.454706
1539 1 0.447228 0.512134 0.456096
1468 1 0.460059 0.506486 0.452007
4139 1 0.462832 0.518311 0.458591
1469 1 0.474197 0.518649 0.453496
1470 1 0.475315 0.528873 0.461968
4271 1 0.489366 0.524429 0.456319
1388 1 0.376068 0.505729 0.472384
1385 1 0.388605 0.508352 0.466786
1387 1 0.390439 0.514484 0.474103
1391 1 0.40712 0.521389 0.46932
1320 1 0.416834 0.519135 0.463114
1533 1 0.447159 0.51976 0.464149
1462 1 0.420359 0.531057 0.473914
1396 1 0.435747 0.525203 0.469658
1465 1 0.450051 0.531121 0.471677
1537 1 0.461963 0.526375 0.46682
4204 1 0.474109 0.53442 0.471165
1603 1 0.460452 0.537184 0.474452
1538 1 0.487787 0.533816 0.463556
1536 1 0.488024 0.545198 0.471311
205 1 0.461564 0.9967 0.471885
5532 1 0.476788 0.996661 0.468798
2803 1 0.487243 0.985633 0.470881
5531 1 0.489408 0.997956 0.464801
1453 1 0.364267 0.505685 0.480392
1525 1 0.347846 0.503913 0.486867
1392 1 0.378348 0.511531 0.481441
1386 1 0.390641 0.521042 0.48356
1389 1 0.402248 0.526317 0.47714
1459 1 0.406863 0.533617 0.486035
1322 1 0.418214 0.534701 0.48035
1461 1 0.431674 0.542699 0.482662
1463 1 0.435994 0.533209 0.476494
1464 1 0.44689 0.540379 0.480511
1532 1 0.445639 0.549166 0.486596
1535 1 0.460989 0.547275 0.482524
1609 1 0.473908 0.544766 0.477565
4341 1 0.47275 0.554478 0.485239
4207 1 0.488018 0.553085 0.480393
2658 1 0.463527 0.971139 0.48724
5463 1 0.479577 0.970883 0.483795
5462 1 0.494026 0.968251 0.483109
275 1 0.429046 0.994649 0.487025
2660 1 0.452011 0.979666 0.483595
135 1 0.44346 0.991154 0.482724
67 1 0.454394 0.990633 0.477012
2730 1 0.469924 0.987952 0.475499
2799 1 0.465554 0.978755 0.480387
5464 1 0.497601 0.97856 0.475173
5461 1 0.481929 0.978289 0.476617
1520 1 0.327052 0.506767 0.499472
1524 1 0.337499 0.505787 0.492391
1521 1 0.337607 0.516337 0.499871
1523 1 0.365432 0.510408 0.489256
1527 1 0.350438 0.512259 0.495223
1528 1 0.365663 0.520082 0.497087
1454 1 0.378804 0.517031 0.489261
1455 1 0.380498 0.52853 0.496931
1390 1 0.392399 0.529209 0.491347
1460 1 0.405033 0.541864 0.495033
1530 1 0.419889 0.543569 0.488772
1669 1 0.417933 0.55081 0.497092
1604 1 0.433693 0.552175 0.492125
1534 1 0.445576 0.55988 0.493457
1610 1 0.456439 0.559097 0.489244
4275 1 0.473047 0.563006 0.493199
4273 1 0.485671 0.558352 0.488007
1605 1 0.458851 0.567697 0.498322
4343 1 0.498998 0.577942 0.497739
4274 1 0.497122 0.56809 0.491404
4342 1 0.484326 0.570965 0.496907
5392 1 0.471512 0.95215 0.499628
5394 1 0.48674 0.95157 0.495065
5325 1 0.497191 0.940851 0.499162
2728 1 0.437008 0.973714 0.498217
2656 1 0.450203 0.973289 0.492533
2659 1 0.474642 0.962887 0.491185
2657 1 0.458989 0.963109 0.494132
5396 1 0.488225 0.960629 0.488722
130 1 0.400846 0.99866 0.497569
63 1 0.415371 0.994803 0.493304
134 1 0.428223 0.985232 0.497244
65 1 0.439839 0.983184 0.490163
1509 1 0.296792 0.508143 0.511988
1517 1 0.299141 0.501731 0.502961
1584 1 0.308856 0.511714 0.508807
1510 1 0.315641 0.507519 0.503012
1587 1 0.324998 0.514788 0.506857
1522 1 0.336307 0.52401 0.508058
1526 1 0.351223 0.521827 0.501242
1458 1 0.366743 0.529415 0.504632
1595 1 0.352606 0.53199 0.509734
1456 1 0.379997 0.537394 0.506116
1457 1 0.394266 0.537176 0.501396
1670 1 0.405374 0.550605 0.50428
1599 1 0.394629 0.54633 0.510401
1675 1 0.419607 0.557774 0.505473
1531 1 0.431575 0.562058 0.500221
1600 1 0.432215 0.565861 0.508949
1601 1 0.445684 0.568152 0.502726
1606 1 0.444906 0.575122 0.511808
1608 1 0.459236 0.577149 0.508037
4414 1 0.472616 0.582868 0.507333
1607 1 0.471631 0.575506 0.501171
4344 1 0.484955 0.580891 0.503301
4416 1 0.483743 0.589202 0.510079
4485 1 0.495354 0.598307 0.511357
4413 1 0.498294 0.588006 0.504735
5324 1 0.475517 0.929248 0.510531
5256 1 0.492663 0.932185 0.506497
5321 1 0.454362 0.945762 0.511519
5391 1 0.458464 0.954442 0.503229
5393 1 0.465087 0.941259 0.50649
5395 1 0.481403 0.94167 0.502317
64 1 0.410822 0.978182 0.510107
2798 1 0.423316 0.976989 0.505601
2729 1 0.433669 0.966264 0.506843
2588 1 0.444569 0.956888 0.509471
2727 1 0.446743 0.964452 0.501348
61 1 0.388882 0.99923 0.504652
127 1 0.372298 0.998203 0.508488
2792 1 0.398673 0.990175 0.507421
2796 1 0.412875 0.987502 0.501528
1504 1 0.227407 0.501486 0.520133
1440 1 0.254824 0.505261 0.519306
1575 1 0.242291 0.50731 0.524111
1506 1 0.272414 0.50985 0.521969
1514 1 0.301209 0.51629 0.519544
1513 1 0.28751 0.50864 0.51735
1508 1 0.285948 0.51605 0.523553
1589 1 0.317054 0.519769 0.513377
1586 1 0.317726 0.521828 0.520144
1659 1 0.329723 0.522626 0.516015
1593 1 0.340805 0.529668 0.517937
1592 1 0.352991 0.539289 0.520573
1529 1 0.363515 0.536662 0.513948
1665 1 0.366612 0.545842 0.522245
1598 1 0.37944 0.544503 0.51573
1602 1 0.406124 0.558791 0.51266
1743 1 0.392442 0.555698 0.517132
1667 1 0.407647 0.564765 0.520526
1671 1 0.418852 0.564523 0.514516
1673 1 0.431697 0.574096 0.518582
1677 1 0.418688 0.57458 0.5226
1680 1 0.44079 0.585661 0.520123
4411 1 0.456517 0.583052 0.515297
1679 1 0.458612 0.59231 0.521267
4412 1 0.469622 0.590165 0.515062
1676 1 0.471424 0.602645 0.523066
4483 1 0.481207 0.598359 0.518088
4555 1 0.494697 0.608897 0.518891
5255 1 0.480459 0.908657 0.522621
5259 1 0.498738 0.905877 0.517952
5186 1 0.49092 0.896936 0.524874
5322 1 0.472935 0.921338 0.518173
5254 1 0.460105 0.927362 0.521976
5258 1 0.488216 0.919502 0.515427
2655 1 0.428959 0.949173 0.524032
2589 1 0.4505 0.937502 0.519785
2795 1 0.441568 0.949002 0.517455
2590 1 0.461874 0.934792 0.515819
57 1 0.395239 0.971955 0.52471
2788 1 0.40938 0.969789 0.518542
2790 1 0.423939 0.969652 0.513456
2797 1 0.430468 0.958431 0.515932
2794 1 0.417503 0.958341 0.521376
2711 1 0.356603 0.991918 0.521174
58 1 0.384721 0.991111 0.513025
51 1 0.372243 0.993 0.51792
55 1 0.383028 0.984016 0.521435
59 1 0.396343 0.98148 0.515813
1475 1 0.0163646 0.507495 0.534197
1471 1 0.00113935 0.511058 0.53718
1404 1 0.00464367 0.503204 0.529558
1407 1 0.0293994 0.502652 0.529694
1478 1 0.0469595 0.504891 0.5357
1487 1 0.144704 0.504674 0.533204
1563 1 0.162162 0.506038 0.527999
1561 1 0.161511 0.512613 0.535716
1424 1 0.175481 0.509461 0.532223
1497 1 0.189627 0.515066 0.53367
1499 1 0.186948 0.50404 0.526997
1503 1 0.217082 0.504848 0.525312
1500 1 0.203092 0.508895 0.527858
1571 1 0.214191 0.515235 0.53341
1568 1 0.201815 0.517511 0.537203
1502 1 0.230117 0.511771 0.530062
1579 1 0.243547 0.517811 0.534576
1438 1 0.255553 0.515139 0.527574
1649 1 0.270201 0.519704 0.528321
1581 1 0.258002 0.523168 0.53511
1577 1 0.272494 0.529135 0.53654
1512 1 0.297871 0.524224 0.526181
1576 1 0.287406 0.527317 0.531323
1585 1 0.301244 0.533533 0.53366
1516 1 0.310526 0.527363 0.526159
1582 1 0.315681 0.534883 0.531891
1588 1 0.328094 0.530146 0.525093
1591 1 0.329718 0.537357 0.533663
1596 1 0.339475 0.538639 0.527186
1590 1 0.344449 0.548765 0.535273
1597 1 0.354557 0.545447 0.529232
1660 1 0.35832 0.554094 0.536858
1739 1 0.383373 0.55098 0.525203
1661 1 0.371034 0.554017 0.531253
1594 1 0.382559 0.56265 0.533728
1744 1 0.390558 0.576062 0.535227
1668 1 0.393942 0.56561 0.527079
1745 1 0.404441 0.576777 0.528564
1817 1 0.431891 0.581834 0.526791
1672 1 0.417351 0.582806 0.531145
1747 1 0.43493 0.591559 0.535561
1678 1 0.445528 0.591908 0.527498
1749 1 0.448743 0.598653 0.537388
4481 1 0.458077 0.601474 0.529934
4482 1 0.460119 0.61097 0.537271
1887 1 0.470222 0.609333 0.529924
4484 1 0.483113 0.610235 0.526326
4621 1 0.496691 0.620465 0.525053
1816 1 0.482737 0.622359 0.531343
4623 1 0.494969 0.633279 0.531194
4622 1 0.497472 0.64578 0.536344
5181 1 0.499833 0.868961 0.533972
5251 1 0.472337 0.888669 0.53514
5182 1 0.485839 0.886772 0.531538
5112 1 0.499847 0.883283 0.528354
2520 1 0.462267 0.899112 0.533601
5257 1 0.4766 0.898607 0.529569
5323 1 0.450218 0.923304 0.528312
5252 1 0.451549 0.914275 0.53355
2725 1 0.43841 0.927886 0.533461
5253 1 0.463821 0.914156 0.526463
2779 1 0.388963 0.951766 0.536925
2786 1 0.402039 0.949025 0.533476
2724 1 0.4164 0.948549 0.529582
2722 1 0.430294 0.939751 0.531175
2793 1 0.41601 0.939865 0.537001
2652 1 0.441064 0.937879 0.52552
44 1 0.34314 0.977924 0.535507
2783 1 0.363288 0.97099 0.532589
2784 1 0.377122 0.963611 0.535475
2785 1 0.380065 0.974128 0.529445
2781 1 0.391232 0.962087 0.53183
2726 1 0.40451 0.959379 0.526723
115 1 0.322637 0.993723 0.536851
2782 1 0.345061 0.993661 0.525684
117 1 0.336021 0.992627 0.533314
2787 1 0.366029 0.98331 0.525356
119 1 0.350975 0.979988 0.5296
1472 1 0.0157366 0.517032 0.541264
1402 1 0.0307159 0.511809 0.538933
1476 1 0.0449634 0.515035 0.543157
1548 1 0.0582541 0.509127 0.540861
1479 1 0.0746054 0.500911 0.53757
1550 1 0.0724735 0.512423 0.543008
1552 1 0.0859668 0.504646 0.541431
1555 1 0.0853211 0.515329 0.549722
1627 1 0.0985005 0.510548 0.546854
1553 1 0.101045 0.5015 0.539722
1629 1 0.114561 0.507405 0.543872
1560 1 0.131242 0.505855 0.540034
1557 1 0.132446 0.513567 0.547172
1564 1 0.146705 0.514387 0.542329
1635 1 0.163345 0.519109 0.544422
1566 1 0.177465 0.516786 0.539838
1567 1 0.214443 0.520363 0.540782
1573 1 0.229706 0.518898 0.538387
1549 1 0.0135414 0.528812 0.547293
1543 1 0.000476128 0.53654 0.549424
1547 1 0.0301575 0.522239 0.546403
1621 1 0.0593764 0.522907 0.547145
1545 1 0.0440742 0.529978 0.549487
1498 1 0.189419 0.522992 0.542527
1501 1 0.175079 0.524889 0.548676
1496 1 0.204053 0.525726 0.546204
1570 1 0.219048 0.529055 0.54985
1711 1 0.231598 0.527247 0.544318
1572 1 0.245548 0.525714 0.541167
1642 1 0.245826 0.534068 0.548417
1645 1 0.261473 0.532484 0.542446
1650 1 0.273783 0.537035 0.545286
1651 1 0.288114 0.534848 0.539799
1580 1 0.30358 0.54318 0.542266
1511 1 0.289044 0.544578 0.547287
1721 1 0.317211 0.54371 0.537734
1657 1 0.32002 0.549222 0.545929
1583 1 0.333309 0.547657 0.540814
1730 1 0.344205 0.558063 0.54242
1727 1 0.330533 0.559418 0.549482
1664 1 0.357361 0.563025 0.54601
1663 1 0.369394 0.561352 0.538301
1728 1 0.343396 0.566534 0.54998
1662 1 0.37105 0.57549 0.548532
1741 1 0.376555 0.571723 0.540743
1740 1 0.390074 0.584599 0.543991
1674 1 0.40493 0.58404 0.53808
1813 1 0.404512 0.5905 0.545558
1746 1 0.419655 0.588823 0.539984
1748 1 0.432078 0.597198 0.543884
4552 1 0.419137 0.595028 0.547673
4551 1 0.448092 0.60839 0.54365
1819 1 0.43734 0.607562 0.549995
1888 1 0.472702 0.623624 0.538397
1750 1 0.457693 0.619738 0.544683
1889 1 0.469048 0.632773 0.544353
1958 1 0.475526 0.64665 0.545124
1959 1 0.485545 0.636237 0.539298
4556 1 0.489729 0.652446 0.542041
4691 1 0.488957 0.6625 0.547978
4696 1 0.497303 0.671477 0.545384
2445 1 0.49888 0.844072 0.542143
2376 1 0.495544 0.834549 0.547936
2518 1 0.470593 0.864796 0.549863
2517 1 0.485695 0.848436 0.546689
2519 1 0.48122 0.861972 0.5438
2448 1 0.494804 0.859166 0.540204
2516 1 0.446625 0.889368 0.549083
5184 1 0.473279 0.877403 0.543204
2583 1 0.460438 0.877418 0.549031
2584 1 0.458996 0.888941 0.540838
2450 1 0.488882 0.875211 0.537674
2515 1 0.434685 0.903685 0.546381
2586 1 0.447885 0.900368 0.53876
2791 1 0.399281 0.929729 0.549728
2721 1 0.415461 0.928317 0.543777
2585 1 0.427849 0.930218 0.538994
2653 1 0.42741 0.915385 0.544207
2723 1 0.414852 0.919142 0.549307
2654 1 0.437211 0.915444 0.538178
2712 1 0.348261 0.955529 0.546228
52 1 0.36319 0.946924 0.545898
2716 1 0.385535 0.941396 0.544945
49 1 0.376512 0.949573 0.541056
2780 1 0.373368 0.936174 0.548429
2789 1 0.40095 0.941188 0.541084
45 1 0.325219 0.971284 0.546278
2704 1 0.340558 0.969263 0.542517
42 1 0.334804 0.959751 0.549564
50 1 0.366355 0.958328 0.541151
48 1 0.352425 0.967435 0.538068
2768 1 0.292602 0.999052 0.542497
2770 1 0.30001 0.984927 0.545616
2769 1 0.284105 0.991993 0.548948
112 1 0.30837 0.99491 0.539654
2764 1 0.317466 0.98273 0.544109
47 1 0.330475 0.981321 0.539511
1558 1 0.116526 0.517544 0.551132
1562 1 0.149357 0.518871 0.550126
1544 1 0.0131498 0.542598 0.553472
1691 1 0.0283642 0.53315 0.552119
1617 1 0.0413623 0.539473 0.555985
1623 1 0.0579055 0.533437 0.553544
1556 1 0.0731614 0.52372 0.551713
1625 1 0.0741148 0.537395 0.558605
1559 1 0.10313 0.522991 0.552966
1624 1 0.0881753 0.527921 0.554623
1696 1 0.10113 0.53421 0.562026
1626 1 0.112605 0.528956 0.557496
1697 1 0.124871 0.524948 0.558161
1628 1 0.134309 0.523982 0.553176
1633 1 0.147432 0.527268 0.557817
1495 1 0.162739 0.525707 0.553731
1703 1 0.162032 0.530164 0.56222
1637 1 0.176834 0.531709 0.557499
1636 1 0.194903 0.534654 0.560325
1705 1 0.188952 0.528362 0.55165
1638 1 0.205687 0.531679 0.555111
1569 1 0.21875 0.539402 0.558064
1712 1 0.234271 0.536566 0.553167
1648 1 0.26279 0.542282 0.550685
1622 1 0.0127065 0.553384 0.562438
1620 1 0.0263751 0.546419 0.557648
1694 1 0.033495 0.555053 0.562327
1554 1 0.0581308 0.544622 0.559449
1578 1 0.233053 0.544818 0.560798
1643 1 0.249212 0.54643 0.555162
1574 1 0.261754 0.553039 0.558827
1723 1 0.278481 0.54922 0.553141
1722 1 0.275811 0.561081 0.559909
1655 1 0.292558 0.553076 0.555679
1725 1 0.302517 0.560648 0.560293
1654 1 0.305587 0.553224 0.551402
1652 1 0.318586 0.560546 0.553921
1653 1 0.330856 0.570192 0.556237
1729 1 0.342178 0.577098 0.55946
1801 1 0.35621 0.574351 0.553922
1798 1 0.355668 0.586164 0.562224
1666 1 0.37942 0.585547 0.551138
1735 1 0.37048 0.582485 0.558092
1738 1 0.379269 0.592891 0.559346
1818 1 0.393196 0.593838 0.552476
1810 1 0.393096 0.604983 0.558258
1815 1 0.408859 0.599328 0.553645
1820 1 0.425266 0.602858 0.553857
1883 1 0.40686 0.60917 0.560234
1814 1 0.432414 0.61638 0.556226
1742 1 0.421535 0.615045 0.561369
2027 1 0.429781 0.630156 0.561601
1886 1 0.446455 0.616754 0.551122
1882 1 0.444522 0.629609 0.555634
1956 1 0.452623 0.64249 0.555847
1955 1 0.455564 0.63058 0.550948
2093 1 0.440821 0.641637 0.562333
2026 1 0.466571 0.642271 0.550563
2029 1 0.453045 0.656097 0.561688
4692 1 0.477883 0.658387 0.550973
1957 1 0.465224 0.656435 0.554137
2028 1 0.469524 0.670006 0.557038
4767 1 0.484328 0.671197 0.552071
2097 1 0.465748 0.679936 0.561917
4761 1 0.47002 0.692855 0.561081
4764 1 0.496159 0.682386 0.55149
1960 1 0.481405 0.684798 0.557894
4765 1 0.477479 0.70425 0.55864
4901 1 0.496658 0.712053 0.551995
4763 1 0.488678 0.69854 0.553068
2030 1 0.485016 0.715866 0.555664
2098 1 0.476976 0.721146 0.562248
2100 1 0.497451 0.728126 0.55417
2165 1 0.484804 0.736192 0.559873
2167 1 0.495487 0.745735 0.556175
2305 1 0.485829 0.754808 0.558864
4973 1 0.489395 0.777632 0.559227
4975 1 0.496978 0.763625 0.557168
2309 1 0.489984 0.792916 0.558773
2371 1 0.477874 0.826076 0.560422
2442 1 0.498483 0.805214 0.552922
2441 1 0.486917 0.809129 0.559218
2375 1 0.492405 0.822888 0.553057
2374 1 0.469969 0.838646 0.559392
2443 1 0.482944 0.8344 0.553036
2514 1 0.475473 0.851134 0.551102
2444 1 0.458635 0.867062 0.555906
2446 1 0.465449 0.85443 0.556757
2513 1 0.445653 0.87134 0.562159
2512 1 0.436322 0.883269 0.558352
2509 1 0.450528 0.880038 0.555498
2579 1 0.411403 0.904194 0.557475
2651 1 0.396984 0.903163 0.560048
2581 1 0.419587 0.892491 0.560171
2580 1 0.431422 0.896625 0.553337
2587 1 0.423265 0.909534 0.55164
2710 1 0.363551 0.930568 0.555736
2713 1 0.360225 0.923325 0.56246
2649 1 0.391092 0.918763 0.558196
2719 1 0.384442 0.931245 0.553054
2717 1 0.375136 0.921983 0.560553
2650 1 0.404201 0.915483 0.554127
43 1 0.328749 0.951372 0.556732
2771 1 0.343112 0.948442 0.553547
2708 1 0.334453 0.938522 0.559723
2778 1 0.34856 0.935666 0.558539
2714 1 0.355637 0.939312 0.551264
2694 1 0.270958 0.975685 0.562437
2698 1 0.28799 0.970305 0.560155
2772 1 0.294627 0.976164 0.553959
41 1 0.30917 0.976046 0.551611
2776 1 0.313264 0.958414 0.559497
2774 1 0.304492 0.968753 0.556593
111 1 0.321875 0.965912 0.553207
3008 1 0.00457 0.988212 0.555479
2934 1 0.0131832 0.999106 0.551035
2933 1 0.0215235 0.991687 0.558431
2939 1 0.0370904 0.997575 0.559753
33 1 0.257548 0.999164 0.556912
2624 1 0.26862 0.995275 0.552421
2762 1 0.264813 0.9892 0.55965
2700 1 0.279622 0.982257 0.554521
1765 1 0.085614 0.540664 0.564635
1631 1 0.108071 0.540835 0.567942
1766 1 0.120371 0.536541 0.564029
1699 1 0.133322 0.53098 0.56257
1632 1 0.14933 0.536247 0.566487
1630 1 0.133305 0.539047 0.569723
1634 1 0.164461 0.538767 0.570997
1700 1 0.177392 0.537297 0.566234
1640 1 0.192216 0.542991 0.569419
1690 1 0.0245316 0.56431 0.567397
1695 1 0.0509105 0.555282 0.566691
1693 1 0.0708106 0.547523 0.566526
1764 1 0.0652858 0.559039 0.574077
1761 1 0.0811958 0.550096 0.572826
1768 1 0.0946199 0.544088 0.570436
1698 1 0.121044 0.545228 0.571722
1771 1 0.147443 0.544513 0.574402
1701 1 0.179123 0.544755 0.574895
1706 1 0.208567 0.543949 0.564619
1707 1 0.205496 0.551556 0.570832
1646 1 0.219592 0.556601 0.574257
1641 1 0.220577 0.54951 0.566171
1639 1 0.233989 0.556788 0.568352
1647 1 0.246903 0.553033 0.56439
1644 1 0.246881 0.563406 0.57332
1719 1 0.261395 0.560466 0.567349
1720 1 0.276838 0.564524 0.5699
1795 1 0.290464 0.561439 0.563819
1546 1 0.00952225 0.566268 0.568233
1618 1 0.0384429 0.56641 0.569874
1613 1 0.0256877 0.577048 0.573287
1762 1 0.0536384 0.568337 0.574511
1717 1 0.263725 0.56916 0.574144
1797 1 0.301676 0.568951 0.56686
1796 1 0.289826 0.572296 0.573225
1865 1 0.301205 0.581067 0.573625
1658 1 0.315016 0.570536 0.563136
1656 1 0.314107 0.58211 0.568148
1799 1 0.326906 0.581006 0.564207
1726 1 0.324802 0.591852 0.571835
1800 1 0.338788 0.587888 0.566068
1734 1 0.339623 0.599168 0.574321
1737 1 0.369362 0.594412 0.565136
1731 1 0.354539 0.596802 0.569008
1736 1 0.367754 0.603255 0.571406
1805 1 0.382293 0.600975 0.56623
1733 1 0.381771 0.615378 0.572012
1885 1 0.396204 0.611026 0.565959
1811 1 0.409273 0.617558 0.568302
1809 1 0.395702 0.620114 0.57425
1884 1 0.419281 0.629361 0.567038
1807 1 0.407094 0.632376 0.57467
1953 1 0.430225 0.64338 0.568087
1880 1 0.418382 0.641197 0.574726
2024 1 0.442533 0.651618 0.56923
2022 1 0.446347 0.668245 0.567638
2025 1 0.436199 0.663714 0.573826
2091 1 0.457014 0.669123 0.562764
2095 1 0.453167 0.684547 0.567386
2089 1 0.447362 0.692185 0.574375
2094 1 0.453722 0.70576 0.572259
2099 1 0.462201 0.696257 0.567802
4831 1 0.467481 0.707955 0.565574
2096 1 0.458772 0.71682 0.569453
2162 1 0.457135 0.732837 0.573157
2164 1 0.466335 0.728667 0.567464
2239 1 0.471339 0.738511 0.564097
2166 1 0.472579 0.753864 0.564953
2235 1 0.464313 0.746767 0.569422
2240 1 0.462211 0.762817 0.571488
2236 1 0.472354 0.771883 0.56568
2238 1 0.459921 0.776403 0.572607
2168 1 0.483001 0.766793 0.562788
2303 1 0.453886 0.79208 0.574628
2308 1 0.47572 0.799473 0.563752
2306 1 0.467877 0.787375 0.570515
2302 1 0.464377 0.802857 0.570763
5041 1 0.478575 0.785746 0.563353
2372 1 0.450534 0.807286 0.573835
2368 1 0.444764 0.824329 0.573965
2304 1 0.474328 0.813378 0.564756
2298 1 0.459696 0.817427 0.569926
2370 1 0.452231 0.834724 0.56905
2439 1 0.444612 0.84671 0.570439
2440 1 0.457882 0.843936 0.564289
2373 1 0.463083 0.828818 0.564896
2507 1 0.428838 0.851291 0.57463
2578 1 0.422515 0.865939 0.571764
2511 1 0.451718 0.855522 0.562902
2577 1 0.438763 0.85934 0.568779
2576 1 0.405922 0.870132 0.574863
2647 1 0.398439 0.884294 0.571305
2582 1 0.413291 0.882202 0.566197
2510 1 0.429039 0.874893 0.564161
2643 1 0.376425 0.904193 0.573258
2648 1 0.383647 0.910514 0.564835
2644 1 0.38982 0.89864 0.568545
2646 1 0.403135 0.893267 0.564199
2637 1 0.321761 0.924852 0.57433
2633 1 0.336204 0.920283 0.572674
2706 1 0.343252 0.927264 0.565309
2709 1 0.352832 0.916074 0.569567
2720 1 0.367149 0.914755 0.568938
5596 1 0.00315186 0.954551 0.574437
2703 1 0.292401 0.954829 0.570135
2702 1 0.296288 0.941134 0.574058
2707 1 0.313069 0.938541 0.571735
2773 1 0.304921 0.950237 0.56809
2777 1 0.318188 0.944198 0.563913
2638 1 0.329165 0.935993 0.566844
2865 1 0.00699771 0.968604 0.569328
5598 1 0.024102 0.973373 0.571453
2867 1 0.0410308 0.978159 0.571455
2623 1 0.251297 0.975797 0.574516
2699 1 0.274405 0.960304 0.573283
2696 1 0.265668 0.969863 0.569429
2634 1 0.281346 0.964271 0.566388
2767 1 0.298977 0.961354 0.563312
2866 1 0.013014 0.981713 0.562896
2937 1 0.0311288 0.986411 0.565647
2869 1 0.0562694 0.981518 0.57266
2666 1 0.0473344 0.990999 0.567287
2868 1 0.0622962 0.992396 0.566954
5 1 0.0738837 0.9804 0.570311
2667 1 0.0803818 0.994953 0.56749
2663 1 0.0884473 0.984179 0.572115
2600 1 0.0936167 0.998319 0.5673
2736 1 0.10412 0.985068 0.570992
2604 1 0.125606 0.998816 0.566537
2735 1 0.11012 0.997852 0.566408
2743 1 0.122102 0.986239 0.571176
2677 1 0.136189 0.991012 0.572886
2608 1 0.15384 0.992638 0.572692
2755 1 0.168721 0.998891 0.57306
2684 1 0.203609 0.999985 0.570314
35 1 0.234497 0.998333 0.566828
2622 1 0.226895 0.987282 0.57458
2693 1 0.255654 0.981424 0.567372
2692 1 0.247395 0.9911 0.564406
2695 1 0.240977 0.985654 0.57088
1692 1 0.0769268 0.563345 0.579028
1763 1 0.0927784 0.555554 0.577689
1836 1 0.108319 0.561913 0.582374
1832 1 0.106405 0.551755 0.575968
1767 1 0.121221 0.553124 0.578298
1835 1 0.120672 0.564438 0.587294
1837 1 0.132827 0.559739 0.585484
1769 1 0.13478 0.54933 0.576573
1772 1 0.149332 0.552673 0.581497
1704 1 0.163883 0.548267 0.577998
1702 1 0.16311 0.558685 0.58634
1709 1 0.176821 0.555473 0.583875
1708 1 0.190624 0.552477 0.577181
1710 1 0.190927 0.562744 0.586062
1781 1 0.202119 0.559359 0.579745
1716 1 0.233913 0.565047 0.577408
1753 1 0.0111986 0.578567 0.576667
1756 1 0.0256689 0.581525 0.581728
1760 1 0.0383521 0.574479 0.577478
1823 1 0.0386662 0.586757 0.584864
1759 1 0.0518103 0.580011 0.58192
1831 1 0.0665621 0.572552 0.580885
1834 1 0.0823219 0.577782 0.585965
1827 1 0.0676834 0.58604 0.586358
1900 1 0.0925973 0.567839 0.584792
1713 1 0.217126 0.569684 0.579945
1782 1 0.205635 0.571221 0.58737
1715 1 0.2307 0.573825 0.58374
1718 1 0.247947 0.570296 0.580701
1794 1 0.260523 0.578026 0.582188
1724 1 0.275473 0.576881 0.577214
1863 1 0.285012 0.586629 0.578826
1757 1 0.0139521 0.588175 0.583591
1792 1 0.271976 0.590599 0.582677
1868 1 0.298263 0.592218 0.579888
1864 1 0.284354 0.596275 0.583909
1937 1 0.296042 0.604069 0.586142
1867 1 0.311415 0.591006 0.575453
1802 1 0.310169 0.604583 0.582802
1732 1 0.324219 0.601322 0.579756
1804 1 0.35362 0.605703 0.576551
1870 1 0.324139 0.612367 0.58568
1875 1 0.339292 0.610691 0.581708
1803 1 0.337909 0.622307 0.586974
1806 1 0.36777 0.616053 0.577587
1808 1 0.356096 0.619252 0.582557
1879 1 0.384061 0.625548 0.579414
1881 1 0.366595 0.630698 0.583734
1952 1 0.382005 0.63811 0.585053
1812 1 0.397277 0.635367 0.580978
1949 1 0.395354 0.648915 0.586878
1951 1 0.408128 0.64596 0.580685
1950 1 0.402026 0.662172 0.587468
1954 1 0.425063 0.653595 0.575891
2023 1 0.417922 0.658073 0.581989
2020 1 0.425861 0.672466 0.581102
1948 1 0.41259 0.676787 0.58444
1946 1 0.420999 0.687828 0.586093
2092 1 0.438322 0.678005 0.575066
2016 1 0.434932 0.689846 0.580118
2021 1 0.429631 0.700842 0.584032
2088 1 0.425107 0.714871 0.58573
2090 1 0.439998 0.706225 0.578833
2159 1 0.425262 0.730624 0.586886
2163 1 0.448462 0.721776 0.576913
2161 1 0.438266 0.723952 0.581729
2232 1 0.446481 0.738187 0.579911
2157 1 0.432039 0.741534 0.584847
2231 1 0.428478 0.756163 0.58568
2234 1 0.455382 0.751165 0.57544
2233 1 0.442859 0.75249 0.580264
2237 1 0.449449 0.768625 0.576451
2230 1 0.440076 0.769385 0.582934
2300 1 0.446399 0.782572 0.579792
2301 1 0.433564 0.788314 0.585097
2435 1 0.428588 0.803704 0.58535
2369 1 0.439841 0.800036 0.578317
2432 1 0.422179 0.820908 0.584792
2367 1 0.435283 0.814891 0.579414
2437 1 0.422875 0.842581 0.57932
2436 1 0.430104 0.82964 0.580221
2505 1 0.414404 0.83239 0.585969
2438 1 0.438392 0.836987 0.57561
2573 1 0.385268 0.866492 0.58556
2508 1 0.411374 0.847873 0.583269
2574 1 0.399995 0.859518 0.582282
2506 1 0.415242 0.859124 0.57716
2570 1 0.38571 0.890395 0.575002
2575 1 0.376018 0.881167 0.583419
2645 1 0.390554 0.873449 0.578449
2486 1 0.320288 0.904289 0.587213
2631 1 0.336826 0.902505 0.584711
2562 1 0.328044 0.912922 0.580797
2715 1 0.344409 0.90881 0.577534
2718 1 0.359599 0.904183 0.576522
2642 1 0.367895 0.895951 0.581069
2640 1 0.351897 0.897305 0.584215
5527 1 0.00719022 0.932754 0.583666
2556 1 0.278835 0.933531 0.58472
2775 1 0.297649 0.918858 0.585172
2632 1 0.291412 0.931196 0.581891
2635 1 0.3043 0.92959 0.577456
2636 1 0.311624 0.917903 0.581413
5597 1 0.0132225 0.948518 0.581222
5456 1 0.0197995 0.938396 0.587278
5528 1 0.0272254 0.950734 0.582853
2594 1 0.0429004 0.956334 0.581634
5458 1 0.0500189 0.946693 0.586886
2592 1 0.0657756 0.950384 0.586972
2621 1 0.254641 0.953531 0.584378
2626 1 0.270743 0.948095 0.580465
2484 1 0.285149 0.947961 0.578478
5599 1 0.0164372 0.960715 0.57611
5600 1 0.0343803 0.966095 0.577469
2661 1 0.0569255 0.958822 0.582242
5530 1 0.0502481 0.969633 0.578842
2870 1 0.0673806 0.970456 0.577311
71 1 0.0739386 0.962832 0.582954
3 1 0.0834586 0.972304 0.577904
2731 1 0.0882555 0.964817 0.583199
2669 1 0.097558 0.976149 0.577341
1 1 0.10547 0.965359 0.582971
2596 1 0.113645 0.974124 0.576538
2733 1 0.123626 0.966686 0.583327
2607 1 0.140856 0.970866 0.582731
2599 1 0.131764 0.975536 0.577355
2542 1 0.156776 0.970888 0.583038
2616 1 0.170507 0.977551 0.583632
2536 1 0.167393 0.960361 0.587182
2617 1 0.198468 0.968946 0.585825
2763 1 0.229706 0.965649 0.585556
2619 1 0.237759 0.976371 0.57799
2613 1 0.218135 0.975726 0.581724
2615 1 0.246629 0.964257 0.582253
2697 1 0.260036 0.961723 0.577638
2610 1 0.147826 0.982269 0.578623
2612 1 0.163734 0.986644 0.579331
2685 1 0.187951 0.979194 0.583017
2753 1 0.177635 0.992231 0.579317
2611 1 0.1954 0.993838 0.577802
2690 1 0.214138 0.993484 0.576521
2618 1 0.2048 0.980466 0.580857
1774 1 0.148864 0.560823 0.590221
1906 1 0.0941311 0.580419 0.59092
1905 1 0.105613 0.572269 0.589322
1904 1 0.108189 0.58309 0.597144
1828 1 0.118782 0.575194 0.595231
1839 1 0.131948 0.58284 0.597715
1775 1 0.133104 0.566376 0.592892
1773 1 0.145738 0.572092 0.596592
1779 1 0.162632 0.570555 0.593491
1851 1 0.158231 0.581655 0.599551
1853 1 0.176623 0.567202 0.588865
1855 1 0.17569 0.577726 0.595697
1783 1 0.191957 0.574774 0.592287
1991 1 0.191899 0.586697 0.596455
1784 1 0.207769 0.583058 0.593486
1714 1 0.21931 0.578051 0.588854
1787 1 0.229844 0.585124 0.59077
1793 1 0.244735 0.580665 0.588044
1895 1 0.00986025 0.598613 0.58792
1825 1 0.0210996 0.607753 0.592744
1824 1 0.023786 0.592719 0.58803
1826 1 0.0355953 0.599953 0.591007
1829 1 0.0527594 0.592946 0.588267
1896 1 0.048245 0.603856 0.596181
1899 1 0.064092 0.596471 0.593657
1969 1 0.0647314 0.607941 0.598422
1758 1 0.0770616 0.588703 0.592579
1830 1 0.0794536 0.602982 0.598156
1833 1 0.0925131 0.591948 0.597568
1785 1 0.21802 0.590521 0.59497
1789 1 0.231901 0.601893 0.59485
1790 1 0.256527 0.589246 0.58761
1791 1 0.241815 0.594664 0.591294
1860 1 0.255342 0.603717 0.596436
1859 1 0.243198 0.606267 0.599553
1931 1 0.266711 0.599502 0.590673
1861 1 0.280712 0.607777 0.588447
1897 1 0.00621037 0.612546 0.591296
1965 1 0.021357 0.622524 0.597629
2036 1 0.00755483 0.624756 0.596737
1898 1 0.0344109 0.617014 0.597972
1930 1 0.267711 0.611273 0.594553
1862 1 0.280072 0.622921 0.595566
1866 1 0.29132 0.617824 0.591229
1869 1 0.307238 0.617183 0.588173
1872 1 0.322326 0.624486 0.588056
1938 1 0.307378 0.628548 0.591412
1935 1 0.292499 0.635008 0.59581
2009 1 0.320155 0.637103 0.59317
1941 1 0.308094 0.642235 0.596314
1874 1 0.336402 0.63641 0.591628
1871 1 0.334949 0.649105 0.59703
1876 1 0.35205 0.638109 0.58793
1942 1 0.350524 0.646505 0.594578
1877 1 0.369218 0.642249 0.591222
1878 1 0.380846 0.650965 0.591393
1945 1 0.365787 0.656928 0.595859
1940 1 0.349157 0.659828 0.598763
2017 1 0.361494 0.669117 0.599572
2019 1 0.388269 0.663387 0.592017
1947 1 0.37536 0.664699 0.596914
1944 1 0.370357 0.6825 0.599987
2014 1 0.381577 0.67654 0.597299
2086 1 0.40449 0.68895 0.589692
2018 1 0.396345 0.675142 0.590459
2085 1 0.391607 0.691657 0.594557
2083 1 0.379975 0.697711 0.59869
2015 1 0.389881 0.709358 0.596329
2158 1 0.399982 0.702494 0.590887
2087 1 0.413763 0.704001 0.588097
2222 1 0.386434 0.723889 0.599268
2225 1 0.400454 0.718806 0.593605
2160 1 0.412333 0.734494 0.594008
2227 1 0.398239 0.737023 0.597481
2155 1 0.415454 0.719641 0.590186
2229 1 0.410065 0.750299 0.594706
2290 1 0.392393 0.750883 0.599827
2299 1 0.420621 0.744728 0.590924
2294 1 0.40286 0.76388 0.596075
2288 1 0.39756 0.777804 0.598592
2292 1 0.41742 0.761459 0.590988
2365 1 0.415592 0.77593 0.593566
2293 1 0.427791 0.774024 0.588439
2296 1 0.407433 0.79277 0.594568
2364 1 0.391833 0.797174 0.598522
2297 1 0.422228 0.790563 0.5902
2429 1 0.386555 0.813523 0.596944
2428 1 0.3717 0.818069 0.599026
2501 1 0.407231 0.819714 0.588178
2360 1 0.400806 0.8049 0.593227
2366 1 0.414247 0.806665 0.589199
2433 1 0.380478 0.831227 0.59566
2497 1 0.371376 0.842907 0.596516
2503 1 0.387497 0.839977 0.593227
2434 1 0.400919 0.836745 0.588395
2500 1 0.39368 0.826599 0.591475
2566 1 0.339276 0.867887 0.598178
2571 1 0.353817 0.858559 0.597856
2567 1 0.366476 0.854728 0.593769
2569 1 0.357949 0.868876 0.593329
2502 1 0.379296 0.854087 0.589936
2572 1 0.369606 0.869239 0.588798
2504 1 0.395302 0.85019 0.587767
2426 1 0.322934 0.888876 0.597462
2629 1 0.309495 0.883088 0.599842
2496 1 0.334368 0.880714 0.598703
2641 1 0.361221 0.884478 0.589025
2563 1 0.349239 0.877863 0.596547
5310 1 0.0114718 0.912052 0.593586
5379 1 0.00347756 0.897654 0.598246
2705 1 0.289976 0.912038 0.593149
2558 1 0.284353 0.900785 0.599805
2627 1 0.297662 0.896678 0.596809
2560 1 0.303215 0.906734 0.589234
2559 1 0.312873 0.896709 0.594316
2639 1 0.346171 0.892303 0.592194
2564 1 0.330141 0.89553 0.592824
5384 1 0.0178672 0.925114 0.590083
5314 1 0.0276267 0.918279 0.59702
5386 1 0.032231 0.9305 0.593937
5317 1 0.0421511 0.921506 0.599225
5385 1 0.0557899 0.927187 0.597561
2662 1 0.0708909 0.928376 0.597442
2522 1 0.0852014 0.932327 0.597816
2553 1 0.25632 0.927933 0.596166
2550 1 0.240485 0.930485 0.598777
2628 1 0.276417 0.913415 0.59615
2555 1 0.269797 0.924056 0.592525
2701 1 0.282863 0.922061 0.588754
5529 1 0.0359174 0.942937 0.587711
5387 1 0.0448369 0.935819 0.592838
5460 1 0.0624366 0.938097 0.592365
2593 1 0.0777482 0.941073 0.592645
2732 1 0.0820942 0.955272 0.588481
2597 1 0.0922014 0.9466 0.594995
2665 1 0.0981736 0.954479 0.589007
2523 1 0.10065 0.938739 0.598832
2595 1 0.120204 0.938593 0.598655
2527 1 0.108735 0.948239 0.593167
2591 1 0.124821 0.946226 0.592226
2602 1 0.141762 0.950232 0.592327
2671 1 0.136183 0.938193 0.599019
2606 1 0.153361 0.939918 0.598204
2471 1 0.159953 0.951215 0.591095
2601 1 0.168997 0.938741 0.597084
2474 1 0.177012 0.949556 0.593331
2472 1 0.186033 0.942511 0.598636
2540 1 0.193315 0.954735 0.593617
2401 1 0.208993 0.954425 0.594936
2468 1 0.200954 0.946065 0.599702
2546 1 0.233735 0.944617 0.595558
2547 1 0.224413 0.955155 0.592099
2544 1 0.218948 0.94899 0.598397
2548 1 0.240429 0.954576 0.590006
2691 1 0.248871 0.940151 0.592989
2551 1 0.265094 0.938278 0.589546
2598 1 0.115644 0.957522 0.589012
2538 1 0.148575 0.96162 0.588295
2668 1 0.132909 0.958411 0.587573
2537 1 0.184626 0.962138 0.588304
2539 1 0.215063 0.965344 0.588722
1970 1 0.0926562 0.605894 0.601316
1977 1 0.107784 0.599103 0.60153
1777 1 0.12263 0.591689 0.600334
1901 1 0.120786 0.60455 0.605581
1843 1 0.133836 0.595912 0.604015
1780 1 0.144938 0.587165 0.601675
1778 1 0.145548 0.600939 0.606815
1849 1 0.160278 0.594665 0.605341
1841 1 0.157968 0.605535 0.61001
1921 1 0.175336 0.589371 0.602192
1922 1 0.176472 0.597743 0.609575
1852 1 0.191117 0.592544 0.605699
1856 1 0.190852 0.600757 0.612033
1786 1 0.204094 0.594667 0.600822
1927 1 0.204259 0.59945 0.608219
1788 1 0.220577 0.599169 0.600765
1857 1 0.233681 0.608401 0.605163
1854 1 0.219715 0.60841 0.609372
2109 1 0.048942 0.616664 0.600169
1902 1 0.0614871 0.621963 0.603377
1903 1 0.0781223 0.614935 0.603071
1974 1 0.0779616 0.625993 0.607932
1975 1 0.0906078 0.619521 0.607459
1908 1 0.105064 0.61126 0.606902
1910 1 0.103266 0.624838 0.611994
1979 1 0.118333 0.618436 0.610919
1770 1 0.133553 0.61021 0.609406
1928 1 0.229389 0.616984 0.611495
1929 1 0.255937 0.614326 0.602013
1858 1 0.243356 0.618705 0.607225
1999 1 0.253696 0.629631 0.607278
2001 1 0.26639 0.624682 0.601095
2032 1 0.0109821 0.648272 0.607514
2038 1 0.008151 0.63421 0.603517
1968 1 0.0179769 0.634815 0.600904
1967 1 0.0334142 0.633365 0.60201
2043 1 0.0262587 0.644746 0.606811
2111 1 0.0397143 0.646257 0.607735
2112 1 0.0492108 0.631172 0.603647
1973 1 0.0536982 0.64133 0.607806
2045 1 0.060177 0.650908 0.61142
1976 1 0.0655092 0.634235 0.607029
1972 1 0.0742847 0.642655 0.611125
1912 1 0.0897004 0.635104 0.610684
2002 1 0.252317 0.641858 0.611948
1932 1 0.26607 0.639484 0.605554
1933 1 0.279281 0.639666 0.600381
1934 1 0.277537 0.651571 0.606738
1939 1 0.294096 0.649624 0.601495
1943 1 0.31897 0.651904 0.600148
2103 1 0.00927804 0.665644 0.611425
2042 1 0.0236127 0.657193 0.610975
2006 1 0.27704 0.664264 0.612201
2007 1 0.291087 0.658356 0.607758
2079 1 0.303092 0.668998 0.609193
1936 1 0.306025 0.656905 0.603094
2008 1 0.319987 0.666852 0.605895
1873 1 0.334092 0.663988 0.601831
2080 1 0.344309 0.673089 0.603328
4825 1 0.0084884 0.682791 0.611446
2074 1 0.313978 0.680522 0.610521
2078 1 0.324785 0.693065 0.609068
2011 1 0.330099 0.677391 0.608465
2012 1 0.340028 0.689599 0.607603
2010 1 0.356833 0.684262 0.603263
2076 1 0.312104 0.696964 0.612482
2147 1 0.321837 0.711905 0.610234
2151 1 0.337423 0.706911 0.60838
2082 1 0.351655 0.702721 0.604911
2013 1 0.366623 0.699026 0.603053
2084 1 0.361765 0.714342 0.604828
2154 1 0.373876 0.712644 0.601102
2150 1 0.334338 0.724281 0.610943
2152 1 0.345144 0.735317 0.611339
2153 1 0.348834 0.720108 0.60796
2223 1 0.35988 0.730063 0.608669
2226 1 0.37365 0.728476 0.604273
2224 1 0.358549 0.749437 0.61003
2359 1 0.371595 0.745554 0.607132
2156 1 0.383283 0.740132 0.603176
2228 1 0.379802 0.757288 0.604491
2221 1 0.365235 0.76171 0.608765
2357 1 0.361949 0.774628 0.611801
2361 1 0.374543 0.771984 0.60572
2363 1 0.387089 0.768235 0.601926
2289 1 0.356047 0.789856 0.609199
2358 1 0.368352 0.786631 0.606136
2431 1 0.363359 0.80232 0.603343
2295 1 0.384189 0.785924 0.601537
2362 1 0.379339 0.801997 0.600603
2420 1 0.344917 0.822063 0.607736
2352 1 0.335226 0.811758 0.611227
2356 1 0.348828 0.806128 0.608657
2216 1 0.357546 0.815876 0.604047
5098 1 0.00229608 0.841236 0.612436
2491 1 0.323187 0.844957 0.610083
2427 1 0.335417 0.837786 0.608757
2494 1 0.329523 0.826785 0.612043
2349 1 0.347811 0.835098 0.602951
2495 1 0.358123 0.843408 0.600233
2430 1 0.36248 0.829463 0.600918
5236 1 0.00681767 0.858361 0.609999
2492 1 0.299566 0.863004 0.611828
2423 1 0.313707 0.860364 0.606923
2568 1 0.342332 0.851092 0.602884
2425 1 0.329319 0.860194 0.604982
5242 1 0.0077724 0.874733 0.609013
5247 1 0.0115002 0.889943 0.605059
2381 1 0.0234097 0.880571 0.611895
2485 1 0.2525 0.890687 0.609994
2498 1 0.275333 0.876412 0.611026
2630 1 0.28108 0.89049 0.604261
2488 1 0.268279 0.889197 0.608427
2625 1 0.292974 0.885804 0.602537
2565 1 0.289506 0.872915 0.60906
2499 1 0.320801 0.872873 0.601846
2493 1 0.304816 0.874029 0.606249
5381 1 0.0191403 0.904754 0.600168
5316 1 0.0258813 0.89669 0.60706
5315 1 0.0325064 0.907571 0.603615
2382 1 0.0414515 0.902802 0.609114
5389 1 0.0582763 0.904363 0.609362
5459 1 0.0749038 0.905552 0.609551
2454 1 0.0897514 0.91087 0.609938
2670 1 0.101887 0.899145 0.612467
5179 1 0.116976 0.901325 0.611929
2463 1 0.212261 0.911107 0.612435
2470 1 0.195944 0.909643 0.61222
2410 1 0.226643 0.909311 0.610366
2481 1 0.236989 0.894538 0.610843
2479 1 0.24347 0.905014 0.606374
2483 1 0.255858 0.90015 0.604734
2554 1 0.269509 0.902258 0.603274
5318 1 0.0514246 0.915085 0.603968
5388 1 0.0646989 0.915413 0.602866
5390 1 0.0813165 0.917689 0.603078
2524 1 0.0933457 0.92487 0.603866
2388 1 0.10283 0.914116 0.607996
2456 1 0.119949 0.913682 0.609456
2535 1 0.110999 0.926507 0.604523
2526 1 0.128927 0.926583 0.605584
2673 1 0.144159 0.927183 0.604125
2529 1 0.136791 0.913176 0.610187
2605 1 0.152911 0.91753 0.609446
2469 1 0.170174 0.919024 0.609213
2683 1 0.160219 0.927463 0.604755
2473 1 0.185857 0.919474 0.608928
2543 1 0.177886 0.932194 0.60409
2480 1 0.1951 0.932873 0.604649
2549 1 0.203654 0.922949 0.608207
2477 1 0.220563 0.923271 0.606724
2545 1 0.234406 0.918905 0.604123
2482 1 0.246747 0.916406 0.601649
2557 1 0.261333 0.915485 0.600461
2541 1 0.211227 0.935949 0.604558
2478 1 0.226377 0.935577 0.603271
1848 1 0.185926 0.607552 0.616625
1838 1 0.132883 0.622882 0.615593
1909 1 0.147613 0.614694 0.613907
1983 1 0.144609 0.626883 0.620736
1847 1 0.170222 0.609087 0.613886
1915 1 0.162396 0.617458 0.618553
1845 1 0.180806 0.618799 0.620149
1850 1 0.191301 0.626366 0.623894
1925 1 0.195564 0.615718 0.618499
1926 1 0.205972 0.609281 0.614042
1844 1 0.204879 0.62403 0.622251
1997 1 0.216834 0.621174 0.616655
1984 1 0.101218 0.639269 0.615706
1981 1 0.0869629 0.650044 0.615558
1907 1 0.116265 0.633176 0.614898
1917 1 0.115256 0.646539 0.620278
1840 1 0.130413 0.637614 0.62073
1776 1 0.14421 0.641771 0.624787
1842 1 0.158191 0.630972 0.623673
2069 1 0.218183 0.63614 0.621433
1996 1 0.231222 0.63269 0.616898
2071 1 0.229273 0.645107 0.620668
1998 1 0.242502 0.630959 0.612811
2067 1 0.240879 0.644241 0.616228
2113 1 0.0335577 0.668408 0.6149
2040 1 0.0467383 0.659393 0.612819
2115 1 0.0582527 0.664293 0.615474
2110 1 0.0747772 0.659998 0.615598
1971 1 0.0888301 0.664528 0.619532
1911 1 0.100247 0.654223 0.621166
1978 1 0.101863 0.670093 0.624989
2073 1 0.234056 0.657762 0.623168
2000 1 0.248865 0.655376 0.61611
2005 1 0.25081 0.667768 0.623863
2003 1 0.263511 0.652944 0.612704
2004 1 0.262752 0.666039 0.617447
2081 1 0.288681 0.673084 0.613488
2107 1 0.0203192 0.67625 0.614646
2105 1 0.0173669 0.691168 0.617086
2108 1 0.0326313 0.684116 0.61899
2044 1 0.0456583 0.674631 0.617489
2178 1 0.0477188 0.688755 0.621064
2046 1 0.0617627 0.679764 0.619929
4970 1 0.061485 0.694296 0.622839
2181 1 0.0757425 0.677131 0.619551
2116 1 0.0768241 0.688805 0.623569
2119 1 0.0908212 0.677757 0.62406
2072 1 0.261929 0.681828 0.62442
2143 1 0.272243 0.677934 0.61833
2144 1 0.269956 0.691668 0.622037
2077 1 0.299762 0.684944 0.613504
2075 1 0.283353 0.687848 0.615806
2039 1 0.00420674 0.696468 0.613714
4826 1 0.0166318 0.704421 0.6189
4965 1 0.00286148 0.714351 0.614726
4892 1 0.0322133 0.698851 0.621228
2179 1 0.0301821 0.712922 0.622145
4966 1 0.0427429 0.717207 0.624163
2180 1 0.0463616 0.704192 0.62092
2212 1 0.270107 0.707818 0.62454
2213 1 0.282014 0.704826 0.619837
2145 1 0.29771 0.700639 0.617024
2283 1 0.294086 0.715005 0.620195
2215 1 0.308362 0.714329 0.615964
5030 1 0.00530097 0.730859 0.616759
2101 1 0.0175555 0.721461 0.621511
4900 1 0.0182515 0.738833 0.62421
2281 1 0.281943 0.720336 0.62385
2282 1 0.29382 0.730726 0.622796
2214 1 0.304691 0.72794 0.619896
2148 1 0.319208 0.728812 0.613763
5029 1 0.00529183 0.750355 0.619837
4963 1 0.014919 0.759669 0.623972
2279 1 0.303042 0.743452 0.624298
2284 1 0.315972 0.742965 0.618785
2351 1 0.314932 0.759216 0.621965
2149 1 0.33091 0.739763 0.615504
2218 1 0.326379 0.755647 0.617195
2146 1 0.344476 0.75191 0.61347
5095 1 0.00251246 0.768282 0.62046
4822 1 0.0146777 0.775351 0.622872
4960 1 0.00259033 0.782139 0.619543
2206 1 0.301444 0.761801 0.623894
2219 1 0.308434 0.777023 0.623313
2220 1 0.32242 0.77165 0.621896
2291 1 0.337015 0.767959 0.617869
2286 1 0.347752 0.781481 0.615245
2287 1 0.352879 0.762662 0.614127
5097 1 0.0058282 0.799891 0.618244
5102 1 0.0162613 0.791289 0.623241
2280 1 0.302992 0.791917 0.623326
2285 1 0.317709 0.788408 0.61948
2277 1 0.325652 0.799321 0.616678
2217 1 0.331536 0.783524 0.617817
2355 1 0.339868 0.796258 0.612874
5172 1 0.00574735 0.815549 0.618953
5173 1 0.0193105 0.807275 0.621502
5110 1 0.0205394 0.822154 0.620104
2489 1 0.275761 0.823633 0.62447
2350 1 0.28188 0.808799 0.623762
2348 1 0.297176 0.807414 0.622983
2343 1 0.290391 0.820771 0.619782
2415 1 0.313111 0.806548 0.620824
2421 1 0.306646 0.822716 0.620262
2424 1 0.320151 0.816489 0.616644
5239 1 0.00981599 0.828087 0.617161
5243 1 0.0142617 0.845176 0.615444
5171 1 0.0250793 0.836915 0.618882
5104 1 0.0411838 0.84492 0.622913
5038 1 0.0331158 0.828674 0.623879
2418 1 0.252467 0.844353 0.624898
2344 1 0.267226 0.839202 0.622117
2561 1 0.28224 0.837469 0.620216
2416 1 0.300254 0.833161 0.617881
2276 1 0.316018 0.832891 0.616127
2422 1 0.308066 0.846872 0.612724
5313 1 0.0176374 0.863402 0.613955
5174 1 0.0289108 0.852849 0.616812
5311 1 0.0438335 0.859352 0.619975
5249 1 0.05569 0.866138 0.623069
5176 1 0.0563822 0.851858 0.624427
2392 1 0.14514 0.865134 0.624495
2413 1 0.251034 0.864644 0.618925
2338 1 0.243769 0.856396 0.624003
2409 1 0.261501 0.852306 0.620382
2487 1 0.275638 0.850816 0.61673
2412 1 0.265568 0.86652 0.616163
2490 1 0.282039 0.863623 0.613481
2419 1 0.293885 0.848884 0.616077
5250 1 0.0364178 0.886459 0.613887
5244 1 0.032534 0.870687 0.617046
5245 1 0.0464493 0.87617 0.618085
2451 1 0.0618242 0.881185 0.619563
5177 1 0.0717852 0.872455 0.623706
2312 1 0.0802524 0.884087 0.619773
2314 1 0.0901099 0.874362 0.623596
2383 1 0.0973926 0.886105 0.618779
5108 1 0.105327 0.873775 0.62237
2452 1 0.110946 0.88883 0.618079
2457 1 0.127539 0.888827 0.617475
2453 1 0.120047 0.875641 0.622192
2390 1 0.151266 0.879018 0.623426
2458 1 0.137634 0.876105 0.621813
2528 1 0.166615 0.880532 0.621211
2465 1 0.18084 0.886872 0.621702
2466 1 0.188753 0.876286 0.62358
2603 1 0.200145 0.888374 0.622381
2467 1 0.214845 0.885713 0.620853
2525 1 0.202772 0.872467 0.623164
2399 1 0.220298 0.872718 0.622977
2336 1 0.235284 0.870789 0.619702
2408 1 0.228523 0.885228 0.618551
2414 1 0.243433 0.879516 0.614377
2417 1 0.260019 0.878345 0.613715
5319 1 0.0522293 0.892886 0.614064
2521 1 0.0691577 0.895735 0.615389
5320 1 0.0861928 0.897496 0.614772
2530 1 0.140251 0.893186 0.618048
2459 1 0.130597 0.90015 0.613004
2681 1 0.146777 0.903993 0.614048
2531 1 0.156389 0.893074 0.617569
2460 1 0.164144 0.906675 0.612831
2609 1 0.173821 0.894492 0.618144
2533 1 0.179149 0.905936 0.612713
2534 1 0.189785 0.896898 0.618579
2476 1 0.208323 0.899413 0.617237
2475 1 0.223972 0.896423 0.61526
1919 1 0.173675 0.630172 0.62552
1914 1 0.130472 0.650879 0.625421
1995 1 0.170861 0.644268 0.62739
1918 1 0.157098 0.64831 0.628074
1920 1 0.186853 0.640294 0.627445
1924 1 0.201932 0.636041 0.627818
2066 1 0.213756 0.647525 0.627863
1993 1 0.198793 0.648875 0.631264
1980 1 0.115626 0.659712 0.625347
1986 1 0.130074 0.667822 0.629369
1846 1 0.142804 0.657981 0.628802
2123 1 0.143239 0.673777 0.63144
2060 1 0.156388 0.666235 0.629802
1916 1 0.169996 0.659582 0.630863
2065 1 0.18578 0.653684 0.630768
1987 1 0.18293 0.667669 0.633343
1923 1 0.197313 0.663891 0.634065
1994 1 0.21085 0.662259 0.632133
2139 1 0.22443 0.658971 0.628233
2070 1 0.236766 0.671564 0.628905
2048 1 0.0902929 0.695213 0.626053
2053 1 0.104493 0.684991 0.62757
2057 1 0.115091 0.675078 0.62786
2187 1 0.128694 0.683346 0.630978
1982 1 0.113753 0.692099 0.630865
2058 1 0.141863 0.69049 0.634653
2055 1 0.156504 0.680205 0.633049
1990 1 0.170634 0.675607 0.631276
1988 1 0.173033 0.687057 0.634045
1913 1 0.19043 0.680011 0.635516
1989 1 0.208037 0.676275 0.636756
2134 1 0.214791 0.69169 0.636948
2059 1 0.199802 0.691155 0.637148
2068 1 0.221893 0.67537 0.632713
2063 1 0.232778 0.689446 0.631882
2141 1 0.247535 0.681927 0.627478
4898 1 0.0585525 0.707816 0.626698
2117 1 0.0733218 0.702428 0.626957
2050 1 0.0866481 0.710607 0.631401
2114 1 0.0686304 0.716371 0.630651
2047 1 0.101061 0.700873 0.630062
2049 1 0.0984189 0.712343 0.634539
2121 1 0.112951 0.705908 0.634758
2118 1 0.125685 0.697088 0.634569
1985 1 0.128399 0.714035 0.636517
2131 1 0.141566 0.702896 0.63523
2122 1 0.157099 0.695971 0.635531
2189 1 0.15515 0.710558 0.637429
2061 1 0.170545 0.706125 0.637433
1992 1 0.184678 0.696247 0.636851
2064 1 0.20897 0.706279 0.63681
2135 1 0.226935 0.704167 0.633994
2142 1 0.258483 0.695991 0.627339
2138 1 0.24031 0.716481 0.634814
2207 1 0.24351 0.700063 0.630966
2140 1 0.256117 0.712217 0.62971
4969 1 0.0300134 0.727008 0.625147
4967 1 0.0372431 0.738707 0.627732
2249 1 0.0532486 0.725115 0.629493
2184 1 0.0680475 0.730964 0.632255
2051 1 0.0857055 0.723629 0.634352
2188 1 0.0985633 0.730702 0.636123
2185 1 0.112374 0.722446 0.637452
2130 1 0.210832 0.721566 0.636818
2133 1 0.224245 0.717423 0.637079
2199 1 0.251986 0.725922 0.632164
2209 1 0.268174 0.724622 0.626953
2137 1 0.279315 0.735232 0.625654
2136 1 0.263249 0.73787 0.629295
4824 1 0.023439 0.750315 0.625705
5100 1 0.0375156 0.755285 0.630414
4964 1 0.05299 0.740526 0.632071
5036 1 0.0548789 0.76051 0.632135
2182 1 0.0692358 0.747913 0.634481
2255 1 0.0813702 0.739436 0.635025
2198 1 0.236829 0.749219 0.63662
2274 1 0.226471 0.760719 0.63678
2201 1 0.250283 0.742716 0.633638
2202 1 0.256934 0.75575 0.629802
2203 1 0.275521 0.74993 0.627944
2211 1 0.289292 0.746094 0.625376
5031 1 0.0283885 0.781896 0.627575
2031 1 0.0293897 0.766107 0.62689
5103 1 0.0428849 0.769568 0.629414
2102 1 0.0552985 0.776741 0.632451
2250 1 0.070262 0.767165 0.634614
2275 1 0.233098 0.776776 0.635029
2197 1 0.243648 0.765356 0.633076
2345 1 0.257788 0.770738 0.630086
2346 1 0.248071 0.780978 0.632561
2208 1 0.271481 0.765952 0.62859
2210 1 0.278212 0.778331 0.626877
2353 1 0.293118 0.778049 0.625863
2204 1 0.285578 0.763568 0.626995
5099 1 0.028348 0.796838 0.626359
4968 1 0.0408272 0.786161 0.630167
5101 1 0.0427506 0.80069 0.628221
5037 1 0.057452 0.792168 0.632023
2106 1 0.0718953 0.785366 0.635161
2173 1 0.0700257 0.799358 0.634699
2104 1 0.0860654 0.789969 0.637252
2313 1 0.0859487 0.803932 0.635513
2270 1 0.23455 0.789445 0.633522
2194 1 0.227792 0.800941 0.634171
2200 1 0.255898 0.797442 0.629999
2271 1 0.242377 0.798671 0.630661
2273 1 0.262693 0.783546 0.628636
2278 1 0.272811 0.796664 0.628148
2354 1 0.288072 0.793727 0.625136
5035 1 0.0320127 0.811183 0.62559
5034 1 0.0454328 0.817981 0.628057
2171 1 0.0587212 0.809317 0.63011
5105 1 0.0601522 0.824848 0.63111
5039 1 0.0724265 0.813995 0.632865
5109 1 0.0865612 0.820547 0.632721
2176 1 0.0992381 0.810067 0.636348
2325 1 0.138882 0.821365 0.637282
2320 1 0.171629 0.818442 0.635684
2395 1 0.15558 0.825389 0.635392
2331 1 0.194042 0.808632 0.636551
2266 1 0.184813 0.824061 0.635588
2339 1 0.208548 0.814615 0.63328
2268 1 0.200114 0.825928 0.634838
2272 1 0.237095 0.815384 0.630833
2269 1 0.221916 0.815191 0.633402
2340 1 0.253333 0.81519 0.629353
2347 1 0.267109 0.810282 0.627095
5106 1 0.0498757 0.834191 0.625992
2315 1 0.0631491 0.841608 0.628573
5107 1 0.075998 0.832172 0.631008
2242 1 0.10261 0.828241 0.63524
2241 1 0.0914187 0.836495 0.631918
5040 1 0.105625 0.846706 0.630695
2245 1 0.115827 0.835376 0.632595
2172 1 0.126899 0.827499 0.636634
2391 1 0.145272 0.833057 0.633118
2316 1 0.131467 0.839342 0.632411
2396 1 0.173583 0.8468 0.632128
2337 1 0.172801 0.83227 0.63367
2455 1 0.159341 0.838394 0.631502
2406 1 0.191049 0.839026 0.631603
2196 1 0.213727 0.831385 0.63247
2333 1 0.20449 0.844089 0.629733
2411 1 0.223866 0.843801 0.630341
2334 1 0.229544 0.831852 0.631803
2341 1 0.24743 0.832383 0.629466
2342 1 0.260228 0.82676 0.627106
2405 1 0.240636 0.844899 0.628807
2385 1 0.0750434 0.847914 0.630017
5248 1 0.067818 0.85911 0.627577
2386 1 0.0826244 0.863538 0.628302
5178 1 0.0886834 0.850177 0.63033
2311 1 0.098729 0.863392 0.628161
5180 1 0.113858 0.862151 0.625822
2387 1 0.121109 0.849006 0.62799
2384 1 0.129182 0.862463 0.625487
2389 1 0.138702 0.849435 0.628917
2394 1 0.161229 0.868493 0.625526
2393 1 0.156532 0.85289 0.628972
2461 1 0.171997 0.858782 0.627996
2462 1 0.188424 0.850584 0.629718
2398 1 0.186604 0.86387 0.625539
2402 1 0.198473 0.859393 0.626218
2332 1 0.214705 0.858534 0.627364
2407 1 0.230092 0.856311 0.625453
2532 1 0.175373 0.873035 0.625647
2062 1 0.183818 0.715149 0.639066
2132 1 0.195784 0.708783 0.638571
2056 1 0.124701 0.729841 0.639118
2186 1 0.141822 0.719754 0.63799
2054 1 0.140199 0.736062 0.641724
2193 1 0.153823 0.728835 0.640752
2052 1 0.167458 0.723249 0.639604
2264 1 0.167412 0.737656 0.640633
2129 1 0.181734 0.729328 0.640189
2127 1 0.194723 0.738016 0.640049
2120 1 0.195699 0.723502 0.640366
2124 1 0.211049 0.736195 0.639945
2205 1 0.226394 0.730077 0.637754
2128 1 0.23994 0.732579 0.637972
2246 1 0.0829513 0.756763 0.637934
2253 1 0.0964295 0.744448 0.639213
2183 1 0.110231 0.739507 0.640279
2254 1 0.126274 0.74644 0.642661
2259 1 0.1109 0.754385 0.641356
2258 1 0.139648 0.755051 0.641666
2261 1 0.152264 0.744666 0.641343
2262 1 0.166305 0.754064 0.639719
2190 1 0.182314 0.745464 0.640123
2265 1 0.194537 0.756768 0.640175
2263 1 0.205986 0.74752 0.641256
2191 1 0.217982 0.752972 0.640306
2126 1 0.223667 0.742055 0.638776
2175 1 0.0841563 0.77248 0.638518
2321 1 0.0964294 0.762328 0.639801
2177 1 0.0989685 0.779075 0.639665
2247 1 0.111333 0.769832 0.641993
2252 1 0.126666 0.763305 0.644379
2257 1 0.126378 0.779633 0.642724
2404 1 0.1398 0.769523 0.642215
2317 1 0.151396 0.76254 0.642498
2335 1 0.151966 0.777527 0.642747
2397 1 0.167283 0.769601 0.642958
2324 1 0.180046 0.763685 0.640947
2329 1 0.180962 0.779526 0.641744
2323 1 0.192811 0.773293 0.640147
2260 1 0.207535 0.764211 0.640875
2125 1 0.205676 0.780132 0.640883
2195 1 0.219926 0.771317 0.638854
2251 1 0.100027 0.79241 0.637652
2328 1 0.128187 0.796293 0.642901
2248 1 0.112446 0.803112 0.63996
2256 1 0.111356 0.786554 0.64141
2330 1 0.140875 0.78578 0.640667
2318 1 0.150764 0.795252 0.641532
2400 1 0.166539 0.803602 0.637727
2192 1 0.166066 0.785273 0.642736
2327 1 0.194841 0.792348 0.638043
2243 1 0.179039 0.795527 0.640002
2326 1 0.209524 0.79926 0.63753
2267 1 0.218249 0.786018 0.637942
2174 1 0.125549 0.810255 0.640282
2244 1 0.114899 0.819079 0.637915
2319 1 0.140692 0.807807 0.640683
2322 1 0.153909 0.812477 0.637719
2403 1 0.182849 0.80877 0.637796
3437 1 0.501018 0.246471 0.372669
3363 1 0.527598 0.241322 0.374267
3440 1 0.519725 0.268773 0.37438
3506 1 0.505294 0.263516 0.372997
3576 1 0.50425 0.278969 0.371573
3580 1 0.50917 0.297581 0.373801
3649 1 0.500314 0.311426 0.372391
3228 1 0.515052 0.195533 0.382659
3300 1 0.507189 0.181397 0.386872
3232 1 0.525384 0.184215 0.386741
3367 1 0.541493 0.188584 0.386649
3433 1 0.518627 0.207559 0.379631
3230 1 0.503568 0.205233 0.37913
3226 1 0.530381 0.197272 0.382526
3441 1 0.535272 0.211276 0.380361
3296 1 0.548831 0.20175 0.384008
3370 1 0.558299 0.210874 0.385665
3435 1 0.514232 0.235583 0.376232
3431 1 0.507912 0.219631 0.376758
630 1 0.524302 0.223106 0.375772
3364 1 0.539786 0.230143 0.377101
3511 1 0.549867 0.218978 0.380305
3372 1 0.563808 0.22358 0.382794
3439 1 0.554324 0.236826 0.380029
3374 1 0.574092 0.218294 0.387366
3443 1 0.574815 0.236466 0.384882
3505 1 0.513772 0.252274 0.376231
3509 1 0.528225 0.257456 0.375254
3366 1 0.541253 0.246144 0.376122
3442 1 0.55566 0.255443 0.37802
3513 1 0.565097 0.24605 0.381845
3444 1 0.579993 0.249995 0.383485
3515 1 0.5715 0.25807 0.380015
3517 1 0.590705 0.243177 0.385415
3446 1 0.59636 0.2563 0.385519
3578 1 0.534918 0.274123 0.375179
3438 1 0.542964 0.262572 0.376874
3577 1 0.560337 0.269451 0.378038
3572 1 0.549774 0.278627 0.378498
3512 1 0.575384 0.276238 0.380096
3587 1 0.586156 0.267127 0.382998
3516 1 0.599644 0.272838 0.386436
3579 1 0.521385 0.283484 0.375174
3581 1 0.525305 0.298964 0.376382
3582 1 0.538587 0.288474 0.377044
3510 1 0.548304 0.297939 0.379802
3508 1 0.559692 0.287934 0.381081
3653 1 0.56354 0.303995 0.383301
3514 1 0.572224 0.293005 0.38265
3585 1 0.586656 0.283083 0.383762
3586 1 0.585446 0.299997 0.386489
3725 1 0.512684 0.312026 0.376016
3788 1 0.508658 0.325343 0.376179
3651 1 0.524853 0.318007 0.37844
3652 1 0.534794 0.30638 0.380418
3656 1 0.538451 0.321827 0.380533
3654 1 0.551968 0.314207 0.382276
3655 1 0.564897 0.320231 0.386212
3583 1 0.574646 0.31061 0.386472
3723 1 0.508303 0.343126 0.379264
3727 1 0.523336 0.332263 0.379581
3658 1 0.536001 0.338739 0.38182
3785 1 0.522224 0.346939 0.384004
3657 1 0.5494 0.329109 0.384199
3859 1 0.549703 0.346633 0.386849
3787 1 0.507416 0.359474 0.383921
490 1 0.50669 0.166849 0.394031
3160 1 0.517899 0.157682 0.396551
3299 1 0.519327 0.171047 0.393809
3293 1 0.501052 0.153286 0.398791
3154 1 0.534726 0.164942 0.396274
3231 1 0.551392 0.167633 0.396612
3304 1 0.564241 0.173046 0.395823
3224 1 0.561361 0.156087 0.4
3297 1 0.575962 0.160671 0.399433
3233 1 0.588948 0.167385 0.399963
3086 1 0.534998 0.178068 0.391831
3365 1 0.559225 0.193762 0.388938
3302 1 0.552891 0.180136 0.390313
3371 1 0.57926 0.17507 0.396239
3369 1 0.571116 0.185787 0.391597
3373 1 0.584486 0.190172 0.393028
3311 1 0.592303 0.18244 0.397549
3377 1 0.605038 0.187916 0.397002
3368 1 0.572931 0.2032 0.390731
3376 1 0.587895 0.210572 0.389325
3375 1 0.597893 0.200706 0.394567
3306 1 0.602646 0.214716 0.392356
3313 1 0.610556 0.202192 0.396306
3379 1 0.626773 0.208815 0.398535
3378 1 0.587991 0.223312 0.388738
3445 1 0.601325 0.231999 0.390228
3308 1 0.615685 0.217607 0.394057
3310 1 0.628002 0.225656 0.396807
3447 1 0.617663 0.234228 0.392669
3388 1 0.642692 0.232293 0.398995
3449 1 0.607445 0.246766 0.390476
3451 1 0.622857 0.252844 0.393608
3384 1 0.631814 0.240985 0.393925
3380 1 0.637044 0.260474 0.394916
3382 1 0.646007 0.248963 0.398109
3521 1 0.611309 0.26481 0.389229
3450 1 0.624865 0.272379 0.392253
3448 1 0.613411 0.280691 0.390043
3452 1 0.640867 0.277026 0.394882
3525 1 0.649553 0.26437 0.398843
3453 1 0.653569 0.278604 0.399503
3518 1 0.599537 0.289853 0.387783
3519 1 0.613512 0.296024 0.391024
3593 1 0.628505 0.288581 0.393524
3594 1 0.628498 0.30283 0.39525
3522 1 0.64182 0.29234 0.396801
3662 1 0.586995 0.313434 0.390951
3520 1 0.599568 0.304517 0.391067
3588 1 0.600719 0.320252 0.394438
3665 1 0.614925 0.312774 0.394169
3592 1 0.627125 0.318059 0.398974
3523 1 0.641814 0.30722 0.398785
3790 1 0.561364 0.336445 0.389635
3584 1 0.574525 0.327099 0.391393
3729 1 0.576109 0.343897 0.393987
3664 1 0.587876 0.329907 0.395726
3661 1 0.601303 0.334853 0.398573
3659 1 0.590749 0.344714 0.399536
3589 1 0.613904 0.326814 0.399391
3716 1 0.520178 0.363853 0.388634
3793 1 0.535451 0.354877 0.387725
3861 1 0.549447 0.362336 0.390579
3726 1 0.564503 0.351698 0.391604
3792 1 0.563109 0.366079 0.39617
3660 1 0.576599 0.355082 0.398023
3720 1 0.50729 0.375031 0.388751
3856 1 0.507815 0.389084 0.393836
3857 1 0.520468 0.379736 0.392474
3791 1 0.533927 0.37036 0.393443
3863 1 0.532939 0.385681 0.398803
3865 1 0.546955 0.378084 0.397248
3786 1 0.519072 0.394981 0.398483
3083 1 0.5099 0.130425 0.407685
420 1 0.520496 0.123841 0.409104
3085 1 0.53834 0.126051 0.409341
3014 1 0.556472 0.130316 0.408977
3163 1 0.581242 0.125062 0.412011
3152 1 0.513463 0.145642 0.402953
3227 1 0.531653 0.149984 0.40134
3153 1 0.527735 0.13402 0.405908
3089 1 0.542478 0.13948 0.404301
3084 1 0.557055 0.145323 0.405074
3090 1 0.570602 0.134629 0.408572
3157 1 0.573737 0.147219 0.406034
3022 1 0.587743 0.140465 0.409661
3156 1 0.602858 0.142519 0.408931
3236 1 0.618191 0.146986 0.408847
3158 1 0.545936 0.154683 0.400329
3155 1 0.58781 0.153081 0.405389
3164 1 0.602074 0.157487 0.404512
3309 1 0.605461 0.170181 0.402303
3240 1 0.616895 0.161267 0.406698
3241 1 0.625953 0.169918 0.406042
3092 1 0.632111 0.154486 0.410795
3234 1 0.646801 0.158793 0.41114
3314 1 0.646028 0.172221 0.409287
3316 1 0.661447 0.164851 0.411413
3244 1 0.676656 0.16935 0.41012
3301 1 0.619988 0.191785 0.400293
3315 1 0.616056 0.177051 0.401505
3303 1 0.632926 0.184101 0.405537
3305 1 0.649279 0.189975 0.406422
3387 1 0.663499 0.179541 0.409109
3389 1 0.678735 0.186015 0.409097
3318 1 0.692518 0.188597 0.408538
3317 1 0.693377 0.176403 0.412111
3320 1 0.70682 0.179805 0.411039
3246 1 0.722536 0.18765 0.411507
3324 1 0.738269 0.194421 0.411421
3312 1 0.641684 0.215334 0.400443
3307 1 0.635673 0.198616 0.403742
3242 1 0.66445 0.19734 0.40657
3383 1 0.654524 0.205647 0.404803
3455 1 0.667565 0.210496 0.404025
3385 1 0.680387 0.200459 0.406665
3461 1 0.683173 0.216119 0.404687
3391 1 0.694956 0.204269 0.408874
3466 1 0.710747 0.212558 0.409627
3319 1 0.710824 0.197306 0.409303
3464 1 0.726284 0.201857 0.40944
3469 1 0.725412 0.216486 0.409903
3402 1 0.741577 0.210777 0.410613
3390 1 0.75489 0.200472 0.411662
3467 1 0.754269 0.217391 0.410943
3381 1 0.65427 0.222054 0.402802
3456 1 0.654149 0.237611 0.402602
3386 1 0.669659 0.228108 0.403948
3457 1 0.685432 0.232608 0.406421
3322 1 0.697263 0.219715 0.407515
3533 1 0.715616 0.226086 0.407602
3459 1 0.701345 0.238168 0.407474
3537 1 0.728841 0.235008 0.410307
3465 1 0.739993 0.226694 0.40909
3539 1 0.75598 0.230822 0.411324
3454 1 0.66069 0.25204 0.402455
3458 1 0.671669 0.243209 0.405772
3460 1 0.68942 0.247032 0.407541
3529 1 0.675607 0.256399 0.405042
3532 1 0.703543 0.254587 0.406879
3535 1 0.716278 0.244468 0.409554
3536 1 0.732748 0.251093 0.410774
3468 1 0.743999 0.241527 0.411125
3540 1 0.7577 0.248461 0.412217
3530 1 0.663323 0.267641 0.402721
3462 1 0.691657 0.26452 0.405037
3531 1 0.677984 0.274507 0.405556
3601 1 0.693248 0.280261 0.407666
3528 1 0.706625 0.273707 0.40851
3603 1 0.717886 0.26123 0.408958
3673 1 0.720689 0.28018 0.410799
3534 1 0.730853 0.270127 0.410124
3538 1 0.744235 0.261158 0.411806
3526 1 0.65276 0.296566 0.401257
3527 1 0.665692 0.284633 0.402918
3524 1 0.666028 0.299121 0.406529
3600 1 0.679396 0.289523 0.409044
3602 1 0.692728 0.297342 0.410898
3669 1 0.680271 0.304322 0.411628
3604 1 0.706768 0.289103 0.408962
3675 1 0.734613 0.286961 0.412239
3599 1 0.642688 0.32192 0.404131
3597 1 0.656549 0.314451 0.404689
3670 1 0.669255 0.317057 0.409091
3740 1 0.680552 0.322115 0.412304
3591 1 0.618202 0.340862 0.402457
3595 1 0.632558 0.333542 0.40388
3666 1 0.631077 0.347323 0.409579
3739 1 0.644137 0.33948 0.409118
3596 1 0.657927 0.328468 0.407617
3668 1 0.668853 0.331327 0.411841
3798 1 0.589758 0.36042 0.402228
3724 1 0.604473 0.353096 0.4038
3590 1 0.603921 0.367558 0.405953
3663 1 0.61957 0.355127 0.407112
3860 1 0.545694 0.387084 0.402475
3864 1 0.561887 0.380235 0.401141
3795 1 0.576376 0.371119 0.402619
3794 1 0.574043 0.387918 0.407127
3731 1 0.588258 0.377736 0.405539
3804 1 0.603796 0.382289 0.411172
3873 1 0.587981 0.390681 0.412254
3878 1 0.616603 0.371735 0.411565
3858 1 0.506277 0.402093 0.400042
3930 1 0.517157 0.409472 0.403548
3855 1 0.531699 0.401298 0.404527
3931 1 0.546999 0.398415 0.409263
3929 1 0.56003 0.392963 0.406938
3935 1 0.561069 0.406324 0.411244
3924 1 0.505108 0.418907 0.403848
3925 1 0.516621 0.421815 0.409408
3994 1 0.505496 0.432195 0.410891
3928 1 0.535331 0.416575 0.407919
3853 1 0.527845 0.429317 0.412458
4003 1 0.55132 0.416343 0.411958
2875 1 0.509355 0.0825769 0.424402
2947 1 0.527312 0.0840564 0.423098
2876 1 0.515425 0.0965181 0.420741
2944 1 0.52075 0.10799 0.416294
2945 1 0.502625 0.10454 0.417766
2948 1 0.531548 0.0999591 0.418537
3016 1 0.54154 0.0912652 0.421985
3018 1 0.547836 0.106333 0.416931
3087 1 0.562793 0.0934225 0.422563
3015 1 0.565158 0.106386 0.417626
3091 1 0.574232 0.0974686 0.42072
3161 1 0.590623 0.101818 0.423075
3094 1 0.619196 0.106203 0.421668
3100 1 0.648583 0.105254 0.424909
280 1 0.509192 0.11692 0.413944
3017 1 0.533252 0.111716 0.413224
3012 1 0.549402 0.117985 0.412682
3088 1 0.566636 0.119556 0.412508
2950 1 0.581325 0.110346 0.417439
3162 1 0.605348 0.110734 0.421714
3235 1 0.592807 0.117432 0.416124
3159 1 0.597693 0.12988 0.413415
3093 1 0.610666 0.120462 0.417197
3096 1 0.625668 0.120581 0.418303
3098 1 0.637526 0.112947 0.421244
3167 1 0.651888 0.119883 0.419768
3165 1 0.639821 0.127774 0.417919
3175 1 0.665527 0.127269 0.41904
3171 1 0.663199 0.112175 0.422739
3176 1 0.693833 0.121954 0.42319
3106 1 0.678213 0.118552 0.421576
3238 1 0.615134 0.133661 0.414286
3239 1 0.644565 0.144746 0.415724
3166 1 0.631493 0.139408 0.414371
3168 1 0.658137 0.152022 0.414217
3237 1 0.655922 0.13646 0.417364
3173 1 0.671435 0.144577 0.415193
3247 1 0.680901 0.132798 0.41933
3252 1 0.687457 0.147445 0.415147
3172 1 0.69756 0.133422 0.419741
3245 1 0.715687 0.139769 0.421819
3323 1 0.703446 0.150418 0.418176
3251 1 0.732862 0.148357 0.421333
3249 1 0.760837 0.144692 0.422422
3260 1 0.755736 0.131758 0.424923
3183 1 0.777574 0.149142 0.421403
3185 1 0.773749 0.13611 0.424106
3257 1 0.80458 0.149998 0.423762
3190 1 0.844618 0.149333 0.424306
3261 1 0.858191 0.143407 0.424522
3337 1 0.874935 0.151029 0.422865
3170 1 0.676148 0.156893 0.41318
3248 1 0.692447 0.161928 0.413913
3250 1 0.708668 0.165862 0.414974
3321 1 0.718778 0.15432 0.417638
3394 1 0.732383 0.164344 0.417897
3254 1 0.720854 0.171736 0.414189
3328 1 0.748612 0.156747 0.419178
3392 1 0.750574 0.170817 0.416194
3256 1 0.762983 0.16086 0.420706
3331 1 0.778429 0.16632 0.42016
3398 1 0.789846 0.15748 0.421078
3400 1 0.795642 0.172366 0.419289
3259 1 0.821478 0.154682 0.424811
3329 1 0.806061 0.163399 0.421582
3334 1 0.819841 0.16706 0.421745
3264 1 0.834145 0.159109 0.423582
3336 1 0.847154 0.167252 0.423154
3332 1 0.832886 0.173521 0.421173
3349 1 0.860136 0.157682 0.42124
3338 1 0.887201 0.156753 0.421953
3276 1 0.874889 0.165919 0.42168
3266 1 0.898813 0.163622 0.423704
3278 1 0.914053 0.171603 0.422787
3325 1 0.736195 0.179148 0.413689
3326 1 0.749993 0.183924 0.415351
3395 1 0.765245 0.175201 0.419038
3330 1 0.782514 0.181629 0.417502
3397 1 0.765002 0.189601 0.415991
3463 1 0.797359 0.189374 0.417723
3401 1 0.811351 0.180402 0.419451
3477 1 0.820997 0.1887 0.418856
3407 1 0.834807 0.192545 0.419804
3412 1 0.861679 0.17562 0.421381
3343 1 0.863143 0.189406 0.417588
3346 1 0.848856 0.181828 0.419076
3335 1 0.889004 0.174859 0.42053
3418 1 0.875818 0.182346 0.419418
3422 1 0.888691 0.190475 0.417676
3409 1 0.902171 0.183279 0.420261
3351 1 0.917053 0.188264 0.421209
3352 1 0.930546 0.19322 0.424238
3393 1 0.767969 0.207397 0.412747
3405 1 0.780183 0.198288 0.416584
3470 1 0.785619 0.215345 0.413905
3479 1 0.79841 0.201957 0.416036
3399 1 0.812188 0.197806 0.419364
3410 1 0.815384 0.21471 0.417617
3396 1 0.827214 0.204337 0.416474
3344 1 0.842024 0.208312 0.418068
3413 1 0.848963 0.196216 0.417005
3483 1 0.860951 0.20488 0.414901
3484 1 0.878042 0.214384 0.414791
3408 1 0.877211 0.196627 0.415594
3347 1 0.905845 0.199656 0.417681
3345 1 0.892168 0.206733 0.414832
3419 1 0.908133 0.213151 0.415215
3424 1 0.919793 0.203781 0.419871
3493 1 0.934204 0.207104 0.422824
3473 1 0.771326 0.224441 0.413417
3404 1 0.783686 0.231982 0.416318
3403 1 0.799053 0.220271 0.415886
3544 1 0.79755 0.23782 0.417487
3475 1 0.814988 0.229365 0.416933
3546 1 0.832121 0.221059 0.416792
3545 1 0.843072 0.228958 0.416368
3414 1 0.852381 0.217699 0.414987
3481 1 0.857026 0.23387 0.415562
3415 1 0.865579 0.220742 0.413349
3488 1 0.878997 0.229847 0.415937
3417 1 0.892176 0.221777 0.415424
3348 1 0.908719 0.228438 0.416057
3416 1 0.897165 0.236236 0.41711
3486 1 0.923351 0.21972 0.418022
3420 1 0.92665 0.235537 0.420195
3494 1 0.936788 0.223452 0.421779
3564 1 0.952933 0.230333 0.424202
3543 1 0.770963 0.2565 0.415985
3541 1 0.771022 0.240529 0.413574
3472 1 0.784768 0.248822 0.414993
3406 1 0.801768 0.254807 0.416116
3474 1 0.787104 0.260726 0.418468
3471 1 0.815467 0.246703 0.417201
3411 1 0.827427 0.239576 0.417955
3476 1 0.830076 0.251759 0.417909
3478 1 0.844049 0.244431 0.41577
3554 1 0.843757 0.25807 0.417436
3549 1 0.85783 0.251572 0.41522
3556 1 0.869481 0.240025 0.413446
3490 1 0.883341 0.245906 0.41438
3557 1 0.872991 0.257809 0.415069
3489 1 0.896615 0.253351 0.417765
3487 1 0.909116 0.244257 0.418199
3491 1 0.92577 0.24941 0.421083
3635 1 0.938419 0.240847 0.423712
3609 1 0.746114 0.276697 0.413355
3611 1 0.758075 0.267547 0.414659
3615 1 0.776308 0.272249 0.417579
3617 1 0.803221 0.270151 0.419566
3548 1 0.790151 0.278875 0.420892
3550 1 0.817166 0.263795 0.418033
3482 1 0.815729 0.280005 0.420796
3480 1 0.830632 0.269864 0.41917
3687 1 0.844635 0.273231 0.41904
3552 1 0.83079 0.282565 0.422389
3485 1 0.856801 0.26599 0.419559
3621 1 0.861183 0.281199 0.42106
3689 1 0.875551 0.272057 0.418377
3555 1 0.889159 0.263342 0.417656
3558 1 0.889184 0.281849 0.418811
3559 1 0.908128 0.26211 0.419846
3553 1 0.901545 0.274573 0.420832
3562 1 0.925317 0.265662 0.422612
3560 1 0.914741 0.279246 0.422328
3743 1 0.719792 0.296881 0.414015
3606 1 0.733409 0.30092 0.41697
3607 1 0.749455 0.293317 0.415097
3605 1 0.762069 0.282775 0.414878
3613 1 0.762376 0.295355 0.417681
3683 1 0.777232 0.288331 0.418222
3542 1 0.776978 0.303575 0.419638
3551 1 0.790669 0.296042 0.42151
3612 1 0.803849 0.303611 0.4245
3547 1 0.802318 0.28641 0.421985
3619 1 0.816873 0.293146 0.423624
3616 1 0.829791 0.299812 0.424696
3623 1 0.845689 0.2877 0.421113
3627 1 0.861352 0.299103 0.422163
3691 1 0.874481 0.289463 0.420312
3628 1 0.888959 0.296766 0.422331
3561 1 0.900981 0.289875 0.422173
3671 1 0.694819 0.314936 0.412685
3672 1 0.706423 0.306069 0.41358
3746 1 0.706913 0.324385 0.416022
3811 1 0.719416 0.312209 0.416441
3744 1 0.735612 0.316194 0.418088
3677 1 0.748747 0.310338 0.418043
3614 1 0.749845 0.323446 0.421122
3676 1 0.762953 0.311295 0.419516
3608 1 0.777043 0.319215 0.422859
3681 1 0.789508 0.310526 0.423407
3688 1 0.816286 0.308979 0.424376
3625 1 0.875045 0.308235 0.423114
3807 1 0.655778 0.344143 0.412723
3732 1 0.671558 0.347648 0.416168
3598 1 0.682298 0.339294 0.415442
3741 1 0.695313 0.332019 0.415484
3809 1 0.697032 0.347334 0.418668
3745 1 0.710424 0.338569 0.41936
3610 1 0.724263 0.32859 0.418851
3817 1 0.724326 0.343258 0.421398
3674 1 0.740383 0.33396 0.422389
3750 1 0.753058 0.339904 0.423141
3749 1 0.764878 0.327496 0.422049
3679 1 0.780048 0.336603 0.423827
3747 1 0.766608 0.34228 0.424207
3875 1 0.628834 0.363335 0.413941
3667 1 0.64564 0.353777 0.414137
3737 1 0.641869 0.366797 0.418225
3733 1 0.656391 0.358349 0.417205
3877 1 0.670813 0.363475 0.420601
3738 1 0.684856 0.356618 0.418485
3742 1 0.696879 0.364121 0.422639
3810 1 0.709691 0.35497 0.420556
3812 1 0.712941 0.369492 0.424079
3813 1 0.738262 0.348893 0.42469
3879 1 0.722088 0.35615 0.424215
3868 1 0.615061 0.386551 0.41722
3730 1 0.626735 0.377514 0.418283
3728 1 0.642659 0.384336 0.421232
3805 1 0.655697 0.373665 0.421763
3802 1 0.66783 0.379481 0.423277
3951 1 0.656171 0.390071 0.424084
3736 1 0.683739 0.372699 0.42462
3796 1 0.574976 0.400553 0.414309
3862 1 0.5887 0.403322 0.417039
3876 1 0.602742 0.395079 0.416287
3735 1 0.599893 0.408535 0.421567
3803 1 0.628929 0.393911 0.421906
3869 1 0.615744 0.402869 0.421631
3871 1 0.642753 0.398221 0.424662
3936 1 0.542499 0.426647 0.414547
3866 1 0.560701 0.426519 0.416518
3926 1 0.549585 0.434294 0.420803
3799 1 0.574845 0.415175 0.416234
3867 1 0.573308 0.428176 0.422083
3797 1 0.58479 0.417516 0.421742
3999 1 0.518689 0.43825 0.417106
4004 1 0.519294 0.449138 0.423258
4067 1 0.504208 0.45623 0.423833
4000 1 0.503686 0.44321 0.417567
3995 1 0.534442 0.441228 0.419394
3927 1 0.548789 0.448852 0.424234
3937 1 0.563506 0.43761 0.424186
2807 1 0.516409 0.056788 0.43262
2809 1 0.533483 0.0629432 0.432026
2813 1 0.527484 0.0490464 0.435471
2880 1 0.558617 0.0571382 0.43587
2879 1 0.544908 0.0530526 0.436975
3027 1 0.576407 0.0610597 0.435346
2953 1 0.591284 0.0640109 0.435707
2806 1 0.504185 0.0675127 0.427828
2810 1 0.520244 0.069987 0.426606
2877 1 0.536959 0.0762044 0.426899
2949 1 0.554256 0.0808677 0.425515
2878 1 0.547577 0.0680224 0.431366
3019 1 0.564295 0.0708873 0.430637
2946 1 0.568599 0.082625 0.426243
2960 1 0.580773 0.0756991 0.430945
3020 1 0.595944 0.0825529 0.431781
2955 1 0.61136 0.0868492 0.432298
2954 1 0.621587 0.0785564 0.43728
3095 1 0.63794 0.0836006 0.435743
3026 1 0.657543 0.085993 0.433889
3102 1 0.682481 0.0841399 0.435207
3107 1 0.69809 0.0864702 0.434369
2951 1 0.585644 0.0879181 0.426104
2956 1 0.602594 0.0953343 0.426995
3021 1 0.616359 0.0961721 0.426619
3024 1 0.628701 0.0903643 0.431099
3169 1 0.632093 0.103246 0.426911
3101 1 0.643727 0.0940733 0.429879
3030 1 0.673313 0.0934851 0.432717
3104 1 0.66133 0.09685 0.428714
3032 1 0.674246 0.105522 0.427572
3103 1 0.68948 0.0963851 0.43046
3178 1 0.6906 0.10797 0.426593
3109 1 0.704213 0.103053 0.432155
3108 1 0.712983 0.0920979 0.434307
3038 1 0.719389 0.105223 0.433118
3180 1 0.728869 0.0936112 0.43521
3177 1 0.742193 0.0971303 0.435111
3181 1 0.76049 0.0981107 0.436797
3112 1 0.750949 0.107619 0.431081
3184 1 0.792455 0.103383 0.436219
3044 1 0.808769 0.107567 0.432552
3050 1 0.810245 0.0974706 0.436241
3116 1 0.835349 0.103107 0.436943
2984 1 0.84889 0.0971865 0.437029
3127 1 0.869978 0.105224 0.433182
3123 1 0.90234 0.108369 0.436568
3243 1 0.711755 0.129011 0.426142
3105 1 0.705943 0.11437 0.427694
3110 1 0.734351 0.109433 0.431351
3255 1 0.723699 0.119075 0.428513
3179 1 0.740128 0.122481 0.427715
3182 1 0.756479 0.120524 0.428772
3187 1 0.766516 0.109998 0.433076
3186 1 0.769821 0.123679 0.427616
3111 1 0.780561 0.112949 0.431939
3327 1 0.784404 0.126417 0.427973
3113 1 0.794433 0.116833 0.430628
3114 1 0.824101 0.112762 0.432807
3120 1 0.81234 0.122634 0.429794
3188 1 0.827719 0.129179 0.428797
3115 1 0.839137 0.119149 0.430018
3333 1 0.865325 0.117945 0.429537
3054 1 0.853596 0.109563 0.432702
3119 1 0.855367 0.127407 0.427701
3122 1 0.883504 0.110876 0.433374
3268 1 0.880673 0.125144 0.42865
3193 1 0.894341 0.120122 0.430578
3269 1 0.908894 0.122811 0.433398
3194 1 0.919153 0.115472 0.437413
3174 1 0.728861 0.134404 0.425302
3253 1 0.744487 0.139197 0.425194
3258 1 0.790256 0.139864 0.425008
3191 1 0.801093 0.132112 0.427011
3192 1 0.814616 0.139106 0.425872
3262 1 0.831709 0.143927 0.426497
3124 1 0.843298 0.134508 0.426323
3129 1 0.885249 0.141625 0.426387
3339 1 0.869938 0.133958 0.425047
3189 1 0.899342 0.150183 0.425646
3265 1 0.896899 0.133739 0.427487
3267 1 0.911213 0.139673 0.43024
3271 1 0.922815 0.132804 0.434673
3263 1 0.929938 0.147636 0.432063
3208 1 0.939843 0.134243 0.436586
3207 1 0.946661 0.145893 0.437138
3342 1 0.928267 0.166384 0.428487
3270 1 0.91387 0.155445 0.427242
3274 1 0.940805 0.155352 0.432833
3281 1 0.943175 0.172883 0.431065
3277 1 0.952886 0.163854 0.435775
3340 1 0.930803 0.180095 0.425685
3360 1 0.956082 0.178238 0.434356
3279 1 0.943698 0.186681 0.429502
3428 1 0.957612 0.192758 0.431023
3425 1 0.967747 0.179571 0.436322
3497 1 0.972803 0.194353 0.433686
3341 1 0.947795 0.20094 0.427867
3495 1 0.95254 0.212106 0.425574
3353 1 0.964616 0.206133 0.429392
3496 1 0.979118 0.211118 0.433529
3421 1 0.987159 0.198347 0.436565
701 1 0.993527 0.213247 0.433313
3350 1 0.965568 0.22169 0.427378
3492 1 0.966867 0.235383 0.426619
3639 1 0.979859 0.225148 0.429615
774 1 0.995189 0.226336 0.432799
3568 1 0.98253 0.23808 0.428504
3633 1 0.93967 0.258113 0.426775
3498 1 0.953787 0.247628 0.425488
3634 1 0.967224 0.257145 0.427675
3563 1 0.981229 0.25088 0.427092
3637 1 0.994681 0.254289 0.429486
3708 1 0.997885 0.241533 0.429525
3630 1 0.924944 0.281953 0.426105
3702 1 0.940471 0.27431 0.429499
3701 1 0.955343 0.265018 0.426825
3774 1 0.956428 0.282116 0.429126
3632 1 0.970453 0.271748 0.428705
3566 1 0.982504 0.265031 0.428886
3636 1 0.995831 0.272263 0.427316
3705 1 0.981203 0.282011 0.427919
3700 1 0.91456 0.295106 0.425037
3704 1 0.933544 0.29269 0.427775
3776 1 0.946915 0.29109 0.429868
3777 1 0.955272 0.301056 0.431868
3703 1 0.966367 0.293266 0.430471
3710 1 0.996548 0.302563 0.433755
3779 1 0.98143 0.296358 0.431086
984 1 0.994914 0.28749 0.429095
3751 1 0.790724 0.325966 0.425906
3686 1 0.803753 0.319634 0.425286
3618 1 0.817501 0.323579 0.427557
3620 1 0.845155 0.305915 0.42605
3682 1 0.830144 0.314751 0.427572
3690 1 0.845889 0.322236 0.429031
3622 1 0.859743 0.313985 0.425475
3626 1 0.876177 0.321461 0.426627
3699 1 0.88764 0.325919 0.430794
3631 1 0.902775 0.305144 0.426048
3697 1 0.891518 0.312335 0.426521
3773 1 0.904058 0.317649 0.430213
3843 1 0.921469 0.306264 0.429481
3769 1 0.928445 0.317367 0.432931
3770 1 0.939084 0.305014 0.432845
3847 1 0.943686 0.322732 0.435085
3778 1 0.953283 0.313449 0.434555
911 1 0.969405 0.307709 0.433539
914 1 0.982594 0.311465 0.435777
3680 1 0.790193 0.34676 0.428566
3758 1 0.80374 0.334135 0.427796
3761 1 0.816003 0.33945 0.431333
3693 1 0.829563 0.329604 0.431113
3624 1 0.846563 0.336088 0.431956
3695 1 0.830421 0.346119 0.434456
3694 1 0.859834 0.329049 0.430154
3629 1 0.861536 0.344123 0.435074
3698 1 0.874547 0.335619 0.432852
3768 1 0.888693 0.339808 0.435237
3771 1 0.902342 0.332512 0.434745
3772 1 0.914914 0.328015 0.435152
3819 1 0.733622 0.365056 0.426062
3678 1 0.74953 0.353509 0.425958
3753 1 0.776266 0.353325 0.428206
3821 1 0.763149 0.358971 0.427885
3755 1 0.776199 0.368352 0.43163
3748 1 0.79188 0.362173 0.431021
3829 1 0.805012 0.349242 0.431685
3754 1 0.806413 0.367919 0.436044
3763 1 0.820048 0.35532 0.43565
3766 1 0.845766 0.353313 0.436226
3886 1 0.684283 0.386904 0.426907
3808 1 0.699409 0.377231 0.425782
3820 1 0.712649 0.384418 0.428041
3815 1 0.724777 0.376254 0.426847
3816 1 0.737939 0.382345 0.430082
3953 1 0.725336 0.390732 0.431712
3887 1 0.75039 0.371934 0.427824
3823 1 0.755475 0.386599 0.433497
3756 1 0.76449 0.374171 0.430973
3893 1 0.775288 0.384417 0.43604
3759 1 0.790629 0.3745 0.435959
3947 1 0.630159 0.409276 0.425904
3806 1 0.668739 0.393668 0.427667
3734 1 0.653916 0.406943 0.427077
4021 1 0.667741 0.409807 0.431694
3880 1 0.682649 0.4049 0.429089
3889 1 0.697059 0.407211 0.432829
3881 1 0.697567 0.393912 0.428721
3814 1 0.711721 0.402925 0.432479
3822 1 0.725853 0.408398 0.433584
3752 1 0.738569 0.398487 0.433967
3870 1 0.584547 0.433719 0.426878
4016 1 0.599327 0.423585 0.427305
3940 1 0.612496 0.414505 0.426423
4014 1 0.624229 0.422472 0.428144
3801 1 0.610766 0.432057 0.429003
3872 1 0.64144 0.416661 0.429052
3949 1 0.644233 0.428986 0.4316
3885 1 0.65653 0.419184 0.431801
4019 1 0.667901 0.426654 0.436182
3948 1 0.654356 0.434595 0.436215
3874 1 0.682509 0.418014 0.433893
3955 1 0.695692 0.422601 0.436767
3883 1 0.709086 0.415955 0.436982
3961 1 0.725836 0.424822 0.436618
3892 1 0.741162 0.415165 0.437295
4001 1 0.532848 0.45556 0.425891
4008 1 0.562903 0.454381 0.428496
3939 1 0.575083 0.444263 0.427965
4007 1 0.587404 0.448703 0.43135
3800 1 0.599797 0.440707 0.430111
3942 1 0.614926 0.447931 0.431153
3945 1 0.62758 0.437129 0.429718
3943 1 0.626272 0.454048 0.43634
4023 1 0.640683 0.443524 0.434955
4064 1 0.517997 0.462804 0.426765
4069 1 0.520174 0.475454 0.431774
3996 1 0.503278 0.470938 0.430068
3932 1 0.532434 0.468587 0.429564
3933 1 0.546897 0.463128 0.428465
3934 1 0.548042 0.476258 0.434699
4079 1 0.559999 0.46917 0.432732
3938 1 0.574574 0.460307 0.431637
4005 1 0.576311 0.476376 0.43693
4015 1 0.586786 0.465908 0.434277
4009 1 0.602104 0.457006 0.434083
4010 1 0.60099 0.472756 0.436596
4013 1 0.614077 0.463988 0.43625
4133 1 0.505671 0.484013 0.434631
4006 1 0.533749 0.481121 0.435595
2805 1 0.517292 0.0240953 0.449769
2871 1 0.507157 0.0330937 0.444753
2811 1 0.522618 0.0367453 0.442669
5540 1 0.540486 0.0398015 0.441524
5542 1 0.532569 0.0279383 0.445935
2883 1 0.550284 0.0284562 0.444732
2812 1 0.557764 0.041139 0.440783
2886 1 0.568451 0.0334244 0.446244
2815 1 0.581667 0.0388846 0.446163
3025 1 0.599285 0.0432471 0.445912
5546 1 0.593202 0.0303561 0.449946
2892 1 0.679374 0.0427824 0.448835
2808 1 0.512066 0.0452042 0.4378
2884 1 0.571292 0.0486028 0.440009
2957 1 0.588771 0.0508836 0.44147
2882 1 0.60506 0.0556654 0.443297
2958 1 0.617685 0.0648474 0.441861
2887 1 0.616472 0.0492611 0.447017
2888 1 0.628842 0.0584971 0.445799
2890 1 0.638569 0.0515241 0.449023
3031 1 0.64617 0.0596543 0.443165
2962 1 0.657486 0.0494872 0.448761
2961 1 0.669866 0.0537953 0.445615
2952 1 0.659449 0.0649853 0.442175
2964 1 0.686126 0.059895 0.446031
2963 1 0.695787 0.0469613 0.447976
3028 1 0.700245 0.0622236 0.443183
3035 1 0.7099 0.0507894 0.445685
2895 1 0.726412 0.0561181 0.446029
2905 1 0.742424 0.0582008 0.448962
2881 1 0.605326 0.0708731 0.437913
3023 1 0.650532 0.0752664 0.439087
3097 1 0.634055 0.069108 0.44074
3099 1 0.666707 0.0794465 0.437701
3029 1 0.674794 0.0700357 0.440755
3034 1 0.690296 0.0736487 0.439982
2896 1 0.713553 0.06792 0.442678
3033 1 0.705546 0.0765324 0.437609
2901 1 0.732146 0.0689315 0.442235
3042 1 0.721105 0.0805525 0.437596
2965 1 0.738704 0.0825792 0.438883
2826 1 0.748156 0.0718151 0.444126
2966 1 0.751997 0.0859455 0.440457
2969 1 0.762292 0.0720511 0.445166
3041 1 0.777307 0.0748357 0.447097
3040 1 0.76984 0.0865291 0.442725
2970 1 0.786076 0.0665281 0.448854
2902 1 0.794248 0.0776966 0.444356
3051 1 0.802399 0.0686947 0.449794
3048 1 0.81079 0.0812336 0.443458
3047 1 0.824644 0.0782452 0.445254
3049 1 0.815982 0.0683535 0.449454
2980 1 0.845437 0.0764516 0.444674
3126 1 0.856985 0.0856062 0.4434
3121 1 0.872858 0.0854691 0.445952
2967 1 0.77515 0.0977094 0.438176
3045 1 0.784117 0.0901064 0.441779
3046 1 0.796946 0.0920413 0.440049
3117 1 0.825051 0.0887636 0.439493
3118 1 0.838664 0.087364 0.441685
3125 1 0.866735 0.093035 0.437526
3055 1 0.890151 0.103521 0.439005
3132 1 0.889705 0.0899756 0.446865
3052 1 0.879919 0.0942383 0.438418
3198 1 0.907274 0.0902405 0.448617
3195 1 0.900407 0.0971122 0.441957
3200 1 0.914272 0.10166 0.443073
3273 1 0.930417 0.108614 0.442658
3202 1 0.922937 0.0949602 0.448054
3137 1 0.937571 0.0978009 0.447752
3196 1 0.935137 0.120859 0.438868
3275 1 0.943771 0.110645 0.442862
3204 1 0.94941 0.124565 0.438365
3283 1 0.957815 0.11153 0.446779
3354 1 0.963903 0.122916 0.442965
3427 1 0.978101 0.127378 0.446332
3356 1 0.970598 0.114439 0.449655
3280 1 0.959614 0.135101 0.438373
3205 1 0.96207 0.150278 0.438427
3423 1 0.971451 0.138925 0.440645
494 1 0.995518 0.132448 0.449153
3429 1 0.984747 0.142261 0.444547
3212 1 0.96644 0.166959 0.437604
561 1 0.978071 0.15483 0.439623
3426 1 0.981168 0.169447 0.439649
492 1 0.993032 0.15731 0.442412
3565 1 0.981283 0.184246 0.438879
3500 1 0.995468 0.174771 0.442352
3567 1 0.998074 0.187707 0.439871
913 1 0.967593 0.319558 0.43779
983 1 0.984783 0.325078 0.441099
3842 1 0.899006 0.346661 0.439667
3849 1 0.928359 0.332555 0.43762
3767 1 0.915253 0.34151 0.437927
3846 1 0.927082 0.347174 0.44098
981 1 0.941374 0.339008 0.440064
3780 1 0.954931 0.329697 0.439525
3919 1 0.956182 0.345271 0.444582
3848 1 0.969137 0.332011 0.442223
912 1 0.96958 0.346256 0.446737
1053 1 0.982734 0.340727 0.44575
1057 1 0.995862 0.345388 0.449093
844 1 0.996746 0.330218 0.444126
3757 1 0.834864 0.361594 0.438652
3692 1 0.846721 0.366229 0.441719
3765 1 0.860852 0.356969 0.440586
3907 1 0.860129 0.369425 0.445756
3837 1 0.874521 0.348691 0.43962
3840 1 0.872561 0.362238 0.443431
3839 1 0.888433 0.355604 0.440492
3911 1 0.899345 0.360325 0.444767
3845 1 0.913469 0.355974 0.442293
3844 1 0.928766 0.362255 0.444978
3850 1 0.941906 0.354841 0.444347
3913 1 0.94448 0.369125 0.448401
3920 1 0.954818 0.360754 0.447163
3824 1 0.804322 0.381523 0.43922
3827 1 0.789982 0.388648 0.440289
3684 1 0.820893 0.372404 0.438724
3898 1 0.816904 0.385975 0.44308
3685 1 0.83244 0.377366 0.442012
3828 1 0.844795 0.380236 0.444858
3838 1 0.859694 0.384777 0.449173
3906 1 0.874689 0.377621 0.44869
3909 1 0.886531 0.369712 0.445738
3912 1 0.89769 0.376042 0.447859
3841 1 0.913823 0.370611 0.445505
3915 1 0.930583 0.375505 0.449437
3818 1 0.753056 0.404193 0.438853
3826 1 0.767063 0.39771 0.4385
3888 1 0.767624 0.411822 0.442185
3897 1 0.781153 0.400885 0.440158
3894 1 0.791612 0.407578 0.4431
3764 1 0.802947 0.394845 0.444192
3832 1 0.817413 0.401415 0.448418
3760 1 0.804435 0.410101 0.448777
3836 1 0.830283 0.391353 0.44721
3950 1 0.681941 0.433563 0.437703
3957 1 0.713822 0.430449 0.439267
3884 1 0.739566 0.430361 0.442829
3960 1 0.755101 0.423256 0.44212
3891 1 0.781197 0.415896 0.445644
3890 1 0.766788 0.427927 0.446467
4028 1 0.666395 0.441301 0.439511
4017 1 0.656612 0.453718 0.442407
3952 1 0.670276 0.454607 0.443566
3882 1 0.682957 0.446827 0.441677
3959 1 0.695791 0.438724 0.439907
4024 1 0.695914 0.453469 0.445598
4020 1 0.710267 0.444295 0.44578
4097 1 0.725516 0.438723 0.443518
4027 1 0.725838 0.452102 0.449373
4030 1 0.736844 0.442236 0.447073
3964 1 0.750838 0.436834 0.446021
4086 1 0.63066 0.470937 0.439824
3944 1 0.64083 0.461474 0.440246
3956 1 0.653868 0.47045 0.441811
3946 1 0.666423 0.469942 0.446961
3954 1 0.681987 0.462239 0.447746
4087 1 0.677488 0.47633 0.449741
4071 1 0.517353 0.487028 0.438434
4066 1 0.503717 0.49609 0.439738
4137 1 0.532891 0.493679 0.443293
4075 1 0.561744 0.484931 0.437681
4073 1 0.545326 0.490801 0.439326
4072 1 0.560452 0.497599 0.443354
4081 1 0.576983 0.492939 0.441769
4011 1 0.592512 0.498896 0.443106
3941 1 0.589636 0.48232 0.438448
4080 1 0.605287 0.486217 0.443124
4082 1 0.616867 0.480179 0.44032
4149 1 0.616764 0.496011 0.444223
4083 1 0.630344 0.498541 0.448542
4091 1 0.644558 0.479198 0.443402
4012 1 0.631567 0.486553 0.442595
4148 1 0.645025 0.490408 0.449221
4089 1 0.656841 0.481507 0.44856
2873 1 0.510769 0.012826 0.457181
5536 1 0.505858 0.00082508 0.46212
5539 1 0.528292 0.0143633 0.454115
5543 1 0.538958 0.00657454 0.459722
5538 1 0.522005 0.00105225 0.460267
5537 1 0.544115 0.0172118 0.451837
5541 1 0.555626 0.00992432 0.458543
5544 1 0.571083 0.0135489 0.457467
5545 1 0.587272 0.0198716 0.457417
5547 1 0.598579 0.011303 0.460421
2816 1 0.60305 0.0204968 0.45438
5548 1 0.615563 0.0166755 0.459577
5550 1 0.63091 0.018118 0.460775
5553 1 0.645141 0.0203593 0.461846
2824 1 0.682957 0.020932 0.459462
5555 1 0.694701 0.0161 0.462254
5552 1 0.708339 0.0146693 0.462437
2899 1 0.742889 0.0192486 0.462438
70 1 0.502457 0.0248427 0.452118
2814 1 0.55895 0.0218956 0.451655
2885 1 0.578127 0.0249122 0.450954
2889 1 0.627988 0.0399221 0.451191
2818 1 0.610807 0.0341863 0.450467
2817 1 0.62149 0.025583 0.454184
2822 1 0.637061 0.0318157 0.455838
2891 1 0.647636 0.0418167 0.454751
2959 1 0.665685 0.0408489 0.453716
2820 1 0.666536 0.0227656 0.460744
2893 1 0.655115 0.0289059 0.458676
2823 1 0.675351 0.0315811 0.455464
2827 1 0.691964 0.0349122 0.453574
2894 1 0.706754 0.0375945 0.45222
2821 1 0.698398 0.0238055 0.456715
2830 1 0.715691 0.0254547 0.45575
5554 1 0.721657 0.0403997 0.450294
2904 1 0.732365 0.0293538 0.456181
2832 1 0.74593 0.0341383 0.460887
3037 1 0.761573 0.0369778 0.459579
2897 1 0.778264 0.0396592 0.460537
2906 1 0.736139 0.044394 0.453778
3036 1 0.757855 0.0616041 0.450534
2898 1 0.752622 0.0440956 0.453925
3043 1 0.772506 0.0594903 0.450544
2968 1 0.766806 0.0476653 0.454889
2971 1 0.78452 0.0504295 0.455601
2979 1 0.795276 0.047192 0.46144
3039 1 0.794602 0.0585695 0.453935
2900 1 0.809141 0.057328 0.455599
2981 1 0.824555 0.0582493 0.45652
2844 1 0.813425 0.0483458 0.461969
2913 1 0.84073 0.0572111 0.45553
2974 1 0.831748 0.0496949 0.461262
3135 1 0.855114 0.0614055 0.457358
3058 1 0.848358 0.0490426 0.461944
3060 1 0.873074 0.0647517 0.457082
2976 1 0.833201 0.0701646 0.450348
3131 1 0.847197 0.0667452 0.450811
3197 1 0.862866 0.0737496 0.450419
3199 1 0.888899 0.0671522 0.45913
2982 1 0.88065 0.0791627 0.452652
3139 1 0.898153 0.0785085 0.454121
2997 1 0.902879 0.0681018 0.460191
3134 1 0.914392 0.0836437 0.455026
3272 1 0.928442 0.0859003 0.453584
3138 1 0.919776 0.072904 0.460042
3072 1 0.933456 0.0780939 0.461116
3203 1 0.943868 0.0863013 0.454944
3206 1 0.949555 0.0999897 0.451756
3211 1 0.957517 0.0915227 0.458704
3210 1 0.964204 0.102001 0.454081
3282 1 0.971157 0.0983918 0.461179
3355 1 0.979817 0.109371 0.458472
3359 1 0.985712 0.122063 0.454445
496 1 0.994976 0.116685 0.459449
986 1 0.967242 0.361524 0.451627
3988 1 0.98518 0.356028 0.451208
3989 1 0.995534 0.363132 0.454046
3914 1 0.883858 0.383916 0.453237
3983 1 0.899042 0.386575 0.454247
3985 1 0.915662 0.383055 0.452012
3986 1 0.930115 0.389588 0.455523
4056 1 0.94425 0.382509 0.454785
1191 1 0.958608 0.373772 0.45241
4060 1 0.958395 0.389433 0.459141
4059 1 0.969614 0.377829 0.457824
4058 1 0.976087 0.388569 0.460821
982 1 0.98022 0.370074 0.453018
1121 1 0.985925 0.374942 0.459446
3834 1 0.845967 0.394532 0.451368
3833 1 0.831464 0.405362 0.453319
3899 1 0.844615 0.411356 0.456392
3905 1 0.868515 0.393114 0.454564
3696 1 0.857234 0.401721 0.454574
3901 1 0.875388 0.40482 0.459273
3910 1 0.885474 0.395262 0.45789
3984 1 0.900459 0.401395 0.461189
3916 1 0.914119 0.394408 0.458418
3918 1 0.94476 0.397721 0.461076
3896 1 0.778785 0.430182 0.451635
3830 1 0.790948 0.420799 0.450402
3825 1 0.791625 0.432604 0.455449
3835 1 0.803296 0.42135 0.455119
3974 1 0.820176 0.415969 0.455407
3762 1 0.817827 0.430118 0.459084
3981 1 0.83248 0.421402 0.458111
3908 1 0.84646 0.42513 0.461164
3902 1 0.85869 0.4145 0.460923
4105 1 0.739193 0.453188 0.451579
4031 1 0.752752 0.449682 0.452156
3963 1 0.763288 0.439071 0.45119
3831 1 0.777574 0.441823 0.456175
3967 1 0.766315 0.449359 0.457745
3966 1 0.7921 0.44649 0.460048
3895 1 0.804037 0.440085 0.45882
4099 1 0.694325 0.467388 0.451094
4095 1 0.688294 0.477791 0.454063
4029 1 0.709321 0.458318 0.450408
4174 1 0.709989 0.471582 0.455438
4101 1 0.721483 0.46305 0.454339
4098 1 0.72611 0.475222 0.460221
4035 1 0.738326 0.464266 0.456607
4032 1 0.752568 0.460073 0.457629
4037 1 0.750202 0.473448 0.462026
3962 1 0.778536 0.459407 0.46102
3965 1 0.764447 0.463134 0.462015
4084 1 0.659054 0.495066 0.454467
4085 1 0.671193 0.486509 0.452102
4093 1 0.682615 0.491077 0.456697
4094 1 0.700631 0.48198 0.458422
4102 1 0.713117 0.482356 0.461948
5474 1 0.585214 0.00679633 0.462966
5483 1 0.622862 0.00160519 0.470188
5549 1 0.610604 0.00544531 0.466158
2819 1 0.628962 0.00959385 0.466113
5482 1 0.642793 0.00822016 0.465883
5481 1 0.655489 0.00123505 0.469044
5485 1 0.668994 0.00121301 0.469041
2825 1 0.658394 0.0132408 0.464773
5551 1 0.673941 0.0126337 0.464514
5484 1 0.686678 0.00493687 0.467743
5487 1 0.701165 0.0045456 0.468617
2828 1 0.727436 0.020672 0.46277
2829 1 0.717902 0.0044983 0.469335
2831 1 0.731973 0.00798436 0.467726
5562 1 0.750991 0.00847985 0.46901
2833 1 0.766757 0.0158838 0.471764
2903 1 0.75831 0.0233474 0.465427
2975 1 0.77412 0.0295373 0.467101
2836 1 0.782796 0.0230012 0.472544
2972 1 0.790039 0.0362462 0.466737
2973 1 0.806112 0.0366635 0.46879
2911 1 0.822913 0.0409951 0.468905
2978 1 0.838383 0.0395939 0.469732
5570 1 0.852896 0.0395721 0.470476
3053 1 0.862803 0.0515907 0.463715
3059 1 0.869825 0.0450091 0.471162
3064 1 0.88718 0.0475668 0.471477
2914 1 0.878998 0.0550903 0.464973
3056 1 0.895646 0.0568637 0.464323
3201 1 0.90432 0.0533125 0.470708
3130 1 0.913439 0.0618396 0.465413
3128 1 0.919138 0.055656 0.472703
3140 1 0.929091 0.0632202 0.46665
3209 1 0.94572 0.0809253 0.464069
3142 1 0.942988 0.0681111 0.468698
3071 1 0.954436 0.0762756 0.469987
3213 1 0.968991 0.0833856 0.472395
3141 1 0.963941 0.0849703 0.465106
3214 1 0.979237 0.0908144 0.468692
3357 1 0.987168 0.105217 0.464014
3285 1 0.99322 0.0955977 0.471596
3284 1 0.99907 0.109496 0.466923
4057 1 0.989979 0.386516 0.463411
3904 1 0.888518 0.408875 0.464285
4053 1 0.927904 0.39969 0.462759
3982 1 0.915322 0.407078 0.465673
3980 1 0.929355 0.410896 0.467943
1051 1 0.960555 0.402519 0.464751
1123 1 0.974771 0.401676 0.465992
1132 1 0.988553 0.400799 0.46821
3975 1 0.831456 0.432932 0.463229
3976 1 0.862323 0.427486 0.464006
3903 1 0.874139 0.416565 0.464203
3978 1 0.885891 0.422549 0.469597
4049 1 0.873945 0.431558 0.470276
4050 1 0.888486 0.434083 0.474991
3979 1 0.899479 0.413737 0.467647
4051 1 0.901196 0.427042 0.474454
4052 1 0.911091 0.41658 0.470657
4125 1 0.948806 0.413681 0.466246
1192 1 0.949989 0.423917 0.471291
1193 1 0.936596 0.423607 0.47055
3917 1 0.962413 0.413333 0.469182
4054 1 0.96805 0.425473 0.474891
3987 1 0.978374 0.413944 0.471587
1056 1 0.993609 0.413293 0.474118
3969 1 0.806205 0.452692 0.464817
3900 1 0.819069 0.442955 0.464001
3973 1 0.817714 0.453971 0.469744
3977 1 0.832353 0.445632 0.469431
4046 1 0.845933 0.447631 0.474165
4047 1 0.848364 0.437854 0.466977
4048 1 0.862415 0.439648 0.471868
4175 1 0.737725 0.477761 0.464173
4033 1 0.779327 0.468862 0.466576
4103 1 0.765694 0.474834 0.466919
3971 1 0.792666 0.461475 0.465729
4039 1 0.78966 0.473235 0.471181
3972 1 0.804331 0.463869 0.470943
4109 1 0.802915 0.477919 0.473989
4025 1 0.697883 0.492976 0.463017
4167 1 0.709426 0.496506 0.466564
4022 1 0.724899 0.487379 0.46665
4104 1 0.738718 0.491213 0.469944
4170 1 0.7513 0.497515 0.474545
4034 1 0.753812 0.481968 0.468024
3968 1 0.762175 0.490364 0.473072
3970 1 0.77651 0.482689 0.472258
4038 1 0.790394 0.487513 0.474379
5497 1 0.763909 0.00375275 0.476069
5563 1 0.778348 0.00737491 0.477583
2977 1 0.792185 0.0140719 0.479555
2845 1 0.807774 0.0187366 0.482842
5572 1 0.822639 0.0199828 0.483433
2840 1 0.836873 0.0216277 0.483337
2908 1 0.800176 0.0265908 0.475334
2912 1 0.817654 0.03132 0.476115
2986 1 0.847191 0.0308865 0.477671
3057 1 0.831215 0.0320601 0.476796
5576 1 0.853796 0.0217668 0.481969
3066 1 0.863281 0.0343617 0.477486
2983 1 0.871136 0.0235112 0.48417
2988 1 0.878548 0.0361095 0.47775
2990 1 0.887694 0.0300287 0.484961
3065 1 0.9016 0.0337834 0.486492
3063 1 0.895153 0.0384861 0.478675
3069 1 0.909909 0.0425463 0.479687
3136 1 0.927465 0.0457856 0.480729
3070 1 0.93677 0.0588873 0.475473
3002 1 0.942986 0.0523321 0.484286
3000 1 0.952731 0.0648096 0.476813
3068 1 0.957952 0.0589073 0.484602
3148 1 0.970402 0.0621246 0.486665
3144 1 0.966242 0.0712802 0.478552
3147 1 0.977331 0.0748728 0.4841
3215 1 0.983411 0.0846599 0.476885
3217 1 0.992377 0.0807571 0.485308
4055 1 0.92304 0.423871 0.47531
4123 1 0.940702 0.434209 0.478388
4124 1 0.957043 0.431645 0.476027
3990 1 0.984152 0.422637 0.478547
1197 1 0.997 0.428155 0.483539
4118 1 0.873284 0.443672 0.477446
4189 1 0.886454 0.448096 0.48106
4120 1 0.901801 0.443498 0.480229
4122 1 0.899227 0.455567 0.48629
4121 1 0.914748 0.435628 0.478116
4195 1 0.915576 0.450627 0.482119
4197 1 0.929091 0.43932 0.479652
4263 1 0.926972 0.454339 0.48424
4265 1 0.941289 0.447303 0.484341
4130 1 0.970896 0.435087 0.48097
1195 1 0.956903 0.442882 0.482415
1194 1 0.969338 0.447337 0.487053
1058 1 0.985471 0.437707 0.486401
4041 1 0.816605 0.469249 0.475801
4045 1 0.831012 0.458836 0.475164
4115 1 0.829316 0.473088 0.478273
4044 1 0.843665 0.463133 0.479744
4116 1 0.840603 0.47607 0.484871
4117 1 0.860153 0.456576 0.478054
4186 1 0.85435 0.468292 0.484026
4119 1 0.872049 0.456999 0.481351
4190 1 0.886643 0.461785 0.486004
4187 1 0.871675 0.470961 0.487011
4036 1 0.778984 0.495841 0.477395
4040 1 0.802101 0.493493 0.479479
4043 1 0.816291 0.483883 0.478899
4113 1 0.814497 0.49737 0.483555
4111 1 0.826952 0.485794 0.484906
2843 1 0.801096 0.00562799 0.4878
5494 1 0.816183 0.00970734 0.489682
5571 1 0.82548 0.000333519 0.494714
2837 1 0.832281 0.00951293 0.489478
2838 1 0.840863 0.000440979 0.495277
2917 1 0.849324 0.0135986 0.488534
2846 1 0.85668 0.00299143 0.494437
2842 1 0.864611 0.0126569 0.489479
2848 1 0.873856 0.00809927 0.495323
3061 1 0.886001 0.0123921 0.498886
2915 1 0.879276 0.0175231 0.490499
2992 1 0.894631 0.0221937 0.492514
2995 1 0.909664 0.0290165 0.494183
3067 1 0.91868 0.0390661 0.488645
2999 1 0.926379 0.0340923 0.495516
3073 1 0.941655 0.0366284 0.496784
3001 1 0.960519 0.0394351 0.4971
2998 1 0.936541 0.0443323 0.489912
3143 1 0.949491 0.0459168 0.489668
3146 1 0.964095 0.0490374 0.491226
3076 1 0.978163 0.0530804 0.496
283 1 0.996142 0.0619528 0.497308
3149 1 0.986537 0.0651247 0.490946
1263 1 0.951195 0.452654 0.489086
1196 1 0.993859 0.454484 0.498277
4200 1 0.984101 0.45316 0.492783
1055 1 0.995951 0.443741 0.491448
4191 1 0.88593 0.474652 0.492278
4193 1 0.901355 0.46971 0.491205
4261 1 0.912514 0.474776 0.496016
4128 1 0.913753 0.462326 0.489015
4129 1 0.92617 0.465965 0.492476
4196 1 0.926145 0.477977 0.499562
4126 1 0.936748 0.459889 0.490137
4199 1 0.939133 0.471211 0.49822
1331 1 0.951815 0.464395 0.495403
4127 1 0.962963 0.458732 0.492971
1265 1 0.980557 0.462053 0.499579
4112 1 0.842275 0.498341 0.498444
4185 1 0.840975 0.486931 0.491914
4114 1 0.829999 0.495414 0.492489
4183 1 0.856887 0.492044 0.495985
4188 1 0.856312 0.480332 0.48881
4257 1 0.871259 0.499211 0.498548
4192 1 0.871048 0.483264 0.492969
4258 1 0.884319 0.490849 0.498614
4194 1 0.897295 0.481133 0.496003
2849 1 0.896071 0.00773582 0.507229
2985 1 0.902327 0.0162478 0.500181
2918 1 0.913188 0.012415 0.507074
2987 1 0.928284 0.0175586 0.507353
3133 1 0.945763 0.0197455 0.511036
2996 1 0.917698 0.0222296 0.500485
3074 1 0.949891 0.0334859 0.505032
2994 1 0.936521 0.0251089 0.502583
142 1 0.968073 0.0363944 0.50814
3003 1 0.972585 0.0414333 0.501731
3145 1 0.983452 0.0436317 0.508674
3075 1 0.989167 0.0525013 0.50216
3080 1 0.997146 0.0470109 0.508616
1401 1 0.951036 0.476315 0.503448
1262 1 0.963384 0.470268 0.500659
1333 1 0.966025 0.477788 0.508622
1266 1 0.979978 0.468981 0.507303
1261 1 0.993727 0.465662 0.505416
1267 1 0.993247 0.476487 0.512255
4329 1 0.898213 0.494714 0.503042
4262 1 0.911851 0.49781 0.507406
4259 1 0.913056 0.486388 0.50008
4334 1 0.925293 0.491384 0.506628
4198 1 0.937031 0.483625 0.505794
1403 1 0.951695 0.485856 0.511728
4264 1 0.937973 0.49628 0.512016
2916 1 0.921048 0.00753767 0.514381
2991 1 0.943724 0.0045402 0.522743
3062 1 0.936129 0.00911079 0.51421
2993 1 0.951653 0.0134777 0.518392
2928 1 0.967235 0.018554 0.520421
2854 1 0.958743 0.00730039 0.524796
3006 1 0.962271 0.0254759 0.513978
3079 1 0.977651 0.0306459 0.514993
211 1 0.997736 0.0322369 0.522992
3007 1 0.982427 0.0239422 0.522651
141 1 0.988157 0.0376908 0.516737
4269 1 0.948859 0.495917 0.518791
1334 1 0.963849 0.489075 0.515777
4267 1 0.964481 0.497616 0.523601
1332 1 0.979048 0.494399 0.519761
1264 1 0.980351 0.480635 0.513817
1336 1 0.992644 0.48622 0.519669
2924 1 0.965331 0.00163135 0.533018
2926 1 0.977447 0.0127912 0.528537
3004 1 0.981086 0.00642624 0.536189
3010 1 0.991333 0.019899 0.529348
2930 1 0.997237 0.0120338 0.537449
1335 1 0.992151 0.49851 0.525963
3077 1 0.989107 0.000524224 0.543235
4068 1 0.517957 0.501598 0.44363
4140 1 0.519003 0.515073 0.449425
4205 1 0.505514 0.509953 0.445171
4142 1 0.534217 0.509217 0.444779
4074 1 0.548784 0.50378 0.444102
4144 1 0.561462 0.512286 0.449404
4213 1 0.548517 0.517513 0.449362
4143 1 0.577359 0.506249 0.44649
4076 1 0.604065 0.502029 0.448261
4077 1 0.589373 0.511105 0.448071
4141 1 0.535022 0.521603 0.452372
4078 1 0.572982 0.518885 0.451346
4147 1 0.60113 0.518218 0.452044
4220 1 0.614011 0.519592 0.459424
4150 1 0.630061 0.510857 0.456122
4219 1 0.61571 0.508272 0.450308
4153 1 0.642884 0.517646 0.461226
4151 1 0.64188 0.5035 0.454089
4155 1 0.655009 0.508029 0.460154
4090 1 0.670766 0.501902 0.458788
4202 1 0.503196 0.521983 0.452338
4201 1 0.501645 0.53171 0.460251
4203 1 0.516792 0.525746 0.456601
4210 1 0.530409 0.534743 0.45866
4215 1 0.546992 0.531358 0.455713
4145 1 0.561219 0.523755 0.454673
4212 1 0.557152 0.536921 0.461115
4146 1 0.573914 0.53242 0.457335
4216 1 0.585616 0.537746 0.460074
4217 1 0.58681 0.52419 0.454753
4221 1 0.599442 0.52911 0.460352
4223 1 0.627207 0.523238 0.460717
4157 1 0.66937 0.513166 0.464414
4026 1 0.685572 0.504906 0.463448
4162 1 0.682042 0.518929 0.468832
4092 1 0.697919 0.507856 0.466292
4168 1 0.709542 0.511939 0.472625
3958 1 0.724679 0.503393 0.471208
4177 1 0.738118 0.50461 0.474541
4070 1 0.515464 0.534314 0.463822
1540 1 0.501685 0.54241 0.468474
4211 1 0.529407 0.542808 0.466786
4281 1 0.54397 0.542477 0.464343
4214 1 0.570886 0.54314 0.464795
4218 1 0.597854 0.542762 0.465101
4293 1 0.612821 0.532536 0.464066
4225 1 0.623301 0.536469 0.468244
4226 1 0.637692 0.529364 0.467393
4227 1 0.636079 0.538526 0.474208
4154 1 0.651069 0.532375 0.472857
4152 1 0.65399 0.522222 0.465628
4018 1 0.66674 0.52539 0.469925
4096 1 0.695583 0.522109 0.471714
4088 1 0.680561 0.530097 0.474001
4206 1 0.51546 0.547568 0.472578
4279 1 0.542784 0.54786 0.473251
4282 1 0.557289 0.545504 0.470499
4285 1 0.583443 0.54791 0.468428
4283 1 0.569522 0.551659 0.474073
4289 1 0.59538 0.553204 0.47323
4291 1 0.609597 0.547168 0.469459
5466 1 0.512911 0.978076 0.471505
5534 1 0.503687 0.98862 0.467853
5535 1 0.518038 0.989376 0.465249
5469 1 0.529421 0.981851 0.470502
5470 1 0.536394 0.992733 0.464288
5473 1 0.550624 0.995315 0.465066
5472 1 0.546271 0.982421 0.469893
5475 1 0.5631 0.990014 0.469926
5408 1 0.574717 0.980786 0.474301
5477 1 0.58082 0.989978 0.470155
5476 1 0.568646 0.999829 0.464263
5479 1 0.591582 0.984668 0.473457
5480 1 0.606076 0.994534 0.470574
5478 1 0.594941 0.99748 0.467302
5411 1 0.61624 0.988266 0.473358
5412 1 0.62863 0.986141 0.474475
5417 1 0.639614 0.998329 0.47068
5414 1 0.648158 0.989333 0.474459
5558 1 0.663349 0.991393 0.47374
5486 1 0.679858 0.993126 0.474659
5559 1 0.692267 0.994038 0.474047
5419 1 0.709698 0.996257 0.473441
5556 1 0.729869 0.999729 0.474182
5492 1 0.74646 1 0.474281
4164 1 0.722801 0.512941 0.477489
4173 1 0.736571 0.518335 0.48275
4241 1 0.747446 0.510001 0.480346
4106 1 0.759616 0.514234 0.484128
4108 1 0.774932 0.507976 0.483563
4107 1 0.76304 0.5032 0.478042
4100 1 0.789755 0.501141 0.480584
4110 1 0.800948 0.507734 0.485068
4179 1 0.787676 0.51312 0.487046
4229 1 0.651699 0.542453 0.481212
4158 1 0.665387 0.535931 0.477257
4156 1 0.679363 0.541652 0.482519
4161 1 0.691358 0.533369 0.479401
4165 1 0.707078 0.52665 0.479028
4235 1 0.708912 0.537256 0.485675
4163 1 0.723802 0.526622 0.481409
4239 1 0.73654 0.531358 0.486961
4231 1 0.722172 0.541646 0.48561
4169 1 0.751683 0.523379 0.486512
4138 1 0.50198 0.558696 0.484499
4272 1 0.501264 0.549647 0.47571
4208 1 0.512994 0.554392 0.47952
4278 1 0.527868 0.551465 0.476268
4280 1 0.540551 0.557802 0.482084
4209 1 0.525627 0.562477 0.484747
4353 1 0.554386 0.557227 0.478227
4284 1 0.56754 0.563808 0.481059
4222 1 0.582035 0.560072 0.47628
4290 1 0.622723 0.545066 0.475743
4360 1 0.611579 0.5589 0.479455
4362 1 0.625763 0.557068 0.482642
4297 1 0.637646 0.547431 0.481358
4228 1 0.648999 0.554919 0.487247
4160 1 0.667933 0.547885 0.484125
4159 1 0.691084 0.543832 0.48681
4277 1 0.513588 0.56683 0.487333
4276 1 0.539644 0.570674 0.487466
4356 1 0.554651 0.568196 0.486574
4287 1 0.58341 0.569981 0.484365
4359 1 0.597289 0.565655 0.480011
4361 1 0.611655 0.571101 0.486982
5401 1 0.562963 0.956464 0.486573
5399 1 0.549235 0.952164 0.485941
5338 1 0.581207 0.956256 0.483747
5465 1 0.505667 0.958077 0.484761
5467 1 0.520374 0.961616 0.485031
5468 1 0.507875 0.970718 0.478978
5402 1 0.541213 0.974066 0.47625
5471 1 0.524017 0.973238 0.477904
5400 1 0.536674 0.961978 0.483207
5406 1 0.55849 0.976706 0.475622
5404 1 0.552391 0.9683 0.482009
5403 1 0.569815 0.967112 0.47987
5405 1 0.585613 0.970644 0.479194
5407 1 0.597116 0.959167 0.484691
5413 1 0.603131 0.9689 0.479966
5409 1 0.61955 0.974822 0.480057
5272 1 0.614487 0.963612 0.484465
5344 1 0.632071 0.965662 0.484113
5274 1 0.648436 0.967249 0.483695
5418 1 0.635397 0.977456 0.478293
5349 1 0.664839 0.966977 0.48344
5557 1 0.679812 0.968784 0.484067
5489 1 0.69781 0.971605 0.48468
5420 1 0.714917 0.976418 0.483845
5410 1 0.60485 0.981877 0.476617
5415 1 0.654121 0.979054 0.477869
5416 1 0.672083 0.979859 0.478659
5347 1 0.687712 0.981974 0.479564
5346 1 0.704734 0.985801 0.480125
5564 1 0.729639 0.979331 0.485128
5560 1 0.720486 0.991606 0.478608
5493 1 0.739039 0.991025 0.480417
2834 1 0.756117 0.990857 0.481091
2835 1 0.745331 0.980699 0.485872
5567 1 0.772891 0.994136 0.482055
2907 1 0.788314 0.999262 0.485403
4246 1 0.773436 0.519929 0.489048
4042 1 0.804403 0.516949 0.491466
4181 1 0.815553 0.505276 0.490706
4249 1 0.817751 0.517223 0.498158
4180 1 0.827887 0.50708 0.498615
4243 1 0.751859 0.53976 0.492914
4176 1 0.763746 0.542877 0.496272
4171 1 0.762507 0.530754 0.49156
4172 1 0.776703 0.533736 0.494803
4245 1 0.789819 0.52472 0.493263
4317 1 0.78905 0.535936 0.499563
4178 1 0.805268 0.527071 0.49918
4363 1 0.636373 0.560988 0.489427
4230 1 0.663855 0.560321 0.49039
4233 1 0.677615 0.55322 0.489022
4166 1 0.692352 0.555252 0.492531
4234 1 0.678943 0.564414 0.494415
4236 1 0.705631 0.54932 0.49084
4232 1 0.704659 0.559912 0.497601
4307 1 0.736699 0.558977 0.496795
4242 1 0.73401 0.54727 0.491185
4237 1 0.719271 0.553231 0.492231
4315 1 0.74972 0.550599 0.496709
4313 1 0.778925 0.544787 0.499989
4346 1 0.514549 0.576399 0.495217
4345 1 0.526596 0.572074 0.492223
4349 1 0.539583 0.579591 0.495488
4347 1 0.527673 0.584498 0.498946
4351 1 0.555711 0.578271 0.493641
4355 1 0.571849 0.574348 0.487821
4286 1 0.582782 0.582958 0.492795
4288 1 0.569091 0.585758 0.494671
4427 1 0.596407 0.576089 0.489441
4431 1 0.612369 0.580592 0.493008
4358 1 0.625092 0.569703 0.488807
4432 1 0.627329 0.582275 0.495052
4365 1 0.638769 0.575727 0.49258
4292 1 0.65505 0.58187 0.496355
4224 1 0.653396 0.567957 0.492435
4299 1 0.667557 0.573133 0.497608
4301 1 0.680644 0.578508 0.499633
4303 1 0.692496 0.567445 0.498588
4238 1 0.722908 0.56642 0.497881
4354 1 0.552281 0.591086 0.497969
4357 1 0.584224 0.594956 0.49695
4421 1 0.568071 0.597686 0.499604
4429 1 0.597443 0.590202 0.493293
4422 1 0.600091 0.600263 0.498674
4434 1 0.627195 0.595119 0.499772
4430 1 0.612552 0.591905 0.497496
4364 1 0.641068 0.591083 0.497643
5330 1 0.553621 0.930437 0.498423
5335 1 0.569051 0.931734 0.49525
5262 1 0.581841 0.922216 0.499965
5268 1 0.598853 0.921783 0.499241
5203 1 0.63018 0.929105 0.499269
5341 1 0.613469 0.926297 0.498892
5201 1 0.644656 0.928342 0.496393
5202 1 0.662685 0.93166 0.497267
5326 1 0.502536 0.94844 0.491417
5328 1 0.509223 0.935833 0.497016
5397 1 0.516964 0.945308 0.489459
5398 1 0.532127 0.951326 0.489265
5332 1 0.52426 0.938632 0.496956
5334 1 0.542188 0.942183 0.493574
5336 1 0.554946 0.942272 0.49118
5333 1 0.573038 0.945095 0.489153
5339 1 0.585514 0.935526 0.492144
5340 1 0.603791 0.936009 0.49366
5342 1 0.591201 0.94679 0.489443
5343 1 0.609183 0.949124 0.489149
5200 1 0.619071 0.941437 0.495105
5270 1 0.624225 0.955012 0.488905
5277 1 0.640299 0.954953 0.488448
5271 1 0.634344 0.943306 0.493173
5276 1 0.651522 0.93996 0.493352
5273 1 0.665821 0.945469 0.493302
5345 1 0.676679 0.935536 0.497144
5421 1 0.684598 0.948749 0.493558
5208 1 0.696306 0.937388 0.497527
5280 1 0.711758 0.941426 0.499469
5278 1 0.704848 0.951669 0.493919
5282 1 0.718827 0.953354 0.493998
5284 1 0.729652 0.941364 0.499877
5491 1 0.736796 0.955125 0.494511
5353 1 0.747494 0.945006 0.499873
5279 1 0.657526 0.9567 0.488201
5351 1 0.674885 0.958192 0.490537
5348 1 0.691181 0.961989 0.489758
5350 1 0.710028 0.962301 0.488745
5488 1 0.724715 0.964654 0.489999
5495 1 0.738148 0.967813 0.491135
5561 1 0.752009 0.957062 0.495133
5500 1 0.755271 0.970583 0.491352
5501 1 0.764665 0.963034 0.497527
5565 1 0.77282 0.973829 0.493975
5498 1 0.78925 0.978013 0.496521
5566 1 0.762013 0.983808 0.487882
2909 1 0.778009 0.988191 0.488943
5496 1 0.79462 0.993446 0.492075
2910 1 0.809128 0.996771 0.494646
5579 1 0.83555 0.990122 0.499707
4182 1 0.844026 0.511071 0.503688
4253 1 0.830086 0.51884 0.504905
4254 1 0.85609 0.517052 0.508902
4184 1 0.857861 0.503483 0.502122
4330 1 0.884993 0.514404 0.510359
4256 1 0.870213 0.511648 0.507439
4255 1 0.883 0.503253 0.50292
4260 1 0.896965 0.50585 0.510384
4338 1 0.925593 0.50313 0.512213
4247 1 0.802655 0.540751 0.504922
4251 1 0.8169 0.531124 0.505224
4248 1 0.814263 0.543259 0.510941
4323 1 0.82703 0.534639 0.509743
4326 1 0.841268 0.524761 0.510673
4244 1 0.759888 0.554393 0.500428
4310 1 0.773304 0.557163 0.505478
4316 1 0.786221 0.550407 0.50605
4318 1 0.787907 0.56456 0.512223
4319 1 0.801697 0.554869 0.511169
4415 1 0.513485 0.586359 0.502522
4371 1 0.692843 0.583845 0.502422
4305 1 0.707922 0.574252 0.501925
4304 1 0.722249 0.579599 0.504776
4302 1 0.73647 0.586922 0.508459
4379 1 0.737288 0.573152 0.501139
4240 1 0.750428 0.565348 0.501862
4309 1 0.748127 0.578012 0.507675
4311 1 0.760851 0.569919 0.506001
4314 1 0.774448 0.572297 0.51193
4419 1 0.511848 0.597378 0.507648
4348 1 0.540054 0.591513 0.502212
4417 1 0.527678 0.596184 0.504895
4352 1 0.541561 0.6037 0.507861
4350 1 0.525649 0.604816 0.512374
4423 1 0.554963 0.603429 0.504704
4420 1 0.585299 0.605176 0.503228
4433 1 0.614321 0.605735 0.502949
4366 1 0.642687 0.603146 0.503047
4296 1 0.654616 0.595345 0.50188
4369 1 0.668201 0.602574 0.504381
4295 1 0.668638 0.587557 0.501731
4298 1 0.68115 0.594985 0.503813
4368 1 0.681902 0.608551 0.509018
4300 1 0.694446 0.599715 0.50545
4370 1 0.708007 0.588918 0.507213
4373 1 0.708196 0.604849 0.508675
4375 1 0.723986 0.595641 0.510182
4489 1 0.554022 0.614669 0.510479
4492 1 0.568594 0.609412 0.50595
4426 1 0.581546 0.618668 0.509627
4425 1 0.600512 0.608883 0.504628
4424 1 0.595827 0.623358 0.510467
4502 1 0.610234 0.617502 0.507261
4505 1 0.627415 0.609911 0.504629
4506 1 0.625093 0.621813 0.510197
4507 1 0.639374 0.614561 0.509342
4294 1 0.653771 0.609789 0.507479
4435 1 0.667737 0.612809 0.511275
4374 1 0.694531 0.613171 0.512022
5193 1 0.593008 0.884605 0.511197
5127 1 0.625956 0.890209 0.509646
5196 1 0.643385 0.890346 0.510562
5131 1 0.686696 0.883146 0.511997
5118 1 0.54335 0.908447 0.509108
5052 1 0.552332 0.895689 0.511865
5264 1 0.558391 0.90858 0.507049
5122 1 0.56843 0.895413 0.510783
5337 1 0.57366 0.907017 0.504926
5192 1 0.583299 0.89793 0.509812
5194 1 0.601807 0.900621 0.507583
5266 1 0.590283 0.908592 0.504595
5265 1 0.616683 0.90242 0.506932
5198 1 0.633223 0.901668 0.506377
5128 1 0.650268 0.905472 0.506906
5133 1 0.660793 0.892016 0.512016
5132 1 0.668231 0.907371 0.507347
5135 1 0.675778 0.895203 0.510258
5204 1 0.681871 0.908116 0.506564
5137 1 0.693313 0.897154 0.511324
5136 1 0.710098 0.900605 0.51133
5134 1 0.698359 0.911824 0.506546
5263 1 0.516542 0.917746 0.50789
5188 1 0.500919 0.917665 0.512035
5327 1 0.506111 0.926338 0.503154
5190 1 0.521233 0.92678 0.50273
5187 1 0.530983 0.91807 0.505723
5329 1 0.538411 0.932675 0.500087
5260 1 0.547843 0.919326 0.504096
5331 1 0.56587 0.919172 0.502594
5267 1 0.60716 0.913608 0.50443
5269 1 0.624713 0.914135 0.50342
5130 1 0.638331 0.917322 0.502693
5206 1 0.670593 0.91992 0.501812
5205 1 0.655546 0.918286 0.502763
5275 1 0.689959 0.923555 0.501439
5210 1 0.706363 0.925567 0.501468
5281 1 0.718431 0.913203 0.506465
5213 1 0.722329 0.929978 0.502593
5141 1 0.735241 0.918586 0.510585
5355 1 0.740311 0.931617 0.504526
5212 1 0.748802 0.922246 0.511824
5357 1 0.765128 0.923513 0.511601
5356 1 0.756678 0.934968 0.505141
5499 1 0.761772 0.948489 0.501839
5354 1 0.771119 0.937383 0.507807
5422 1 0.776002 0.952859 0.503502
5490 1 0.79213 0.953868 0.505524
5352 1 0.785983 0.942305 0.509318
5432 1 0.781271 0.965214 0.500159
5426 1 0.798918 0.967694 0.502457
5569 1 0.806481 0.962628 0.50805
5503 1 0.822928 0.965682 0.510749
5573 1 0.815875 0.975586 0.506447
5577 1 0.838486 0.970739 0.511325
5568 1 0.805997 0.982278 0.500225
5575 1 0.821537 0.988811 0.500403
5502 1 0.828251 0.980816 0.505706
2919 1 0.843487 0.980796 0.505368
5581 1 0.860362 0.985195 0.507546
2839 1 0.866186 0.997357 0.501437
2841 1 0.850373 0.992236 0.50072
5578 1 0.881643 0.999144 0.502782
5580 1 0.87515 0.990247 0.507987
2989 1 0.890257 0.992798 0.511219
4327 1 0.870427 0.5214 0.513086
4332 1 0.912637 0.510626 0.512799
4331 1 0.899007 0.516684 0.513851
4333 1 0.910152 0.520731 0.519539
4266 1 0.925836 0.518562 0.518797
4340 1 0.939085 0.506189 0.518361
4339 1 0.936266 0.51842 0.524941
4325 1 0.835955 0.538679 0.516151
4328 1 0.853235 0.532987 0.514414
4397 1 0.868255 0.531556 0.517959
4401 1 0.885063 0.526276 0.517917
4400 1 0.881332 0.536031 0.522432
4404 1 0.896753 0.527668 0.522138
4250 1 0.813258 0.558602 0.51598
4392 1 0.825954 0.560526 0.523549
4252 1 0.823796 0.547041 0.51645
4322 1 0.837303 0.550251 0.522142
4324 1 0.848912 0.545609 0.52149
4398 1 0.866506 0.544835 0.523813
4312 1 0.762014 0.58114 0.513886
4385 1 0.775607 0.58636 0.516454
4321 1 0.802059 0.569975 0.516837
4381 1 0.789903 0.577254 0.515899
4389 1 0.800059 0.580981 0.521524
4393 1 0.815613 0.57435 0.52156
4418 1 0.510382 0.604234 0.514496
4380 1 0.739556 0.601959 0.513655
4382 1 0.748978 0.590515 0.512765
4306 1 0.75074 0.608468 0.516871
4308 1 0.762088 0.596743 0.517551
4383 1 0.772638 0.59909 0.523107
4387 1 0.787663 0.592064 0.522509
4553 1 0.509934 0.614477 0.519555
4486 1 0.512507 0.627456 0.523726
4563 1 0.523442 0.618562 0.517599
4488 1 0.538775 0.615436 0.514403
4558 1 0.550852 0.628042 0.516502
4487 1 0.565686 0.620113 0.513076
4491 1 0.579048 0.626947 0.51466
4573 1 0.611738 0.626307 0.513265
4570 1 0.636621 0.627789 0.514344
4575 1 0.652188 0.621824 0.512714
4577 1 0.667195 0.627055 0.516585
4437 1 0.680577 0.621891 0.516044
4367 1 0.699321 0.626521 0.519067
4376 1 0.707725 0.617346 0.514711
4445 1 0.724706 0.612098 0.514184
4449 1 0.737231 0.619868 0.514777
4447 1 0.719639 0.626938 0.516436
4452 1 0.749359 0.623029 0.519823
4451 1 0.765155 0.613779 0.521975
4494 1 0.535454 0.631758 0.520352
4557 1 0.522994 0.637193 0.524028
4495 1 0.537694 0.646884 0.523797
4693 1 0.551106 0.641326 0.522049
4493 1 0.565445 0.634307 0.517889
4633 1 0.56557 0.649178 0.523312
4564 1 0.580499 0.641077 0.520292
4565 1 0.592974 0.632386 0.516367
4567 1 0.596771 0.646143 0.522002
4504 1 0.608838 0.640807 0.519045
4503 1 0.626341 0.635277 0.518057
4501 1 0.626869 0.647916 0.521692
4500 1 0.640575 0.640671 0.520019
4645 1 0.65378 0.63363 0.518442
4641 1 0.671823 0.638587 0.520562
4639 1 0.655888 0.647006 0.523145
4436 1 0.686695 0.634077 0.521048
4439 1 0.699131 0.643104 0.521701
4372 1 0.711216 0.636833 0.51913
4450 1 0.734468 0.63205 0.520571
4377 1 0.722679 0.640978 0.522304
4444 1 0.735747 0.6488 0.523785
4591 1 0.750147 0.637049 0.524649
4635 1 0.580257 0.65428 0.523765
4496 1 0.610582 0.655314 0.524268
4499 1 0.640998 0.657217 0.522657
4508 1 0.668602 0.657337 0.523384
4438 1 0.68327 0.652472 0.522054
4378 1 0.694511 0.660002 0.523261
4443 1 0.680931 0.669732 0.523426
4516 1 0.711102 0.653656 0.522265
4440 1 0.710152 0.667412 0.524007
4519 1 0.723631 0.657336 0.524907
4441 1 0.694878 0.677638 0.524975
4578 1 0.675679 0.683867 0.524856
4921 1 0.64392 0.823449 0.52455
4850 1 0.66314 0.824584 0.524936
4924 1 0.679516 0.82425 0.522101
5057 1 0.596206 0.846661 0.52361
4990 1 0.636923 0.835881 0.523871
4987 1 0.651014 0.836566 0.522353
5060 1 0.641456 0.847459 0.519204
4918 1 0.667871 0.836684 0.520467
4991 1 0.684297 0.841118 0.521564
4996 1 0.695392 0.828802 0.524062
5071 1 0.701661 0.84278 0.521755
5125 1 0.586055 0.857793 0.522862
5054 1 0.600057 0.859613 0.51949
5123 1 0.589345 0.869511 0.51727
4988 1 0.611039 0.848649 0.522694
5197 1 0.614438 0.86117 0.51754
5056 1 0.625583 0.847856 0.520632
5059 1 0.630492 0.860424 0.516087
5129 1 0.648282 0.864088 0.515845
4989 1 0.65828 0.849502 0.518487
5061 1 0.663293 0.865448 0.516482
4922 1 0.673625 0.853011 0.519077
4992 1 0.69197 0.854623 0.519216
5063 1 0.683634 0.865879 0.515757
5065 1 0.699444 0.867098 0.516453
4994 1 0.706425 0.858297 0.522737
5067 1 0.723485 0.863123 0.523484
5116 1 0.515026 0.88211 0.523448
5114 1 0.531114 0.881371 0.518914
5117 1 0.540642 0.869744 0.523233
5048 1 0.557368 0.869969 0.520363
5044 1 0.545902 0.881381 0.51571
5121 1 0.563011 0.881252 0.515055
5191 1 0.57729 0.883948 0.513155
5053 1 0.573873 0.870353 0.51967
5199 1 0.607603 0.887317 0.512536
5124 1 0.603826 0.874004 0.514672
5126 1 0.618786 0.875372 0.514654
5195 1 0.635635 0.875708 0.512767
5058 1 0.653179 0.877446 0.515236
5062 1 0.670076 0.878044 0.513408
5066 1 0.712673 0.873563 0.518654
5064 1 0.70439 0.883995 0.514939
5070 1 0.719913 0.88792 0.515921
5006 1 0.72856 0.877028 0.52126
5211 1 0.7462 0.88192 0.523186
5142 1 0.761316 0.884051 0.522372
5261 1 0.511729 0.904821 0.514764
5189 1 0.505395 0.891498 0.521915
5119 1 0.520197 0.893135 0.517143
5120 1 0.526945 0.906994 0.512986
5115 1 0.536847 0.896279 0.512842
5207 1 0.726531 0.906784 0.513934
5138 1 0.735835 0.892121 0.518123
5140 1 0.743328 0.90676 0.515833
5209 1 0.753558 0.896217 0.518948
5283 1 0.757404 0.910889 0.514951
5215 1 0.766674 0.900548 0.519462
5358 1 0.781809 0.902726 0.521247
5286 1 0.795159 0.903193 0.523963
5423 1 0.781442 0.928694 0.514875
5214 1 0.770884 0.914574 0.517404
5285 1 0.786382 0.916986 0.519732
5425 1 0.795018 0.933617 0.517592
5360 1 0.799346 0.920268 0.522337
5427 1 0.817134 0.927227 0.522762
5289 1 0.833546 0.928597 0.524816
5424 1 0.802372 0.947289 0.513213
5430 1 0.814907 0.952228 0.512575
5431 1 0.81032 0.936936 0.518606
5361 1 0.823651 0.943064 0.518443
5428 1 0.829661 0.956219 0.515117
5429 1 0.840015 0.94422 0.521652
5434 1 0.85648 0.950888 0.522938
5574 1 0.844445 0.960468 0.518399
5362 1 0.852459 0.972644 0.513624
5507 1 0.862187 0.963737 0.519529
5510 1 0.871646 0.9568 0.524348
5582 1 0.876633 0.968754 0.521812
2847 1 0.869886 0.9767 0.514966
5586 1 0.894072 0.97127 0.523431
5512 1 0.883829 0.981183 0.515826
2850 1 0.905731 0.999902 0.512816
5591 1 0.908525 0.980194 0.524404
2851 1 0.900038 0.987242 0.517989
2857 1 0.91557 0.994297 0.518636
2922 1 0.933157 0.997309 0.520424
4335 1 0.948073 0.507957 0.526115
4479 1 0.948684 0.518693 0.532974
4337 1 0.960033 0.505478 0.532052
4270 1 0.974573 0.513291 0.535956
4268 1 0.975688 0.502155 0.528371
1473 1 0.987904 0.506308 0.534306
4403 1 0.911764 0.532587 0.526007
4474 1 0.904743 0.542056 0.534628
4402 1 0.894937 0.538045 0.529782
4407 1 0.92407 0.526302 0.525455
4336 1 0.92023 0.536329 0.532946
4410 1 0.934222 0.53 0.531869
4395 1 0.852518 0.555793 0.527732
4467 1 0.866489 0.553318 0.530822
4399 1 0.879909 0.547665 0.530209
4471 1 0.878186 0.557429 0.536931
4472 1 0.893421 0.551571 0.537396
4386 1 0.813875 0.585233 0.526827
4320 1 0.825768 0.586822 0.532583
4396 1 0.840191 0.565629 0.526527
4463 1 0.82788 0.576561 0.527353
4391 1 0.840274 0.577688 0.533604
4468 1 0.852759 0.5685 0.534426
4457 1 0.788407 0.60847 0.527038
4384 1 0.798161 0.597195 0.527151
4455 1 0.816602 0.59956 0.531275
4521 1 0.762166 0.627692 0.526777
4453 1 0.776012 0.615473 0.528195
4459 1 0.804114 0.611605 0.532511
4456 1 0.79043 0.622698 0.533081
4531 1 0.805965 0.623962 0.537181
4554 1 0.510128 0.641921 0.52872
4454 1 0.777588 0.630792 0.530667
4518 1 0.763454 0.641747 0.529615
4446 1 0.779862 0.647478 0.533616
4522 1 0.791199 0.637704 0.534916
4559 1 0.511337 0.655693 0.533473
4490 1 0.52382 0.652517 0.529054
4560 1 0.5381 0.662789 0.529747
4624 1 0.523514 0.669444 0.533508
4625 1 0.55273 0.653272 0.526784
4631 1 0.553568 0.668825 0.530805
4566 1 0.567585 0.663989 0.527353
4562 1 0.581066 0.669436 0.527871
4637 1 0.594292 0.663752 0.525857
4428 1 0.623911 0.661972 0.526224
4497 1 0.610005 0.672444 0.527472
4643 1 0.639469 0.671468 0.525836
4571 1 0.655026 0.664255 0.525382
4586 1 0.738412 0.665779 0.528657
4515 1 0.724352 0.671477 0.527075
4448 1 0.747293 0.653684 0.527103
4657 1 0.752722 0.665606 0.532095
4597 1 0.765432 0.658156 0.534148
4587 1 0.764406 0.673009 0.536532
4768 1 0.539584 0.67471 0.534964
4697 1 0.54 0.691277 0.536043
4629 1 0.555626 0.682995 0.534155
4627 1 0.569099 0.678786 0.532189
4699 1 0.582242 0.686374 0.532139
4632 1 0.594548 0.678158 0.528893
4630 1 0.608501 0.689523 0.530002
4634 1 0.622988 0.679062 0.528151
4640 1 0.625616 0.693408 0.528941
4647 1 0.638718 0.68741 0.526946
4509 1 0.665337 0.67553 0.527169
4572 1 0.652242 0.678973 0.527264
4644 1 0.686266 0.69032 0.525121
4510 1 0.710115 0.684139 0.527128
4574 1 0.725795 0.685642 0.528147
4513 1 0.742134 0.680047 0.53205
4582 1 0.746726 0.694891 0.532933
4517 1 0.754041 0.682557 0.536162
4626 1 0.557419 0.702406 0.536504
4628 1 0.570277 0.696459 0.534692
4701 1 0.584471 0.703712 0.533416
4703 1 0.5662 0.712179 0.536014
4498 1 0.595521 0.695772 0.531616
4708 1 0.598706 0.712683 0.5327
4569 1 0.615503 0.706309 0.531276
4580 1 0.633748 0.705674 0.52906
4638 1 0.6469 0.712976 0.528493
4579 1 0.651815 0.70029 0.527482
4646 1 0.666445 0.695689 0.52841
4642 1 0.665346 0.711319 0.529756
4581 1 0.678153 0.702875 0.526989
4585 1 0.693407 0.708612 0.527121
4511 1 0.701735 0.696287 0.526641
4583 1 0.706821 0.709839 0.529138
4659 1 0.716381 0.700065 0.527409
4654 1 0.725113 0.710609 0.530877
4442 1 0.732688 0.696713 0.5308
4514 1 0.739644 0.71079 0.533933
4698 1 0.580108 0.719637 0.535381
4847 1 0.596178 0.731318 0.53541
4705 1 0.626884 0.718032 0.530419
4777 1 0.610864 0.720224 0.532093
4849 1 0.611661 0.73615 0.533651
4568 1 0.626116 0.735935 0.532238
4707 1 0.637026 0.723968 0.530663
4636 1 0.65321 0.725852 0.528921
4717 1 0.669564 0.731063 0.528677
4779 1 0.680067 0.717863 0.528926
4576 1 0.683914 0.733241 0.529382
4651 1 0.697809 0.722329 0.529642
4512 1 0.715187 0.721449 0.530934
4786 1 0.698365 0.737079 0.531961
4653 1 0.715923 0.73776 0.532299
4723 1 0.729462 0.726592 0.533082
4700 1 0.591221 0.750357 0.53678
4704 1 0.602657 0.746419 0.535355
4709 1 0.617986 0.751051 0.533451
4712 1 0.632406 0.749467 0.532205
4711 1 0.643441 0.739379 0.528865
4784 1 0.650511 0.750872 0.530383
4710 1 0.660144 0.741327 0.529009
4648 1 0.664316 0.759741 0.531857
4649 1 0.672853 0.745329 0.530584
4715 1 0.690559 0.74842 0.532358
4718 1 0.679992 0.759556 0.532902
4857 1 0.704778 0.751981 0.533699
4789 1 0.730218 0.740758 0.535969
4584 1 0.719934 0.751539 0.533303
4706 1 0.581189 0.777692 0.536114
4782 1 0.606053 0.76256 0.532759
4775 1 0.58983 0.765149 0.534651
4778 1 0.595039 0.782213 0.53342
4845 1 0.609501 0.779539 0.534141
4781 1 0.622659 0.766108 0.532639
4851 1 0.627589 0.780242 0.533296
4780 1 0.636502 0.765696 0.531608
4650 1 0.646593 0.781303 0.531171
4714 1 0.653166 0.766586 0.531025
4716 1 0.670138 0.770722 0.532542
4652 1 0.685551 0.77581 0.532624
4720 1 0.694558 0.764684 0.533362
4721 1 0.711637 0.765707 0.532754
4858 1 0.701529 0.777798 0.534471
4855 1 0.71884 0.782329 0.535688
4978 1 0.559866 0.80288 0.537284
4774 1 0.585506 0.793135 0.534499
4913 1 0.568828 0.791121 0.536708
4842 1 0.603682 0.794223 0.533923
4846 1 0.619104 0.795324 0.532581
4713 1 0.636739 0.792803 0.531121
4783 1 0.651662 0.796563 0.530516
4852 1 0.659164 0.783721 0.531352
4853 1 0.66705 0.800401 0.529408
4787 1 0.676254 0.785662 0.53052
4719 1 0.692545 0.790403 0.533064
4923 1 0.683289 0.801935 0.528662
4785 1 0.707335 0.79425 0.534231
4995 1 0.698131 0.803518 0.530044
4788 1 0.723935 0.797476 0.536819
4985 1 0.582988 0.82052 0.53283
4843 1 0.578037 0.805999 0.536275
4981 1 0.565521 0.819088 0.533564
4986 1 0.592583 0.806323 0.534761
4914 1 0.598069 0.820775 0.529779
4844 1 0.609119 0.807496 0.531454
4920 1 0.62428 0.808394 0.529713
4848 1 0.612824 0.820095 0.528216
4917 1 0.62802 0.820208 0.526726
4919 1 0.638428 0.807809 0.528119
4926 1 0.657292 0.811454 0.52554
4854 1 0.673761 0.811546 0.525647
4993 1 0.690347 0.815852 0.525262
4925 1 0.714329 0.809095 0.53336
4928 1 0.704961 0.820095 0.529564
4927 1 0.719997 0.825516 0.53281
5111 1 0.531727 0.847758 0.53448
5113 1 0.542034 0.834399 0.536227
4912 1 0.557876 0.836973 0.533258
5050 1 0.549265 0.846865 0.531962
4979 1 0.572797 0.836022 0.532741
4984 1 0.566252 0.846349 0.529332
5051 1 0.580525 0.84632 0.526249
4982 1 0.588992 0.835579 0.530311
4915 1 0.606254 0.834548 0.526831
4916 1 0.619786 0.833975 0.525364
4997 1 0.710884 0.835024 0.527968
4999 1 0.735667 0.832669 0.535396
4998 1 0.724506 0.841567 0.530074
5075 1 0.744589 0.845136 0.534118
5001 1 0.750333 0.833073 0.536479
2378 1 0.505952 0.857526 0.536768
5042 1 0.521898 0.861548 0.532258
5046 1 0.538257 0.859674 0.529654
4980 1 0.55534 0.856874 0.527316
5055 1 0.570291 0.859372 0.525278
5069 1 0.717037 0.849736 0.525538
5139 1 0.734379 0.85206 0.528909
5068 1 0.758828 0.849882 0.536062
5077 1 0.750896 0.859178 0.529961
5072 1 0.740507 0.867308 0.52607
5145 1 0.762743 0.863358 0.533745
5143 1 0.778817 0.866505 0.535792
5219 1 0.794506 0.869019 0.537144
2377 1 0.511241 0.872042 0.52811
5183 1 0.527697 0.870381 0.526471
5004 1 0.755461 0.873499 0.528563
5217 1 0.772678 0.875238 0.529616
5288 1 0.775462 0.891005 0.526137
5144 1 0.787935 0.879848 0.531747
5008 1 0.804762 0.885852 0.532887
5149 1 0.820889 0.890322 0.534155
5146 1 0.793848 0.893686 0.529231
5287 1 0.812224 0.911379 0.52891
5216 1 0.809485 0.898315 0.530438
5433 1 0.82481 0.902787 0.530228
5364 1 0.84088 0.907672 0.531268
5081 1 0.837017 0.896248 0.536964
5366 1 0.829858 0.915997 0.527544
5505 1 0.848756 0.920771 0.529028
5506 1 0.857865 0.913262 0.534521
5293 1 0.860705 0.929843 0.531111
5437 1 0.871819 0.920262 0.53553
5436 1 0.848271 0.935974 0.526066
5504 1 0.864764 0.943794 0.526222
5438 1 0.875038 0.93635 0.533559
5508 1 0.880921 0.949206 0.531285
2853 1 0.896044 0.954435 0.534028
5583 1 0.885968 0.96218 0.528126
5589 1 0.902158 0.967268 0.530313
5588 1 0.908511 0.960896 0.535625
5584 1 0.915019 0.97188 0.532538
5595 1 0.931958 0.97744 0.533091
5590 1 0.921494 0.983828 0.526949
2852 1 0.935641 0.98991 0.527015
2923 1 0.94174 0.984776 0.535405
2921 1 0.950216 0.998702 0.529405
1541 1 0.961112 0.520391 0.538645
1474 1 0.999866 0.521022 0.543578
1542 1 0.98578 0.516763 0.54085
4478 1 0.931974 0.540135 0.538874
4409 1 0.945247 0.530649 0.538505
1681 1 0.943028 0.541841 0.545623
4406 1 0.9576 0.532313 0.544057
4480 1 0.972098 0.523176 0.544106
1611 1 0.984703 0.527815 0.548051
4546 1 0.889616 0.560638 0.543368
4545 1 0.906148 0.554239 0.543259
4405 1 0.918809 0.546273 0.54045
4475 1 0.917965 0.556574 0.548769
4473 1 0.933663 0.552439 0.544967
4465 1 0.85192 0.579175 0.54081
4470 1 0.866454 0.566838 0.539539
4466 1 0.863971 0.580202 0.546205
4469 1 0.877094 0.571319 0.544326
4476 1 0.902197 0.567755 0.5468
4388 1 0.827937 0.603154 0.539024
4464 1 0.840324 0.59029 0.539834
4460 1 0.839 0.605185 0.544285
4394 1 0.852856 0.594118 0.54601
4390 1 0.819737 0.614206 0.537592
4529 1 0.81942 0.62989 0.543
4461 1 0.829722 0.617377 0.544133
4520 1 0.792771 0.652038 0.540569
4524 1 0.805259 0.640062 0.540838
4523 1 0.817991 0.644912 0.546791
4695 1 0.500119 0.660839 0.539575
4694 1 0.513467 0.672997 0.538546
4589 1 0.779004 0.663312 0.5397
4525 1 0.793332 0.667391 0.544412
4593 1 0.80701 0.655195 0.545794
4600 1 0.806479 0.671088 0.549414
4766 1 0.509307 0.682907 0.544413
4561 1 0.524125 0.684142 0.53842
4592 1 0.76385 0.691318 0.541147
4596 1 0.77669 0.677137 0.542867
4590 1 0.776791 0.693436 0.545407
4598 1 0.793526 0.68258 0.546577
4835 1 0.515365 0.699804 0.542021
4762 1 0.504559 0.69709 0.549802
4833 1 0.512535 0.70809 0.547824
1890 1 0.530476 0.701797 0.539383
4832 1 0.52603 0.711848 0.543687
4769 1 0.542872 0.707675 0.539414
4588 1 0.754538 0.70221 0.537622
4793 1 0.756202 0.71667 0.540083
4727 1 0.767497 0.707624 0.542356
4790 1 0.781163 0.709912 0.548163
4905 1 0.523573 0.725709 0.547321
4839 1 0.538541 0.723524 0.541042
4834 1 0.554509 0.721029 0.539375
4702 1 0.548007 0.735141 0.542056
4776 1 0.583715 0.734911 0.539222
4771 1 0.565527 0.729725 0.537592
4656 1 0.744522 0.728276 0.537786
4725 1 0.756604 0.731782 0.542062
4655 1 0.770455 0.722799 0.544674
4861 1 0.771009 0.736859 0.544862
4794 1 0.782687 0.721914 0.548874
4868 1 0.78322 0.737322 0.549548
4902 1 0.520181 0.740581 0.548244
2169 1 0.518726 0.758493 0.549829
4837 1 0.533427 0.739773 0.543878
4836 1 0.529267 0.754876 0.545897
4770 1 0.560382 0.744452 0.538821
4773 1 0.546376 0.754686 0.541584
4841 1 0.562306 0.756701 0.537608
4911 1 0.577493 0.745978 0.53799
4840 1 0.57561 0.76065 0.537701
4860 1 0.734171 0.753862 0.538694
4724 1 0.746933 0.742449 0.540554
4722 1 0.758587 0.750403 0.542862
4932 1 0.747457 0.757408 0.541759
4863 1 0.774156 0.752792 0.547627
4976 1 0.523828 0.771185 0.548465
4910 1 0.535897 0.770067 0.544966
4907 1 0.544452 0.782267 0.542164
4906 1 0.551996 0.76927 0.540561
4772 1 0.565263 0.77518 0.537936
4931 1 0.723204 0.766585 0.537602
5005 1 0.736091 0.771229 0.539694
4939 1 0.748517 0.774087 0.544463
4930 1 0.762323 0.765711 0.546104
4936 1 0.763641 0.780983 0.547703
5011 1 0.778902 0.776954 0.548543
4908 1 0.519706 0.79216 0.546842
4904 1 0.531877 0.78433 0.545919
4909 1 0.535332 0.79616 0.542929
4838 1 0.558389 0.784925 0.538819
5047 1 0.550625 0.795522 0.540836
4862 1 0.735129 0.784936 0.539357
4859 1 0.737577 0.802409 0.5387
4792 1 0.74795 0.790016 0.543174
5009 1 0.764897 0.793245 0.545288
2380 1 0.504953 0.821875 0.547787
5043 1 0.512541 0.807156 0.545333
2449 1 0.520404 0.822668 0.543843
5045 1 0.534933 0.821461 0.541349
4977 1 0.526993 0.808357 0.543305
4983 1 0.550962 0.822332 0.537668
5049 1 0.544389 0.810118 0.539738
4856 1 0.728269 0.81345 0.538015
5000 1 0.745708 0.816108 0.539264
4929 1 0.754664 0.8058 0.540973
5003 1 0.759379 0.820904 0.542279
5007 1 0.775071 0.823978 0.544404
4937 1 0.770198 0.808517 0.545122
4866 1 0.783553 0.811732 0.549499
2447 1 0.513505 0.847269 0.537635
2379 1 0.510652 0.833233 0.542671
5185 1 0.525393 0.835986 0.539646
5073 1 0.764945 0.836873 0.540188
5074 1 0.779058 0.842537 0.543908
5083 1 0.789096 0.830946 0.54679
5080 1 0.79644 0.845906 0.5458
5082 1 0.804381 0.835005 0.549618
5078 1 0.817232 0.837911 0.548949
5153 1 0.826659 0.82716 0.549197
4934 1 0.772397 0.853292 0.537551
5002 1 0.787926 0.8533 0.5405
5148 1 0.811474 0.848819 0.546761
5010 1 0.805108 0.85842 0.54241
5221 1 0.823492 0.865992 0.544778
5298 1 0.824685 0.852343 0.547045
5152 1 0.835742 0.858517 0.549115
5218 1 0.810941 0.873154 0.538128
5223 1 0.829825 0.879421 0.540681
5220 1 0.839344 0.872819 0.545913
5147 1 0.844579 0.884788 0.543343
5297 1 0.855743 0.878367 0.548748
5295 1 0.869478 0.884066 0.549451
5291 1 0.853054 0.898693 0.537556
5076 1 0.860983 0.89198 0.543824
5435 1 0.867613 0.904367 0.539907
5363 1 0.876211 0.899436 0.546374
5440 1 0.881578 0.912804 0.542772
5292 1 0.889948 0.900326 0.548796
5514 1 0.886678 0.926898 0.540465
5509 1 0.896789 0.916044 0.545399
5517 1 0.897178 0.933777 0.543853
5515 1 0.888677 0.942854 0.537661
5516 1 0.905112 0.947348 0.541715
5445 1 0.910688 0.940058 0.548998
5585 1 0.919749 0.95299 0.544223
5523 1 0.922519 0.967061 0.538442
5446 1 0.932985 0.96181 0.545385
5522 1 0.937872 0.973471 0.540778
5520 1 0.948693 0.966436 0.547879
2856 1 0.949618 0.976967 0.542709
2920 1 0.954968 0.990139 0.538287
2855 1 0.964921 0.981132 0.546187
2858 1 0.971997 0.992868 0.541271
2932 1 0.978893 0.989279 0.548219
2859 1 0.995413 0.993393 0.549317
4408 1 0.972823 0.535073 0.550183
4477 1 0.959447 0.542843 0.55176
1614 1 0.983327 0.543047 0.553535
4549 1 0.930851 0.563414 0.552203
1612 1 0.944094 0.556882 0.550749
1685 1 0.957093 0.558485 0.555313
1616 1 0.97099 0.552886 0.556234
1687 1 0.968444 0.564118 0.561233
1615 1 0.997872 0.549135 0.557395
1619 1 0.984001 0.556919 0.559223
4543 1 0.876801 0.579647 0.550676
4541 1 0.889759 0.573063 0.550443
4613 1 0.893009 0.585096 0.554437
4542 1 0.906368 0.578815 0.553306
4547 1 0.916478 0.569538 0.552375
4617 1 0.927598 0.572714 0.558642
4544 1 0.914888 0.583653 0.558549
1682 1 0.945258 0.568019 0.556937
1686 1 0.957261 0.572726 0.561241
4535 1 0.868231 0.593716 0.550758
4536 1 0.878304 0.603728 0.557947
4540 1 0.880291 0.590885 0.55531
4611 1 0.89047 0.597632 0.561475
4615 1 0.902992 0.591736 0.560352
4458 1 0.830531 0.630069 0.550987
4533 1 0.838494 0.61902 0.551583
4537 1 0.851146 0.611063 0.550772
4534 1 0.863891 0.609162 0.55529
4462 1 0.855253 0.623327 0.55687
4612 1 0.870283 0.619553 0.559795
4527 1 0.828934 0.645058 0.553793
4528 1 0.8399 0.633338 0.557372
4601 1 0.840578 0.650644 0.560741
4599 1 0.816399 0.659377 0.551086
4594 1 0.81885 0.67259 0.555348
4595 1 0.832032 0.660901 0.556739
4661 1 0.802189 0.683691 0.552348
4671 1 0.817571 0.689167 0.55763
4667 1 0.831632 0.677776 0.561069
4662 1 0.831604 0.694328 0.562065
4791 1 0.792748 0.697364 0.550294
4933 1 0.794582 0.710992 0.552179
4658 1 0.806631 0.699431 0.555421
4663 1 0.819214 0.704284 0.560455
4728 1 0.806695 0.716637 0.557801
4971 1 0.51102 0.722907 0.550155
4903 1 0.506961 0.737989 0.552271
4864 1 0.792467 0.72752 0.554381
4865 1 0.805904 0.731203 0.55814
4797 1 0.820881 0.723413 0.562308
4798 1 0.820887 0.737938 0.561808
2170 1 0.507049 0.752448 0.552401
4873 1 0.7879 0.749488 0.551862
4869 1 0.798391 0.741419 0.554477
4732 1 0.80084 0.757442 0.555765
4803 1 0.811758 0.745527 0.557812
4733 1 0.826216 0.752135 0.561039
4974 1 0.515468 0.781515 0.550237
4972 1 0.508236 0.769238 0.553112
4935 1 0.786925 0.767339 0.551496
4938 1 0.801872 0.772611 0.556115
4802 1 0.812849 0.763204 0.55813
4730 1 0.818943 0.780867 0.558872
4871 1 0.832356 0.768012 0.562015
2310 1 0.506842 0.794557 0.550519
2307 1 0.502123 0.783005 0.555444
4940 1 0.780119 0.793466 0.550217
4870 1 0.795056 0.800978 0.55199
5013 1 0.790454 0.784075 0.552849
4941 1 0.804677 0.788733 0.555492
4944 1 0.821577 0.796636 0.556592
4942 1 0.834413 0.786551 0.559779
5014 1 0.836612 0.802603 0.558896
5012 1 0.79781 0.818261 0.551467
5084 1 0.808125 0.806312 0.554754
5016 1 0.811521 0.823046 0.550841
5085 1 0.822167 0.812081 0.553031
5154 1 0.837755 0.820324 0.556026
5086 1 0.851194 0.811024 0.561742
5151 1 0.852977 0.824815 0.560706
5225 1 0.8329 0.843503 0.550042
5079 1 0.843844 0.834667 0.555565
5222 1 0.858132 0.841966 0.557403
5089 1 0.869455 0.830018 0.561372
5224 1 0.873966 0.844361 0.558771
5294 1 0.84802 0.851078 0.55345
5150 1 0.85047 0.864319 0.5508
5296 1 0.861249 0.855325 0.55553
5290 1 0.876524 0.858744 0.557614
5300 1 0.890732 0.867754 0.561018
5371 1 0.887099 0.848244 0.562126
5369 1 0.866723 0.871475 0.554144
5368 1 0.880771 0.87393 0.556096
5359 1 0.882536 0.887109 0.552996
5365 1 0.894837 0.880625 0.55615
5439 1 0.910797 0.885185 0.560798
5372 1 0.905411 0.9061 0.551341
5511 1 0.901067 0.892359 0.553677
5441 1 0.914439 0.900979 0.557071
5378 1 0.92683 0.91148 0.561537
5442 1 0.907586 0.924885 0.550215
5374 1 0.920628 0.932292 0.554297
5513 1 0.917833 0.917967 0.556053
5373 1 0.930607 0.926544 0.560259
5518 1 0.926737 0.945564 0.5504
5443 1 0.933601 0.941692 0.556671
5447 1 0.940284 0.955346 0.551401
5524 1 0.950879 0.947474 0.559007
2863 1 0.964598 0.949805 0.561858
5592 1 0.954698 0.960165 0.555868
2861 1 0.961628 0.970759 0.55083
2860 1 0.973311 0.963312 0.558965
2927 1 0.974611 0.974566 0.552001
2925 1 0.983768 0.971123 0.560365
2931 1 0.98995 0.981946 0.555663
1689 1 0.999316 0.560289 0.562671
4548 1 0.941116 0.579075 0.563914
1683 1 0.954104 0.581761 0.568926
1755 1 0.971104 0.575647 0.567784
1688 1 0.993481 0.571956 0.570129
4550 1 0.982028 0.566294 0.56588
1684 1 0.982135 0.580043 0.574383
4681 1 0.898965 0.602952 0.566535
4619 1 0.927357 0.588241 0.564549
4614 1 0.913516 0.59924 0.565594
4689 1 0.927684 0.599478 0.570195
4618 1 0.941518 0.588812 0.570355
4688 1 0.965688 0.589011 0.574851
4539 1 0.883452 0.610861 0.564995
4679 1 0.878186 0.624632 0.566298
4683 1 0.88721 0.628699 0.572496
4685 1 0.912641 0.611103 0.572043
4616 1 0.893188 0.616617 0.569858
4757 1 0.9042 0.624484 0.573521
4538 1 0.851981 0.638847 0.562529
4532 1 0.863893 0.631752 0.563569
4673 1 0.866023 0.64807 0.567797
4607 1 0.87696 0.636617 0.568976
4603 1 0.878667 0.647753 0.573339
4668 1 0.841947 0.666802 0.563435
4526 1 0.852674 0.656023 0.566802
4605 1 0.864769 0.660878 0.571747
4669 1 0.853744 0.671747 0.568056
4666 1 0.842795 0.683965 0.565956
4665 1 0.864615 0.676122 0.574133
4739 1 0.855694 0.688093 0.572031
4660 1 0.840403 0.700481 0.569654
4795 1 0.831871 0.711042 0.564205
4731 1 0.844238 0.715039 0.570159
4726 1 0.854802 0.705655 0.574122
4796 1 0.832138 0.727481 0.565181
4738 1 0.844073 0.729889 0.571223
4672 1 0.855225 0.73491 0.574356
4799 1 0.856343 0.718526 0.574914
4805 1 0.841794 0.75866 0.565852
4729 1 0.834909 0.742642 0.565791
4867 1 0.848573 0.746219 0.5684
4801 1 0.85839 0.754848 0.570215
5087 1 0.845686 0.778955 0.564558
4804 1 0.854466 0.767572 0.567562
4734 1 0.867601 0.777261 0.572134
4876 1 0.869461 0.762662 0.572976
5018 1 0.846173 0.794806 0.564366
4800 1 0.857334 0.784277 0.567535
5017 1 0.858725 0.80012 0.56611
5088 1 0.869569 0.791852 0.570383
5019 1 0.887019 0.795304 0.574021
5015 1 0.878981 0.783014 0.573135
5157 1 0.867001 0.815221 0.565188
5231 1 0.876422 0.80463 0.568425
5227 1 0.88098 0.822228 0.566554
5156 1 0.88855 0.810565 0.571207
5155 1 0.884975 0.834942 0.564479
5301 1 0.892439 0.826275 0.569813
5226 1 0.896531 0.839544 0.568036
5229 1 0.905565 0.83337 0.572452
5303 1 0.911592 0.847966 0.570313
5367 1 0.899696 0.856967 0.565321
5304 1 0.916679 0.865916 0.568645
5380 1 0.930022 0.868398 0.571776
5306 1 0.92675 0.853189 0.574523
5370 1 0.905371 0.872434 0.563269
5375 1 0.919196 0.880436 0.567196
5305 1 0.932805 0.884053 0.571943
5444 1 0.924804 0.8951 0.562726
5377 1 0.936551 0.902191 0.568471
5376 1 0.951248 0.907891 0.571693
5308 1 0.944644 0.894134 0.573995
5519 1 0.944867 0.932887 0.563276
5521 1 0.940326 0.916798 0.565247
5453 1 0.954718 0.921283 0.568187
5452 1 0.966338 0.928516 0.572772
5448 1 0.964188 0.914693 0.574549
5587 1 0.95925 0.937012 0.56581
5525 1 0.973203 0.941797 0.569379
5594 1 0.98666 0.949933 0.573013
2864 1 0.978074 0.958262 0.566958
2862 1 0.99907 0.97601 0.562972
2929 1 0.991104 0.963053 0.567669
1751 1 0.99619 0.582785 0.576972
1821 1 0.952313 0.594227 0.575593
1892 1 0.938771 0.600644 0.575981
4690 1 0.951702 0.60624 0.581423
1752 1 0.971444 0.599483 0.579743
1894 1 0.984633 0.603381 0.584611
4620 1 0.985502 0.592043 0.578123
1754 1 0.997055 0.594088 0.582533
4755 1 0.926628 0.612962 0.575576
4827 1 0.91362 0.624407 0.578939
4759 1 0.928713 0.62436 0.582831
4687 1 0.938882 0.612582 0.581114
1822 1 0.95154 0.618697 0.587065
4829 1 0.967928 0.610403 0.585932
4609 1 0.889761 0.641197 0.576145
4610 1 0.901514 0.635052 0.578218
4608 1 0.900707 0.648329 0.584196
4753 1 0.914183 0.63935 0.583873
4750 1 0.927672 0.63495 0.587011
4604 1 0.87573 0.665774 0.578062
4670 1 0.889431 0.654367 0.580446
4674 1 0.889973 0.667901 0.584865
4602 1 0.866118 0.691272 0.577329
4678 1 0.874381 0.678555 0.58141
4530 1 0.874224 0.694026 0.583499
4675 1 0.888604 0.685916 0.585542
4676 1 0.867206 0.710121 0.578951
4606 1 0.882929 0.709118 0.58345
4745 1 0.868581 0.726974 0.579775
4748 1 0.881218 0.726974 0.582325
4735 1 0.893336 0.736312 0.587098
4664 1 0.86834 0.743718 0.576406
4742 1 0.879078 0.741483 0.582684
4737 1 0.879576 0.756027 0.579477
4815 1 0.893112 0.752473 0.584766
4877 1 0.906896 0.757467 0.585496
4736 1 0.881037 0.770285 0.578514
4811 1 0.896664 0.76764 0.580841
4874 1 0.909354 0.774918 0.583157
4875 1 0.893708 0.782166 0.579861
4872 1 0.919379 0.764746 0.585777
4946 1 0.904755 0.790243 0.582262
4943 1 0.899197 0.800414 0.576328
4948 1 0.915942 0.795862 0.582023
5020 1 0.927102 0.800061 0.586274
5230 1 0.903064 0.815717 0.575249
5228 1 0.912961 0.808261 0.580864
5299 1 0.916396 0.824933 0.57948
5162 1 0.925555 0.815903 0.584706
5233 1 0.919752 0.838143 0.577154
5091 1 0.927474 0.830937 0.58393
5307 1 0.931777 0.846564 0.581938
5309 1 0.938219 0.862048 0.578369
5302 1 0.945609 0.852191 0.585853
5232 1 0.949946 0.868296 0.583758
5169 1 0.941753 0.877506 0.57746
5168 1 0.9533 0.883155 0.580271
5451 1 0.965368 0.890364 0.585334
5449 1 0.958617 0.900199 0.578173
5450 1 0.972546 0.903824 0.579863
5238 1 0.98315 0.899054 0.587427
5454 1 0.975746 0.92181 0.578739
5455 1 0.999981 0.920134 0.587215
5383 1 0.986157 0.913279 0.585545
5457 1 0.989478 0.928538 0.581853
5593 1 0.978987 0.935056 0.575344
5526 1 0.993858 0.940942 0.577412
1966 1 0.996359 0.605185 0.589808
4760 1 0.939982 0.623272 0.588319
1964 1 0.968787 0.619946 0.59206
4899 1 0.980287 0.626878 0.596546
1961 1 0.981738 0.612783 0.59028
1893 1 0.992892 0.61732 0.59514
4754 1 0.92667 0.646684 0.590525
1891 1 0.954112 0.63058 0.591842
4758 1 0.939858 0.636538 0.591911
4751 1 0.953983 0.643329 0.597144
1963 1 0.940685 0.648803 0.594557
2035 1 0.968406 0.634985 0.597721
2037 1 0.994247 0.634805 0.59885
4686 1 0.900428 0.662558 0.589715
4684 1 0.91233 0.670148 0.592173
4682 1 0.913449 0.652253 0.589788
4819 1 0.926489 0.661093 0.59271
4823 1 0.940248 0.665218 0.597981
4756 1 0.953246 0.657901 0.598927
4677 1 0.901448 0.680003 0.58901
4818 1 0.902477 0.693399 0.590311
4680 1 0.915968 0.684758 0.594456
4749 1 0.927904 0.674501 0.595635
4883 1 0.928554 0.693611 0.597948
4741 1 0.890834 0.702124 0.588255
4817 1 0.902549 0.7089 0.590422
4814 1 0.912023 0.697758 0.594257
4747 1 0.915223 0.716044 0.594607
4744 1 0.923858 0.707168 0.598371
4812 1 0.889399 0.719635 0.587526
4810 1 0.902213 0.726181 0.591784
4743 1 0.912947 0.732454 0.594356
4807 1 0.926278 0.721893 0.597626
4816 1 0.904974 0.741357 0.590396
4740 1 0.916877 0.753079 0.589749
4880 1 0.930625 0.754394 0.593509
4889 1 0.924021 0.73948 0.596407
4945 1 0.933134 0.773611 0.591575
5159 1 0.945289 0.78024 0.596857
5021 1 0.94332 0.763536 0.597549
5160 1 0.922133 0.785002 0.587808
4950 1 0.935671 0.789689 0.592918
5090 1 0.947195 0.797305 0.598728
5158 1 0.936288 0.806447 0.59167
5165 1 0.936631 0.822801 0.591017
5235 1 0.946476 0.814586 0.597497
5166 1 0.940966 0.839142 0.589424
5161 1 0.94961 0.83168 0.595623
5094 1 0.953168 0.844168 0.59278
4954 1 0.964891 0.838784 0.598727
5092 1 0.957663 0.859199 0.591431
5096 1 0.970491 0.853451 0.597541
5167 1 0.971363 0.868358 0.595028
5234 1 0.962779 0.875544 0.587759
5240 1 0.976857 0.884403 0.591998
5237 1 0.983726 0.875569 0.597812
5382 1 0.990304 0.891972 0.595001
5312 1 0.996004 0.905479 0.591741
4830 1 0.966823 0.650889 0.602297
4828 1 0.979429 0.641414 0.601886
4897 1 0.995207 0.644131 0.604326
4893 1 0.953865 0.670245 0.602057
1962 1 0.968728 0.663507 0.60453
2041 1 0.996025 0.668278 0.608335
4821 1 0.98409 0.656736 0.60519
2034 1 0.99943 0.654752 0.608979
2033 1 0.97841 0.672155 0.607796
4752 1 0.940651 0.682549 0.600842
4887 1 0.95137 0.687846 0.605112
4820 1 0.963902 0.679667 0.606043
4957 1 0.976808 0.685701 0.609954
4890 1 0.96614 0.695245 0.607107
4895 1 0.991554 0.681207 0.610965
4891 1 0.938115 0.698296 0.602862
4888 1 0.950273 0.705681 0.605109
4746 1 0.938662 0.715149 0.602406
4894 1 0.962375 0.712179 0.608087
5033 1 0.976288 0.703316 0.609839
4813 1 0.938095 0.729521 0.600369
4809 1 0.948972 0.722068 0.605431
4881 1 0.951616 0.736942 0.603566
4959 1 0.966023 0.725564 0.606556
4885 1 0.977203 0.736448 0.610412
4884 1 0.976544 0.719731 0.610308
4878 1 0.939422 0.746976 0.600103
4952 1 0.953352 0.753405 0.603534
4806 1 0.96459 0.744228 0.606272
4961 1 0.968303 0.760397 0.607026
4956 1 0.980891 0.749762 0.610121
4808 1 0.955749 0.769626 0.603804
4879 1 0.97034 0.775984 0.606311
5163 1 0.982 0.765246 0.611127
4949 1 0.957281 0.786961 0.603217
5026 1 0.970213 0.795217 0.608012
4882 1 0.982492 0.784019 0.611887
5164 1 0.958611 0.823769 0.602346
4953 1 0.957868 0.80538 0.603885
5023 1 0.969524 0.813936 0.607464
5022 1 0.98224 0.821074 0.611699
4947 1 0.973686 0.832245 0.605738
5093 1 0.977233 0.845831 0.602326
5024 1 0.987419 0.835262 0.608005
5170 1 0.984208 0.862413 0.601313
5175 1 0.992529 0.848939 0.60676
5241 1 0.996691 0.866875 0.606466
5246 1 0.998588 0.883101 0.601995
4962 1 0.989261 0.71097 0.613239
4896 1 0.990541 0.696451 0.612603
4886 1 0.989955 0.726226 0.613497
4955 1 0.99425 0.741523 0.613773
5027 1 0.992483 0.756564 0.616703
5032 1 0.99256 0.772278 0.614635
4951 1 0.981207 0.804226 0.612585
5025 1 0.993185 0.795805 0.617367
5028 1 0.99212 0.809264 0.616023
4958 1 0.994601 0.825502 0.614982
ITEM: TIMESTEP
400000
ITEM: NUMBER OF ATOMS
5600
ITEM: BOX BOUNDS pp pp pp
-3.3284999999999989e+01 3.3284999999999989e+01
-3.2943606359959993e+01 3.2943606359959993e+01
-5.7059999999999988e+01 5.7059999999999988e+01
ITEM: ATOMS id type xs ys zs
766 1 0.390343 0.236457 0.374312
696 1 0.408097 0.237035 0.370832
763 1 0.402262 0.224826 0.375788
695 1 0.420951 0.226231 0.374775
698 1 0.434006 0.2335 0.372065
629 1 0.45275 0.233075 0.371799
627 1 0.447576 0.220244 0.373946
3361 1 0.46394 0.224898 0.372264
770 1 0.469772 0.237965 0.369113
3503 1 0.498019 0.231323 0.373708
3432 1 0.481025 0.22744 0.372755
764 1 0.382992 0.251089 0.374502
836 1 0.39952 0.249384 0.370121
838 1 0.411875 0.253844 0.3672
697 1 0.423346 0.242421 0.370459
767 1 0.429415 0.256774 0.366474
694 1 0.439626 0.245987 0.36846
3571 1 0.445512 0.25823 0.36589
699 1 0.455741 0.247388 0.368184
3574 1 0.474041 0.251041 0.36734
3434 1 0.487227 0.240496 0.370711
3502 1 0.488531 0.256987 0.370914
758 1 0.36524 0.27669 0.37355
762 1 0.374886 0.26557 0.374009
833 1 0.388282 0.264689 0.370837
830 1 0.381336 0.282226 0.370041
834 1 0.393113 0.279021 0.368313
760 1 0.40207 0.267252 0.367348
837 1 0.408162 0.280533 0.365267
3643 1 0.42736 0.27709 0.367266
839 1 0.415064 0.268565 0.365574
768 1 0.437588 0.270344 0.367894
3573 1 0.451134 0.27484 0.367619
3507 1 0.462511 0.260885 0.36637
3436 1 0.479392 0.268177 0.368131
3504 1 0.467426 0.274894 0.367312
3575 1 0.490687 0.273852 0.371049
829 1 0.355008 0.292284 0.375365
975 1 0.369983 0.295265 0.371764
907 1 0.383524 0.295747 0.368218
3641 1 0.398897 0.29171 0.367951
903 1 0.408195 0.304641 0.36693
906 1 0.419731 0.292713 0.367058
3645 1 0.436895 0.289377 0.367627
3644 1 0.453339 0.288298 0.366997
3715 1 0.440778 0.30138 0.368788
3717 1 0.467912 0.292113 0.367704
3646 1 0.483307 0.286674 0.368702
909 1 0.496341 0.294696 0.371181
840 1 0.482508 0.302647 0.368566
831 1 0.356875 0.309289 0.374938
823 1 0.367482 0.322707 0.370857
755 1 0.37615 0.310398 0.369963
905 1 0.384052 0.327399 0.368027
828 1 0.391309 0.308634 0.369162
904 1 0.397331 0.319994 0.366348
835 1 0.412595 0.319016 0.365566
908 1 0.425346 0.308125 0.367118
3713 1 0.440834 0.315324 0.367607
3647 1 0.454404 0.303384 0.367791
3714 1 0.454439 0.323189 0.367634
3721 1 0.469255 0.309642 0.36817
3650 1 0.482203 0.317615 0.369452
3722 1 0.492581 0.32633 0.372438
686 1 0.358452 0.326853 0.375158
972 1 0.362829 0.339156 0.37523
832 1 0.373469 0.334138 0.370518
902 1 0.383931 0.344079 0.371873
1047 1 0.409224 0.331656 0.369694
973 1 0.395263 0.338266 0.369718
1044 1 0.409159 0.346379 0.370019
3642 1 0.42598 0.32572 0.366512
976 1 0.425071 0.342738 0.368793
977 1 0.440872 0.332649 0.368804
3719 1 0.453669 0.340281 0.36894
3648 1 0.470611 0.327764 0.367811
979 1 0.468682 0.345827 0.370754
3712 1 0.48108 0.336192 0.371987
895 1 0.372627 0.348939 0.376079
970 1 0.396649 0.351981 0.373352
974 1 0.426113 0.358972 0.372262
3711 1 0.437481 0.348023 0.369958
1046 1 0.440779 0.364785 0.374642
910 1 0.455341 0.354657 0.372878
3851 1 0.471525 0.360627 0.373706
619 1 0.422529 0.189568 0.387679
628 1 0.438959 0.191826 0.384202
3229 1 0.469662 0.185406 0.386665
3298 1 0.483012 0.188845 0.387085
3225 1 0.497692 0.191843 0.383909
538 1 0.326823 0.217957 0.386982
685 1 0.370593 0.206728 0.386585
623 1 0.385038 0.211447 0.383894
625 1 0.3986 0.211271 0.381284
616 1 0.395614 0.1971 0.386389
621 1 0.412679 0.20019 0.383013
3501 1 0.427843 0.202162 0.380848
691 1 0.415623 0.212136 0.379097
550 1 0.445208 0.206882 0.37912
626 1 0.454494 0.19463 0.383139
3291 1 0.470466 0.200268 0.380369
3292 1 0.460062 0.209027 0.378181
700 1 0.477084 0.21358 0.377584
3294 1 0.486758 0.201355 0.380573
3362 1 0.492454 0.216585 0.375708
536 1 0.314797 0.228674 0.387205
540 1 0.331654 0.232457 0.385677
681 1 0.34438 0.230177 0.383769
684 1 0.357889 0.218128 0.384488
759 1 0.360884 0.232204 0.382004
618 1 0.37229 0.221488 0.38144
622 1 0.375797 0.237136 0.378636
765 1 0.387957 0.224967 0.378726
769 1 0.432459 0.217445 0.376687
678 1 0.302962 0.240275 0.387022
613 1 0.318783 0.247187 0.383941
606 1 0.309629 0.260166 0.383021
692 1 0.335945 0.248128 0.383747
671 1 0.327473 0.260904 0.381678
677 1 0.343723 0.262492 0.3813
761 1 0.367954 0.251419 0.378478
690 1 0.353577 0.246933 0.382476
752 1 0.302576 0.273978 0.383037
680 1 0.293398 0.266949 0.387413
669 1 0.318391 0.274275 0.381228
608 1 0.333252 0.274631 0.380485
821 1 0.359951 0.265829 0.378134
753 1 0.350136 0.2776 0.37694
672 1 0.296365 0.28501 0.384313
883 1 0.289975 0.298276 0.386059
817 1 0.304884 0.303266 0.38247
744 1 0.325143 0.288584 0.380078
754 1 0.319078 0.300168 0.378524
748 1 0.310763 0.290034 0.38137
679 1 0.332104 0.302049 0.378846
687 1 0.339597 0.290597 0.37776
822 1 0.296653 0.311299 0.385921
820 1 0.3172 0.313976 0.38017
826 1 0.305083 0.321589 0.383738
610 1 0.344692 0.305706 0.377366
825 1 0.345619 0.319773 0.379471
757 1 0.329788 0.315737 0.377529
607 1 0.318687 0.328115 0.379933
819 1 0.306701 0.335839 0.386784
824 1 0.315449 0.346411 0.387235
749 1 0.333527 0.33194 0.37969
1027 1 0.329185 0.344979 0.382359
901 1 0.346548 0.339366 0.378569
3789 1 0.49587 0.339979 0.375362
816 1 0.343723 0.355822 0.381502
892 1 0.327794 0.356918 0.388508
961 1 0.337801 0.368524 0.388224
897 1 0.358521 0.353453 0.378471
899 1 0.354108 0.366986 0.383679
896 1 0.369713 0.364188 0.380049
1045 1 0.383796 0.359318 0.376076
971 1 0.411029 0.360279 0.375054
1040 1 0.394522 0.365562 0.379385
1048 1 0.456175 0.366237 0.377756
3783 1 0.483738 0.351058 0.374746
3781 1 0.485575 0.366993 0.380232
3718 1 0.496569 0.355768 0.378553
963 1 0.366941 0.377341 0.383196
900 1 0.380409 0.374576 0.381183
967 1 0.380588 0.388517 0.385358
1043 1 0.409638 0.372916 0.380933
827 1 0.395111 0.382381 0.384107
1037 1 0.409446 0.390033 0.386439
1115 1 0.425183 0.371047 0.378272
1041 1 0.423219 0.381342 0.38441
1187 1 0.436912 0.389061 0.385886
1117 1 0.440819 0.374641 0.380981
978 1 0.451842 0.380476 0.383016
1049 1 0.468413 0.374754 0.380508
980 1 0.46652 0.385641 0.387612
3782 1 0.497782 0.371194 0.383086
3784 1 0.482181 0.379218 0.385172
545 1 0.387764 0.170435 0.399494
549 1 0.405357 0.17397 0.395568
554 1 0.416525 0.163771 0.398732
488 1 0.429256 0.169239 0.396887
624 1 0.447127 0.169404 0.394817
560 1 0.474837 0.161417 0.395957
558 1 0.462146 0.171667 0.39255
557 1 0.457819 0.160288 0.398636
555 1 0.4898 0.16389 0.394977
532 1 0.296452 0.192708 0.400471
544 1 0.321559 0.183781 0.398124
470 1 0.333163 0.189916 0.393381
693 1 0.343075 0.17898 0.39768
609 1 0.349347 0.192377 0.392923
751 1 0.360784 0.179029 0.396438
689 1 0.365268 0.192842 0.389942
612 1 0.375297 0.182015 0.394559
615 1 0.380389 0.196475 0.390013
683 1 0.391084 0.183258 0.392259
474 1 0.40849 0.187789 0.388837
617 1 0.418323 0.175485 0.393041
556 1 0.437004 0.182236 0.390206
552 1 0.452089 0.182237 0.389544
3295 1 0.477735 0.173979 0.391917
3223 1 0.494136 0.178394 0.390283
603 1 0.283783 0.203873 0.397666
602 1 0.29864 0.208535 0.394557
593 1 0.30943 0.194589 0.396564
531 1 0.319766 0.200357 0.391985
605 1 0.310083 0.214131 0.389991
688 1 0.342964 0.21774 0.386755
682 1 0.337458 0.203051 0.389599
466 1 0.35534 0.204368 0.389025
596 1 0.27409 0.220766 0.400041
601 1 0.275705 0.23635 0.397856
528 1 0.28521 0.22398 0.395278
604 1 0.289745 0.237513 0.392288
676 1 0.300392 0.226241 0.39153
667 1 0.255062 0.262269 0.400934
675 1 0.278891 0.248202 0.394659
665 1 0.265952 0.247575 0.398025
673 1 0.292059 0.253317 0.38995
809 1 0.258832 0.275478 0.398371
750 1 0.269016 0.26329 0.396416
746 1 0.272183 0.276124 0.392523
747 1 0.280663 0.262884 0.39182
674 1 0.283725 0.280596 0.388836
745 1 0.278577 0.292644 0.390502
808 1 0.265891 0.288596 0.395273
742 1 0.271393 0.303515 0.394203
805 1 0.267026 0.314172 0.397071
814 1 0.282995 0.311122 0.390369
818 1 0.279643 0.321622 0.393161
891 1 0.268957 0.326826 0.399606
756 1 0.293237 0.323294 0.389545
815 1 0.276901 0.337735 0.396906
893 1 0.29125 0.337134 0.391603
884 1 0.300523 0.349485 0.389803
959 1 0.298055 0.361812 0.397106
882 1 0.287558 0.351824 0.396778
885 1 0.311127 0.361213 0.391677
960 1 0.322261 0.384446 0.398655
1028 1 0.30901 0.374775 0.39738
889 1 0.323113 0.370703 0.391531
898 1 0.336522 0.383965 0.393399
894 1 0.351667 0.381066 0.388168
969 1 0.36619 0.388473 0.389046
1257 1 0.450431 0.392854 0.389435
3852 1 0.494129 0.38378 0.390932
1119 1 0.478824 0.393474 0.39181
966 1 0.335761 0.394731 0.399324
962 1 0.348451 0.396121 0.395047
1035 1 0.363679 0.400177 0.394912
965 1 0.37878 0.399409 0.390354
1038 1 0.376522 0.412085 0.397351
964 1 0.39544 0.3982 0.388244
1109 1 0.392622 0.409798 0.394837
1039 1 0.408123 0.40203 0.391064
1113 1 0.423308 0.398048 0.389738
1042 1 0.421191 0.408082 0.394418
1116 1 0.437857 0.399651 0.391839
1118 1 0.449563 0.406937 0.395369
1189 1 0.463322 0.398397 0.392824
1050 1 0.479065 0.405508 0.397199
1112 1 0.461209 0.412188 0.399372
3923 1 0.494678 0.398635 0.396202
1183 1 0.408219 0.4155 0.396575
1114 1 0.436099 0.411336 0.396976
1182 1 0.420978 0.423375 0.39991
277 1 0.478716 0.13 0.411878
3151 1 0.496007 0.127124 0.410209
546 1 0.396638 0.153182 0.409642
547 1 0.412116 0.151241 0.406792
548 1 0.420894 0.141046 0.409998
485 1 0.44995 0.137727 0.41172
487 1 0.436319 0.144374 0.405866
551 1 0.450027 0.146587 0.404295
3081 1 0.476885 0.143574 0.404881
418 1 0.464733 0.137012 0.407583
3222 1 0.486289 0.15252 0.401108
350 1 0.487085 0.137658 0.408658
3221 1 0.500523 0.140187 0.403942
524 1 0.286757 0.16694 0.412411
537 1 0.303496 0.167006 0.408436
469 1 0.312115 0.15729 0.410559
465 1 0.325935 0.161514 0.407332
460 1 0.314576 0.169994 0.403391
542 1 0.342359 0.166682 0.406267
611 1 0.328802 0.173874 0.401287
614 1 0.354541 0.172085 0.401811
539 1 0.355772 0.161266 0.41078
541 1 0.370482 0.162984 0.406944
400 1 0.384381 0.16388 0.406412
620 1 0.373105 0.171125 0.400982
543 1 0.400859 0.163309 0.402274
480 1 0.427278 0.152944 0.402664
486 1 0.442459 0.157212 0.399516
559 1 0.466699 0.151429 0.401132
589 1 0.249352 0.188316 0.412209
520 1 0.264742 0.191433 0.409227
595 1 0.282387 0.192416 0.404908
522 1 0.276899 0.180772 0.410666
529 1 0.290813 0.178891 0.40594
530 1 0.305408 0.178233 0.401294
587 1 0.208776 0.207731 0.409085
666 1 0.236646 0.199555 0.408528
661 1 0.224163 0.211278 0.408217
664 1 0.220492 0.197078 0.409984
597 1 0.240613 0.212441 0.406002
594 1 0.253441 0.202905 0.406217
591 1 0.257841 0.21714 0.402294
592 1 0.268899 0.203266 0.402493
659 1 0.214029 0.223947 0.406506
657 1 0.202485 0.23653 0.409188
870 1 0.197341 0.221093 0.409631
658 1 0.229302 0.226022 0.406107
599 1 0.259848 0.234529 0.400981
598 1 0.243334 0.227335 0.403126
734 1 0.192486 0.247612 0.4125
733 1 0.207583 0.252862 0.408469
600 1 0.216748 0.237598 0.406245
660 1 0.23477 0.2412 0.403811
662 1 0.226174 0.254704 0.4063
738 1 0.251246 0.24661 0.402684
741 1 0.239396 0.258282 0.404099
737 1 0.216092 0.267736 0.409684
730 1 0.205951 0.280024 0.411775
732 1 0.198939 0.264633 0.412646
807 1 0.231038 0.270847 0.406142
670 1 0.221911 0.282734 0.407648
743 1 0.243995 0.27363 0.40202
869 1 0.213634 0.295875 0.410067
668 1 0.238223 0.285769 0.404425
802 1 0.228173 0.293785 0.407504
877 1 0.259002 0.302858 0.399946
800 1 0.252883 0.288945 0.400633
801 1 0.242979 0.302916 0.403308
873 1 0.218964 0.309129 0.411472
740 1 0.23206 0.307649 0.408102
879 1 0.228617 0.321474 0.410649
803 1 0.243351 0.318354 0.40633
739 1 0.25588 0.314995 0.400655
875 1 0.239357 0.333581 0.409712
813 1 0.254607 0.328039 0.404271
811 1 0.249367 0.341946 0.406741
812 1 0.264582 0.339418 0.402117
1023 1 0.244547 0.350466 0.413393
952 1 0.260138 0.350312 0.407441
957 1 0.274035 0.352806 0.400845
887 1 0.270703 0.364275 0.407743
953 1 0.284496 0.366668 0.402698
890 1 0.296342 0.374885 0.401883
1025 1 0.284229 0.377498 0.408416
888 1 0.293775 0.387443 0.408611
1029 1 0.307504 0.388927 0.404248
1102 1 0.325273 0.396412 0.404605
1093 1 0.307269 0.396892 0.410444
1101 1 0.338613 0.405752 0.406124
968 1 0.351274 0.40592 0.401302
3854 1 0.49313 0.410625 0.400579
1031 1 0.363252 0.415025 0.401597
1030 1 0.349504 0.414719 0.407531
1107 1 0.361649 0.425511 0.409488
1108 1 0.375212 0.423598 0.403305
1104 1 0.391046 0.430235 0.407066
1036 1 0.375515 0.432586 0.411413
1111 1 0.392723 0.421788 0.400356
1110 1 0.405418 0.424728 0.403866
1181 1 0.419497 0.431969 0.40832
1184 1 0.432838 0.426732 0.404221
1188 1 0.446436 0.418215 0.400375
3991 1 0.446224 0.430187 0.407713
1120 1 0.477352 0.41694 0.40358
1185 1 0.458671 0.423975 0.404356
3992 1 0.474775 0.430266 0.407863
3921 1 0.492481 0.425324 0.405255
1253 1 0.404367 0.438763 0.411605
1259 1 0.434015 0.437547 0.412265
1330 1 0.458668 0.435102 0.411267
3993 1 0.489168 0.43877 0.410918
3011 1 0.469788 0.103148 0.42326
2874 1 0.498505 0.0919716 0.422329
3013 1 0.486363 0.104603 0.420852
479 1 0.415216 0.125372 0.424797
484 1 0.429435 0.126386 0.419394
416 1 0.443868 0.114515 0.422833
553 1 0.449362 0.124895 0.416888
419 1 0.462579 0.125576 0.414412
348 1 0.459875 0.112474 0.421909
279 1 0.473479 0.115265 0.416173
3082 1 0.489136 0.119119 0.415756
523 1 0.263273 0.150689 0.423177
458 1 0.276998 0.145893 0.424067
462 1 0.293123 0.145094 0.41921
396 1 0.322576 0.139438 0.42299
534 1 0.309327 0.147948 0.418217
468 1 0.323789 0.150955 0.415445
535 1 0.336076 0.143934 0.420173
397 1 0.349016 0.137114 0.424146
401 1 0.363412 0.143092 0.421535
399 1 0.350104 0.148883 0.418206
477 1 0.390534 0.133223 0.424207
472 1 0.378803 0.142488 0.420151
403 1 0.375127 0.1333 0.425165
478 1 0.392597 0.143043 0.415972
476 1 0.407457 0.140324 0.411839
475 1 0.402151 0.132889 0.419155
489 1 0.418893 0.13235 0.415631
482 1 0.434656 0.132553 0.412944
585 1 0.211874 0.169326 0.423122
580 1 0.195515 0.172432 0.422847
446 1 0.225477 0.173629 0.42018
447 1 0.237792 0.165606 0.421164
519 1 0.254152 0.162056 0.419777
521 1 0.271228 0.161422 0.416332
526 1 0.282328 0.154362 0.417954
527 1 0.297481 0.154058 0.413895
533 1 0.339301 0.156614 0.413086
398 1 0.382633 0.15321 0.413755
471 1 0.368862 0.153173 0.414945
796 1 0.147139 0.190392 0.423552
728 1 0.162728 0.18906 0.424232
584 1 0.185865 0.181213 0.422836
794 1 0.174603 0.19439 0.421498
588 1 0.187519 0.192593 0.417462
590 1 0.201705 0.181872 0.418274
516 1 0.215374 0.182284 0.415671
518 1 0.231346 0.184657 0.412897
517 1 0.243806 0.175334 0.416004
448 1 0.261433 0.175041 0.414792
722 1 0.125118 0.196999 0.423151
578 1 0.138623 0.203191 0.42336
791 1 0.151258 0.202128 0.42195
790 1 0.163499 0.205297 0.420148
792 1 0.154719 0.21574 0.420446
797 1 0.177817 0.203765 0.416975
586 1 0.192811 0.205372 0.412263
663 1 0.204812 0.196081 0.413666
723 1 0.136059 0.216697 0.422089
799 1 0.146094 0.230283 0.421962
720 1 0.13591 0.23679 0.424297
795 1 0.171735 0.219979 0.418297
729 1 0.159351 0.231544 0.419959
725 1 0.185048 0.219954 0.414456
864 1 0.174183 0.237654 0.417048
731 1 0.189489 0.234156 0.412238
935 1 0.148227 0.243883 0.42096
727 1 0.162405 0.247634 0.418949
736 1 0.181068 0.250886 0.416962
937 1 0.169568 0.260112 0.421058
1006 1 0.166862 0.275675 0.422886
868 1 0.152851 0.260756 0.423831
871 1 0.185472 0.265729 0.417533
867 1 0.190801 0.280479 0.41572
798 1 0.171455 0.292593 0.424444
936 1 0.179188 0.280845 0.421192
874 1 0.187748 0.295243 0.419036
804 1 0.178494 0.30295 0.421607
735 1 0.199075 0.293629 0.416084
876 1 0.193625 0.308964 0.419535
863 1 0.17952 0.317432 0.42189
940 1 0.1944 0.323584 0.418761
810 1 0.202678 0.30588 0.414482
944 1 0.209206 0.318404 0.415792
946 1 0.189984 0.338334 0.422475
939 1 0.179879 0.330213 0.424521
943 1 0.205317 0.335397 0.419155
806 1 0.219959 0.332749 0.413836
955 1 0.23233 0.343569 0.415871
880 1 0.217423 0.345148 0.419052
954 1 0.215749 0.36214 0.422494
951 1 0.201652 0.349332 0.422302
878 1 0.230767 0.357194 0.417494
948 1 0.255753 0.361859 0.411057
881 1 0.242062 0.36573 0.417483
956 1 0.228241 0.370742 0.423599
1016 1 0.241263 0.379981 0.424635
949 1 0.255309 0.37658 0.418311
1094 1 0.269284 0.373694 0.413442
886 1 0.26839 0.385242 0.419459
1091 1 0.28191 0.386612 0.414178
958 1 0.278225 0.396368 0.421795
1095 1 0.293379 0.394709 0.418076
1022 1 0.307929 0.404436 0.419187
1026 1 0.320912 0.404375 0.412816
1171 1 0.319395 0.415524 0.419787
1096 1 0.336091 0.414925 0.412983
1032 1 0.332723 0.4254 0.421968
1033 1 0.347237 0.424635 0.415319
1103 1 0.360414 0.434727 0.416323
1105 1 0.348395 0.436478 0.422177
1106 1 0.39032 0.439427 0.415909
1179 1 0.376595 0.440476 0.421359
1247 1 0.389088 0.448102 0.423797
1180 1 0.40414 0.447418 0.418643
1186 1 0.418588 0.442196 0.415561
1256 1 0.432725 0.447583 0.41926
1249 1 0.417866 0.453315 0.422292
4062 1 0.445317 0.44074 0.417256
4061 1 0.446986 0.455384 0.422936
1190 1 0.474238 0.444175 0.413933
1258 1 0.461722 0.447335 0.420202
3922 1 0.488353 0.449659 0.419142
1325 1 0.431954 0.460931 0.424018
4065 1 0.473911 0.456904 0.42233
2804 1 0.499167 0.0540972 0.434531
66 1 0.475406 0.0698424 0.435906
210 1 0.463599 0.082411 0.435109
139 1 0.478668 0.0807802 0.431136
2872 1 0.493085 0.0773902 0.427507
2802 1 0.489328 0.067934 0.433217
415 1 0.424804 0.100422 0.433327
2941 1 0.45452 0.103176 0.427055
140 1 0.451438 0.0920058 0.432506
347 1 0.437194 0.0910257 0.434998
417 1 0.439214 0.102849 0.429569
2943 1 0.465503 0.0932497 0.427745
2942 1 0.483527 0.0914887 0.42564
385 1 0.285841 0.125453 0.435105
525 1 0.30289 0.125436 0.432428
464 1 0.31641 0.128795 0.429833
394 1 0.330504 0.123805 0.434422
463 1 0.346758 0.128558 0.431275
326 1 0.355176 0.121979 0.437418
467 1 0.360068 0.131258 0.429095
328 1 0.370619 0.124249 0.433045
331 1 0.386482 0.123382 0.429957
412 1 0.40157 0.123431 0.426743
483 1 0.413061 0.111625 0.43304
406 1 0.397915 0.111877 0.434445
349 1 0.429018 0.114314 0.428022
581 1 0.205037 0.147636 0.434725
445 1 0.231745 0.140286 0.434214
514 1 0.221845 0.147048 0.431054
515 1 0.239304 0.148869 0.429144
451 1 0.24833 0.13951 0.431395
452 1 0.262792 0.141987 0.428797
382 1 0.258993 0.130253 0.436255
384 1 0.274203 0.13543 0.431179
453 1 0.288703 0.134669 0.427173
456 1 0.304567 0.137817 0.424892
395 1 0.333466 0.131868 0.427043
577 1 0.122327 0.165552 0.43697
649 1 0.136277 0.166408 0.43438
579 1 0.154805 0.164226 0.431184
655 1 0.170013 0.163997 0.429172
582 1 0.168284 0.152384 0.435349
653 1 0.183863 0.165963 0.427058
652 1 0.181372 0.156968 0.432449
651 1 0.199664 0.160133 0.428625
583 1 0.21511 0.158888 0.42779
512 1 0.22818 0.158928 0.426361
450 1 0.249453 0.154026 0.425342
645 1 0.0885894 0.190321 0.435425
719 1 0.101254 0.190808 0.431514
576 1 0.099858 0.179298 0.435765
434 1 0.113282 0.174553 0.432278
650 1 0.128718 0.177773 0.429634
647 1 0.114956 0.186149 0.427405
724 1 0.14533 0.174812 0.428152
654 1 0.133518 0.187874 0.42589
721 1 0.159093 0.176928 0.426214
656 1 0.174838 0.176724 0.425339
702 1 0.0195483 0.206225 0.435659
772 1 0.036224 0.21141 0.434704
781 1 0.0509786 0.208793 0.434586
775 1 0.0638307 0.198972 0.435736
778 1 0.0455674 0.197449 0.437128
714 1 0.0808745 0.204318 0.433607
712 1 0.0649184 0.212019 0.432645
646 1 0.0968691 0.207641 0.433075
716 1 0.11235 0.202638 0.428072
648 1 0.126248 0.210523 0.426145
3638 1 0.00939078 0.216817 0.433341
3640 1 0.0102428 0.232732 0.432455
773 1 0.0240568 0.219608 0.434962
3709 1 0.036875 0.226419 0.431354
777 1 0.0262102 0.233573 0.433242
780 1 0.0508295 0.222771 0.433054
841 1 0.0563102 0.239161 0.431708
783 1 0.0687912 0.227567 0.434074
644 1 0.081442 0.221579 0.432826
574 1 0.0849266 0.237026 0.433131
718 1 0.0974032 0.225528 0.431382
717 1 0.110324 0.216556 0.429283
857 1 0.126381 0.227181 0.42677
788 1 0.11204 0.234432 0.430882
771 1 0.0102854 0.24724 0.432781
3569 1 0.0245467 0.250497 0.432554
849 1 0.0418892 0.241283 0.431735
847 1 0.0394035 0.259399 0.433466
922 1 0.0564082 0.25407 0.432759
850 1 0.0697643 0.244755 0.431138
782 1 0.0846572 0.252503 0.431982
851 1 0.0988015 0.244628 0.431478
852 1 0.097857 0.262048 0.431186
785 1 0.111006 0.253428 0.431015
793 1 0.126108 0.245653 0.429454
789 1 0.139287 0.254257 0.427621
3707 1 0.00956256 0.265258 0.429486
843 1 0.010282 0.279164 0.431388
3706 1 0.0257172 0.267341 0.431657
704 1 0.0406455 0.278123 0.434027
3775 1 0.0529053 0.269399 0.434676
920 1 0.0684076 0.261378 0.43217
925 1 0.0824442 0.27056 0.433048
855 1 0.0694487 0.278431 0.434389
921 1 0.0959483 0.276424 0.434248
859 1 0.124996 0.262561 0.431378
784 1 0.111125 0.268206 0.432246
860 1 0.127083 0.279502 0.431323
858 1 0.112194 0.280968 0.434008
865 1 0.139367 0.27061 0.429234
726 1 0.152363 0.274985 0.426253
915 1 0.00986771 0.294829 0.434327
776 1 0.0243981 0.283637 0.432867
854 1 0.0401925 0.292908 0.436532
846 1 0.0262785 0.298917 0.435481
845 1 0.0571835 0.286704 0.435925
715 1 0.0836534 0.286842 0.435835
642 1 0.10077 0.291242 0.4366
934 1 0.126524 0.29356 0.432653
929 1 0.115027 0.295392 0.4357
933 1 0.142357 0.28754 0.429272
938 1 0.149714 0.302149 0.430655
866 1 0.155454 0.291225 0.426619
861 1 0.121842 0.308717 0.435714
862 1 0.13833 0.30434 0.43345
1003 1 0.14376 0.31823 0.435332
1005 1 0.155542 0.318942 0.430864
1008 1 0.164693 0.309569 0.426538
872 1 0.166957 0.326896 0.4295
941 1 0.153908 0.330959 0.435939
1009 1 0.162156 0.344959 0.433706
1013 1 0.175202 0.34195 0.427881
1079 1 0.17335 0.355796 0.433435
945 1 0.187388 0.351891 0.427719
1087 1 0.187314 0.364924 0.432382
947 1 0.20021 0.360695 0.426962
1014 1 0.212047 0.373617 0.428033
1015 1 0.199318 0.374362 0.431729
1090 1 0.212784 0.384111 0.43303
1092 1 0.227229 0.381766 0.428374
1099 1 0.254768 0.387319 0.425437
950 1 0.237884 0.388852 0.430723
1018 1 0.224987 0.390894 0.435834
1017 1 0.243048 0.40074 0.437065
1021 1 0.257391 0.398635 0.433115
1097 1 0.267406 0.396853 0.427063
1165 1 0.266466 0.408436 0.434251
1164 1 0.278917 0.404783 0.429274
1160 1 0.293458 0.40505 0.425695
1167 1 0.279904 0.416529 0.435967
1239 1 0.293944 0.417053 0.431218
1166 1 0.303304 0.41843 0.425205
1034 1 0.30747 0.426039 0.433172
1098 1 0.319927 0.424971 0.425712
1100 1 0.320172 0.433473 0.434177
1173 1 0.335124 0.43788 0.427736
1172 1 0.345739 0.445324 0.429933
1168 1 0.333066 0.443612 0.436776
1174 1 0.361622 0.444634 0.425357
1252 1 0.359903 0.455789 0.432254
1177 1 0.374694 0.453071 0.427831
1251 1 0.402978 0.457978 0.426522
1245 1 0.376364 0.460963 0.435586
1248 1 0.392155 0.471538 0.437024
1178 1 0.389313 0.461201 0.431049
1329 1 0.403811 0.469141 0.43291
1255 1 0.415959 0.463959 0.427379
1260 1 0.430534 0.471644 0.430679
1317 1 0.415053 0.476034 0.435591
4131 1 0.446291 0.46606 0.429834
4132 1 0.460172 0.462474 0.426995
3997 1 0.475432 0.470565 0.427767
1328 1 0.46219 0.473454 0.432352
3998 1 0.488469 0.461961 0.426125
4002 1 0.489137 0.474445 0.430616
1397 1 0.448064 0.479122 0.435242
4063 1 0.477368 0.483055 0.434688
204 1 0.463132 0.0433956 0.447242
2801 1 0.488141 0.0331071 0.449597
206 1 0.453302 0.0554161 0.446634
278 1 0.469016 0.0566826 0.441191
209 1 0.479263 0.047252 0.445768
137 1 0.485219 0.0549113 0.439162
68 1 0.494554 0.0425951 0.441928
473 1 0.400093 0.0794348 0.449037
413 1 0.414625 0.076695 0.446159
346 1 0.425448 0.0680659 0.447551
481 1 0.434379 0.0796838 0.441621
414 1 0.421886 0.0863318 0.440645
342 1 0.45007 0.0798694 0.439527
411 1 0.441174 0.0690062 0.444194
344 1 0.459493 0.0690682 0.441136
324 1 0.359494 0.100696 0.449464
262 1 0.387729 0.0919188 0.445576
330 1 0.378709 0.103332 0.444199
408 1 0.410755 0.10109 0.437946
402 1 0.395344 0.100053 0.441221
404 1 0.405635 0.0890865 0.443206
381 1 0.255494 0.122764 0.442927
378 1 0.238826 0.120267 0.447324
443 1 0.241578 0.129519 0.439287
383 1 0.269765 0.124337 0.438754
314 1 0.266504 0.114584 0.446096
386 1 0.280165 0.117812 0.443688
455 1 0.296906 0.115771 0.440833
459 1 0.315349 0.119266 0.4383
454 1 0.309797 0.114804 0.446488
457 1 0.326958 0.115606 0.442986
393 1 0.337881 0.111276 0.44766
329 1 0.342072 0.118818 0.440205
334 1 0.367192 0.11123 0.441304
335 1 0.351645 0.111285 0.444628
405 1 0.380852 0.115369 0.436772
633 1 0.00235219 0.147164 0.447331
643 1 0.0747205 0.14986 0.449202
502 1 0.130564 0.149175 0.448362
503 1 0.146764 0.148704 0.446349
296 1 0.161775 0.147578 0.443323
507 1 0.19194 0.15004 0.438373
366 1 0.173808 0.137975 0.450505
506 1 0.17839 0.146324 0.442182
508 1 0.18584 0.138122 0.446769
442 1 0.21138 0.12974 0.445102
513 1 0.199375 0.138064 0.441928
444 1 0.215889 0.139491 0.438207
441 1 0.227559 0.129545 0.442221
634 1 0.0156797 0.15109 0.449117
631 1 0.00847511 0.162752 0.445018
632 1 0.0219859 0.167901 0.446272
779 1 0.032532 0.154973 0.448645
707 1 0.0385801 0.16714 0.443413
567 1 0.0484763 0.157552 0.446527
637 1 0.0631953 0.161449 0.445403
636 1 0.0541466 0.17506 0.442815
711 1 0.0810624 0.164264 0.445317
570 1 0.0919654 0.153303 0.450667
575 1 0.0968586 0.165792 0.443999
504 1 0.106158 0.151355 0.448432
572 1 0.10899 0.167004 0.440346
501 1 0.116436 0.157201 0.445075
505 1 0.132275 0.157301 0.44128
436 1 0.149305 0.156449 0.438137
3570 1 0.0150916 0.191347 0.441249
3430 1 0.00967698 0.180615 0.443544
3499 1 0.0246208 0.1815 0.442733
710 1 0.0407562 0.182349 0.440618
635 1 0.0554033 0.187498 0.439387
709 1 0.0739004 0.188913 0.43658
641 1 0.0703225 0.178232 0.4411
713 1 0.0842523 0.173981 0.440237
703 1 0.00361787 0.201509 0.436782
706 1 0.0307895 0.196733 0.439157
848 1 0.055497 0.300455 0.439012
853 1 0.0724281 0.293701 0.437598
856 1 0.087366 0.298121 0.440073
917 1 0.0121861 0.307767 0.438381
1052 1 0.012598 0.324203 0.443121
842 1 -0.0017161 0.314652 0.439493
918 1 0.0257077 0.312884 0.441074
923 1 0.0399484 0.304852 0.441337
924 1 0.039544 0.322273 0.444416
919 1 0.0531482 0.313724 0.444581
786 1 0.0721207 0.308108 0.441358
998 1 0.0874933 0.313638 0.444699
926 1 0.0700369 0.319698 0.446417
787 1 0.103045 0.307995 0.439839
994 1 0.0998118 0.323343 0.445682
1077 1 0.1143 0.320406 0.441396
932 1 0.130652 0.318622 0.438618
989 1 0.0121065 0.336403 0.44731
991 1 0.0241517 0.330962 0.446192
995 1 0.0536521 0.327372 0.448678
1074 1 0.0973504 0.337215 0.450227
999 1 0.109311 0.336012 0.445768
930 1 0.124932 0.331029 0.44356
928 1 0.124057 0.347635 0.447838
1004 1 0.138541 0.332275 0.440506
942 1 0.149078 0.344565 0.439933
931 1 0.136766 0.343635 0.444164
1075 1 0.136503 0.35905 0.44971
1145 1 0.150767 0.35613 0.445485
1007 1 0.160741 0.35661 0.440223
1078 1 0.164663 0.365664 0.445215
1162 1 0.173952 0.367119 0.439524
1217 1 0.160575 0.381936 0.448866
1011 1 0.17616 0.379861 0.443347
1088 1 0.189386 0.378177 0.43927
1086 1 0.187211 0.389208 0.446241
1163 1 0.19961 0.387447 0.439165
1161 1 0.212063 0.398172 0.438263
1159 1 0.198985 0.399698 0.445157
1155 1 0.213794 0.408582 0.445364
1225 1 0.229474 0.40359 0.440604
1019 1 0.256329 0.408674 0.440172
1020 1 0.241055 0.411899 0.444019
1154 1 0.22571 0.414288 0.44768
1227 1 0.254655 0.41926 0.447401
1233 1 0.267737 0.418205 0.442155
1234 1 0.281543 0.428329 0.443338
1236 1 0.26759 0.427512 0.448963
1305 1 0.292982 0.427322 0.437886
1309 1 0.303799 0.436257 0.440389
1237 1 0.295468 0.438567 0.446226
1312 1 0.320137 0.443746 0.44318
1235 1 0.310224 0.445371 0.448806
1240 1 0.333477 0.44825 0.443957
1175 1 0.345737 0.451651 0.438356
1169 1 0.347873 0.460067 0.44703
1243 1 0.361606 0.459627 0.440824
1242 1 0.361911 0.468522 0.448621
1176 1 0.374989 0.469229 0.443443
1315 1 0.389871 0.479256 0.444014
1244 1 0.3768 0.477767 0.449218
1246 1 0.403044 0.477947 0.441151
1250 1 0.403064 0.489919 0.447356
1327 1 0.432844 0.485056 0.43841
1321 1 0.416529 0.486986 0.441847
1466 1 0.432666 0.495764 0.445387
1254 1 0.447488 0.487263 0.441819
1326 1 0.462395 0.486524 0.438647
1398 1 0.463533 0.496349 0.444812
4135 1 0.491791 0.487641 0.438364
1400 1 0.478117 0.493374 0.440176
207 1 0.453639 0.0208063 0.460347
69 1 0.479058 0.00853239 0.462451
5533 1 0.494865 0.0107567 0.458655
136 1 0.484909 0.0207272 0.455751
202 1 0.424673 0.0302395 0.4618
269 1 0.41482 0.0415935 0.458424
200 1 0.440267 0.0327491 0.45658
276 1 0.447455 0.0445076 0.451919
138 1 0.468922 0.0222097 0.458605
345 1 0.457689 0.0313202 0.452538
208 1 0.474382 0.0339711 0.451358
272 1 0.390768 0.0573477 0.461854
338 1 0.405648 0.0550142 0.457436
343 1 0.430182 0.0452996 0.455347
274 1 0.420288 0.0561452 0.453884
410 1 0.437356 0.0550256 0.449486
265 1 0.355509 0.0793174 0.461586
264 1 0.36724 0.079287 0.458064
336 1 0.378936 0.0707528 0.460141
332 1 0.38258 0.0828552 0.452769
407 1 0.393136 0.0703124 0.456068
409 1 0.406554 0.06589 0.452159
306 1 0.245262 0.108364 0.459027
379 1 0.275081 0.103617 0.461827
242 1 0.288346 0.105125 0.457834
389 1 0.320556 0.108171 0.450985
316 1 0.30726 0.106684 0.453707
390 1 0.320204 0.0995078 0.460257
327 1 0.341308 0.0921708 0.459084
325 1 0.332015 0.0993543 0.45501
333 1 0.344676 0.102104 0.452134
461 1 0.355822 0.0902259 0.455058
263 1 0.373634 0.0920887 0.450936
3358 1 0.00334412 0.126874 0.455555
562 1 0.0108979 0.120251 0.462946
429 1 0.0603485 0.127728 0.461657
438 1 0.194586 0.12324 0.457879
511 1 0.210441 0.121159 0.453715
510 1 0.196977 0.130256 0.45013
372 1 0.223545 0.121411 0.45
376 1 0.234439 0.113385 0.455144
370 1 0.221954 0.114701 0.459909
449 1 0.250841 0.11544 0.450702
380 1 0.261144 0.10741 0.455468
312 1 0.276939 0.11108 0.45292
388 1 0.293774 0.111285 0.450578
564 1 0.011232 0.137504 0.451011
708 1 0.0199353 0.131153 0.456465
493 1 0.0267915 0.14226 0.451269
638 1 0.040927 0.144296 0.45234
705 1 0.0348509 0.13248 0.457592
427 1 0.0505689 0.138088 0.456196
640 1 0.0603066 0.147204 0.450369
639 1 0.0674905 0.139741 0.456737
424 1 0.0800302 0.130823 0.459957
568 1 0.0833839 0.141138 0.454768
426 1 0.0951301 0.132223 0.460342
498 1 0.1003 0.141927 0.454888
569 1 0.111237 0.138429 0.458781
500 1 0.129545 0.138108 0.457473
571 1 0.11923 0.146346 0.453024
361 1 0.153273 0.132877 0.458928
435 1 0.143471 0.140572 0.452717
292 1 0.137979 0.131875 0.462747
367 1 0.159775 0.140397 0.451624
437 1 0.168327 0.131099 0.458705
509 1 0.183842 0.131724 0.455752
992 1 0.0370665 0.336409 0.451027
988 1 0.0242704 0.346411 0.452266
1131 1 0.0519284 0.342513 0.454068
927 1 0.0840256 0.325615 0.448921
1067 1 0.0689839 0.335371 0.452079
1001 1 0.083725 0.342499 0.454388
916 1 0.00746218 0.35092 0.452498
1054 1 0.00900383 0.365278 0.458069
987 1 0.0189467 0.358906 0.455248
1060 1 0.0381058 0.352549 0.455375
985 1 0.0356899 0.364555 0.458196
990 1 0.0525979 0.355941 0.459022
996 1 0.0672223 0.348755 0.458148
1065 1 0.0826817 0.355904 0.457729
1143 1 0.10817 0.351409 0.449619
1000 1 0.0952758 0.351263 0.454909
1070 1 0.106925 0.363244 0.457299
1069 1 0.0920832 0.364288 0.460562
1002 1 0.121639 0.362015 0.453075
1010 1 0.149631 0.369147 0.448419
1061 1 0.0206794 0.373651 0.460286
1122 1 0.00185342 0.377238 0.46089
1068 1 0.0474726 0.369778 0.464149
1072 1 0.108809 0.374196 0.461699
1142 1 0.11985 0.375279 0.457773
1076 1 0.136391 0.372664 0.45305
1215 1 0.134798 0.384316 0.460198
1144 1 0.147122 0.382681 0.454409
1080 1 0.147178 0.397956 0.460922
1219 1 0.16004 0.396073 0.455093
1147 1 0.171346 0.408443 0.455184
1089 1 0.172443 0.392181 0.450371
1146 1 0.157599 0.408226 0.461653
1012 1 0.186127 0.402366 0.450644
1083 1 0.198887 0.410089 0.451282
1082 1 0.186951 0.414915 0.455424
1085 1 0.214166 0.417694 0.454918
1153 1 0.197615 0.422891 0.458186
1158 1 0.228452 0.423356 0.457086
1156 1 0.241531 0.431851 0.460066
1024 1 0.239788 0.421963 0.451503
1230 1 0.251437 0.429198 0.4541
1229 1 0.256394 0.438615 0.461828
1303 1 0.26765 0.434763 0.457927
1302 1 0.281627 0.44562 0.460617
1308 1 0.281373 0.435385 0.45192
1311 1 0.295094 0.445806 0.453994
1377 1 0.310115 0.454222 0.458131
1307 1 0.323026 0.449557 0.450806
1313 1 0.336956 0.45628 0.452738
1380 1 0.323194 0.457809 0.459416
1238 1 0.336196 0.466167 0.461283
1170 1 0.350368 0.467514 0.45588
1241 1 0.363749 0.477743 0.456269
1314 1 0.378642 0.486395 0.457706
1316 1 0.389518 0.491171 0.450799
1318 1 0.391106 0.497854 0.458045
273 1 0.422722 0.0230505 0.469541
133 1 0.432447 0.0139722 0.472373
203 1 0.44604 0.0123147 0.467542
271 1 0.437465 0.0226584 0.463201
2800 1 0.460927 0.011603 0.466914
125 1 0.408894 0.022892 0.473968
196 1 0.398355 0.0354549 0.470787
197 1 0.410532 0.0329194 0.466596
267 1 0.363085 0.0575805 0.472076
340 1 0.376636 0.057492 0.466614
341 1 0.388759 0.0439724 0.468813
268 1 0.375763 0.0469168 0.473684
198 1 0.400118 0.0440399 0.463208
319 1 0.309127 0.0794813 0.474287
322 1 0.326392 0.0789675 0.472032
261 1 0.339583 0.0687196 0.473029
260 1 0.341992 0.0794885 0.465017
339 1 0.365256 0.0698381 0.465353
320 1 0.350885 0.0697406 0.468786
491 1 0.0110842 0.102767 0.473321
3218 1 0.0237223 0.101747 0.475824
357 1 0.0545976 0.108332 0.475143
369 1 0.216347 0.109529 0.467769
377 1 0.230746 0.106547 0.464121
374 1 0.229011 0.0991532 0.472589
307 1 0.244876 0.0975242 0.467061
309 1 0.25721 0.0901335 0.47132
238 1 0.260523 0.102339 0.462608
311 1 0.272128 0.0943004 0.468854
313 1 0.282704 0.0874716 0.473565
391 1 0.300728 0.0898327 0.47117
248 1 0.28886 0.0990169 0.467114
387 1 0.303579 0.0995682 0.462305
318 1 0.316369 0.0908973 0.468147
392 1 0.330542 0.0924806 0.463831
495 1 0.0163604 0.109328 0.467191
566 1 0.0263321 0.121779 0.463805
3290 1 0.0281445 0.110219 0.469636
563 1 0.0414829 0.115858 0.469293
565 1 0.0453015 0.125061 0.462041
422 1 0.0555629 0.117303 0.469116
288 1 0.0709006 0.122729 0.467345
423 1 0.0712407 0.113787 0.475044
362 1 0.0878371 0.12395 0.466722
363 1 0.10001 0.120411 0.473901
359 1 0.103854 0.128567 0.466015
430 1 0.113902 0.124143 0.473034
499 1 0.130603 0.127141 0.470335
365 1 0.147969 0.125974 0.468449
439 1 0.161387 0.124283 0.465617
432 1 0.159406 0.118846 0.47389
301 1 0.175358 0.117409 0.469411
298 1 0.177804 0.123286 0.462479
302 1 0.191854 0.117467 0.465384
231 1 0.187129 0.113467 0.474244
440 1 0.206894 0.114585 0.462533
371 1 0.204127 0.110259 0.472128
573 1 0.120053 0.132913 0.464124
997 1 0.0678722 0.362534 0.460442
1063 1 0.0182925 0.386698 0.464218
1129 1 0.0337558 0.380207 0.463534
1130 1 0.0474478 0.385419 0.469135
1139 1 0.0620069 0.379316 0.466102
1071 1 0.0769893 0.370737 0.463233
1137 1 0.0772663 0.385519 0.468779
1073 1 0.09189 0.378294 0.464615
1211 1 0.105526 0.388626 0.468371
1209 1 0.120643 0.383076 0.464123
1205 1 0.0216811 0.397369 0.46998
1059 1 0.00329126 0.39143 0.465737
1127 1 0.00615646 0.40348 0.473557
993 1 0.0345543 0.394708 0.46966
1062 1 0.0617419 0.393579 0.472517
1133 1 0.0482386 0.396567 0.47557
1066 1 0.0907854 0.393942 0.471854
1216 1 0.103979 0.404825 0.473947
1140 1 0.116895 0.398714 0.470748
1359 1 0.132039 0.410325 0.472039
1213 1 0.130939 0.398256 0.467215
1220 1 0.143799 0.407906 0.466869
1148 1 0.144364 0.418823 0.474856
1081 1 0.157806 0.417688 0.468861
1084 1 0.169219 0.41609 0.463306
1151 1 0.17227 0.426435 0.470124
1150 1 0.18307 0.424287 0.462549
1152 1 0.182993 0.43548 0.47288
1293 1 0.211851 0.427135 0.461666
1157 1 0.197082 0.432288 0.46723
1231 1 0.226164 0.434356 0.465518
1361 1 0.208956 0.435836 0.469182
1290 1 0.198116 0.44228 0.474502
1223 1 0.227501 0.443102 0.472755
1224 1 0.243729 0.439333 0.468236
1299 1 0.254253 0.448222 0.471385
1226 1 0.266993 0.445229 0.465054
1301 1 0.282317 0.455333 0.468638
1310 1 0.295631 0.454792 0.464005
1228 1 0.26808 0.45712 0.472337
1306 1 0.296456 0.462121 0.472777
1378 1 0.309573 0.459519 0.466682
1447 1 0.324818 0.466219 0.468183
1374 1 0.325354 0.479134 0.474585
1381 1 0.349545 0.476287 0.463427
1451 1 0.337487 0.478413 0.469262
1452 1 0.347809 0.488222 0.470332
1384 1 0.362456 0.494661 0.473488
1383 1 0.36341 0.486932 0.464627
1382 1 0.377639 0.495786 0.466455
199 1 0.404638 0.0137471 0.480412
126 1 0.392815 0.0137113 0.486407
128 1 0.418257 0.0121992 0.4758
131 1 0.416315 0.00448976 0.483589
132 1 0.428892 0.0016953 0.479821
201 1 0.443405 0.00312969 0.473975
270 1 0.385272 0.0350305 0.475257
192 1 0.372039 0.0370817 0.482256
266 1 0.38244 0.0258634 0.484564
129 1 0.395559 0.0245581 0.478007
254 1 0.321583 0.0605288 0.485856
323 1 0.334575 0.0623115 0.481673
256 1 0.349502 0.052712 0.48313
337 1 0.34951 0.0611473 0.477266
194 1 0.363162 0.0468848 0.479836
3286 1 0.00955049 0.0843928 0.486991
304 1 0.238487 0.0825735 0.48249
308 1 0.254959 0.084186 0.479928
249 1 0.267333 0.0785622 0.484492
244 1 0.28114 0.0771125 0.480646
310 1 0.265912 0.0846785 0.475995
251 1 0.293445 0.079583 0.477355
177 1 0.293146 0.0664541 0.48565
317 1 0.322364 0.0687705 0.47818
250 1 0.307226 0.0681025 0.482588
3216 1 0.00133541 0.0902525 0.478474
3288 1 0.018422 0.0917104 0.480068
421 1 0.039162 0.104909 0.475706
3287 1 0.0343944 0.0932815 0.482721
150 1 0.0483963 0.0991863 0.48155
216 1 0.0639493 0.104445 0.480237
149 1 0.0748298 0.0981837 0.487542
228 1 0.164712 0.106395 0.486175
300 1 0.180338 0.104602 0.483569
162 1 0.193115 0.0947491 0.48766
297 1 0.195911 0.104356 0.47988
303 1 0.20858 0.0943881 0.483973
234 1 0.212033 0.0997234 0.476413
373 1 0.225429 0.0922245 0.480145
375 1 0.240973 0.0890522 0.475235
360 1 0.0869833 0.11794 0.474669
221 1 0.0793275 0.108804 0.480503
82 1 0.0976469 0.113985 0.481983
428 1 0.124218 0.108251 0.486898
291 1 0.113439 0.113299 0.480708
356 1 0.128832 0.117706 0.479168
433 1 0.143331 0.121472 0.475966
294 1 0.141121 0.114913 0.483221
431 1 0.154749 0.113476 0.482101
230 1 0.171595 0.112435 0.477978
1135 1 0.018027 0.410236 0.478771
1128 1 0.0331073 0.406071 0.476861
1064 1 0.0478958 0.409124 0.482481
1134 1 0.0633655 0.403111 0.480573
1136 1 0.0785003 0.399771 0.47657
1274 1 0.0726064 0.411243 0.482983
1206 1 0.0914515 0.408776 0.47778
1149 1 0.120599 0.411546 0.4767
1201 1 0.00254995 0.41675 0.478765
1203 1 0.0142689 0.423903 0.485515
1204 1 0.0310983 0.415224 0.482469
1207 1 0.060343 0.416195 0.487533
1214 1 0.0884221 0.421103 0.483323
1141 1 0.103942 0.417905 0.479592
1286 1 0.101933 0.426015 0.487714
1285 1 0.116901 0.42375 0.483241
1218 1 0.129834 0.422666 0.480225
1291 1 0.145051 0.432462 0.481235
1287 1 0.159236 0.427535 0.47598
1221 1 0.171599 0.433489 0.479061
1421 1 0.159071 0.441515 0.484162
1222 1 0.184527 0.442761 0.480346
1356 1 0.202786 0.452163 0.483594
1292 1 0.211893 0.444166 0.476801
1298 1 0.225369 0.452683 0.480914
1295 1 0.240247 0.451359 0.477668
1294 1 0.214202 0.459199 0.486679
1304 1 0.254789 0.457882 0.477913
1297 1 0.242061 0.460829 0.484505
1369 1 0.257596 0.467412 0.486588
1232 1 0.270504 0.466401 0.480846
1375 1 0.282024 0.464032 0.476099
1373 1 0.297568 0.470289 0.479874
1371 1 0.283268 0.473006 0.484323
1379 1 0.310063 0.467079 0.474989
1372 1 0.298381 0.480928 0.487776
1445 1 0.311765 0.481112 0.479863
1376 1 0.324247 0.488598 0.485092
1446 1 0.334679 0.489513 0.477261
1450 1 0.336774 0.494833 0.4849
1449 1 0.349033 0.495284 0.478531
195 1 0.380865 0.0162731 0.492715
56 1 0.389455 0.00616145 0.496824
62 1 0.403874 0.0051101 0.488991
122 1 0.342636 0.0367371 0.50234
114 1 0.331461 0.0437652 0.497776
188 1 0.35966 0.0419459 0.489126
190 1 0.358188 0.0314316 0.496317
124 1 0.37015 0.0286282 0.490977
243 1 0.271892 0.0630775 0.498209
252 1 0.303881 0.0524816 0.497268
246 1 0.289829 0.0590537 0.495343
185 1 0.305437 0.0608549 0.490166
259 1 0.31979 0.053037 0.493859
191 1 0.346774 0.0426148 0.492911
321 1 0.336233 0.0529555 0.489814
3078 1 0.0130118 0.0670064 0.499764
282 1 -0.000186664 0.07471 0.491699
3150 1 0.0176215 0.0783546 0.494049
281 1 0.0294028 0.0714404 0.499379
3289 1 0.0283282 0.0867897 0.488748
3219 1 0.0383794 0.0813216 0.494573
3220 1 0.051303 0.0851202 0.49472
218 1 0.0472726 0.0726865 0.499539
169 1 0.208031 0.0774321 0.498127
232 1 0.206953 0.0862138 0.49079
235 1 0.221669 0.083771 0.487985
172 1 0.221241 0.0756532 0.496643
236 1 0.236422 0.075231 0.491214
237 1 0.247123 0.0675254 0.496379
166 1 0.251279 0.074318 0.486991
305 1 0.2612 0.0702356 0.492158
240 1 0.278023 0.0700008 0.491046
354 1 0.0589416 0.0965006 0.488885
358 1 0.044483 0.0902678 0.489401
425 1 0.0668607 0.0880824 0.495739
290 1 0.0815359 0.0913024 0.494603
222 1 0.089716 0.103013 0.488071
293 1 0.107264 0.102975 0.487916
497 1 0.0997335 0.0923146 0.493732
295 1 0.114391 0.0986554 0.495534
299 1 0.128816 0.0977156 0.498585
364 1 0.134294 0.106941 0.491946
368 1 0.146285 0.0988563 0.497571
224 1 0.1499 0.105576 0.487929
229 1 0.158237 0.0988632 0.492228
233 1 0.163164 0.0942539 0.499067
163 1 0.178 0.0890449 0.500105
167 1 0.189858 0.0873295 0.495185
168 1 0.17485 0.0981162 0.492157
1202 1 0.0272339 0.428058 0.488508
1276 1 0.0425642 0.421292 0.487332
1275 1 0.0618672 0.42624 0.493111
1272 1 0.0435756 0.433357 0.492643
1208 1 0.0735894 0.424064 0.488806
1138 1 0.0876503 0.431923 0.491503
1289 1 0.118529 0.434729 0.490423
1283 1 0.131124 0.433918 0.487991
1199 1 0.00805342 0.437354 0.488212
1124 1 0.0079454 0.447218 0.497509
1126 1 0.0183105 0.437097 0.492283
1269 1 0.0297809 0.440786 0.49611
1351 1 0.0580223 0.440556 0.497864
1279 1 0.0721213 0.438542 0.496643
1212 1 0.087848 0.443989 0.498466
1277 1 0.103818 0.43815 0.495433
1282 1 0.146765 0.441725 0.490044
1352 1 0.130946 0.442333 0.494925
1355 1 0.145159 0.451058 0.496187
1354 1 0.171158 0.444967 0.487096
1284 1 0.161386 0.450507 0.491939
1360 1 0.191248 0.452499 0.489335
1357 1 0.157849 0.456977 0.499207
1429 1 0.173774 0.456767 0.49439
1358 1 0.188529 0.463015 0.496834
1431 1 0.201171 0.47085 0.498729
1288 1 0.203062 0.463329 0.491899
1362 1 0.214608 0.470177 0.49378
1365 1 0.229173 0.465732 0.488377
1363 1 0.230244 0.471749 0.496157
1300 1 0.247109 0.469489 0.491497
1364 1 0.257911 0.476602 0.494903
1370 1 0.269856 0.474869 0.490236
1435 1 0.245705 0.47852 0.499036
1368 1 0.271459 0.483072 0.497428
1444 1 0.285566 0.480888 0.491733
1448 1 0.298632 0.489994 0.49448
1519 1 0.310396 0.488707 0.488189
1515 1 0.322518 0.49614 0.493675
1518 1 0.310425 0.499153 0.497361
258 1 0.360588 0.0132112 0.506648
121 1 0.368036 0.0196875 0.498369
60 1 0.376343 0.00845577 0.501324
183 1 0.301118 0.0413133 0.506191
189 1 0.315226 0.0341164 0.510227
53 1 0.338155 0.0271067 0.509909
113 1 0.325798 0.0351944 0.503944
193 1 0.352953 0.0246124 0.503938
212 1 0.00540716 0.0561603 0.503552
285 1 0.0118904 0.0473749 0.512406
352 1 0.0224359 0.0587292 0.505599
217 1 0.0363605 0.0631287 0.505157
8 1 0.039817 0.0558677 0.512403
219 1 0.0508639 0.0659997 0.506429
103 1 0.217735 0.0614202 0.510581
176 1 0.233307 0.0615478 0.508902
175 1 0.248582 0.0624077 0.507767
315 1 0.259609 0.0596422 0.502902
182 1 0.266929 0.0539669 0.509615
180 1 0.280341 0.0576145 0.503861
181 1 0.282526 0.0451317 0.510785
255 1 0.291905 0.0499798 0.50257
257 1 0.315763 0.0445683 0.501927
286 1 0.0623574 0.0789049 0.501222
287 1 0.0688545 0.0723233 0.50823
289 1 0.0859207 0.0743314 0.507917
355 1 0.0785673 0.0799782 0.50238
80 1 0.0993472 0.0790144 0.507404
79 1 0.0914154 0.0833219 0.499944
151 1 0.113196 0.0808583 0.509271
88 1 0.127885 0.0829995 0.511262
160 1 0.141957 0.0830187 0.512693
164 1 0.16975 0.0846978 0.507148
158 1 0.185119 0.0803476 0.505589
96 1 0.194191 0.0704566 0.509706
27 1 0.180177 0.0721694 0.512115
165 1 0.195152 0.0780913 0.50061
98 1 0.207589 0.0674032 0.504795
100 1 0.22169 0.0668253 0.50202
170 1 0.235199 0.0679042 0.502502
86 1 0.104743 0.0883934 0.501835
223 1 0.120358 0.0906256 0.503758
226 1 0.138069 0.0902372 0.504389
227 1 0.151468 0.0889237 0.505298
1125 1 0.0209483 0.449615 0.500293
1273 1 0.0333512 0.450966 0.505137
1347 1 0.0449112 0.442797 0.501674
1343 1 0.0606917 0.452462 0.503383
1281 1 0.0749003 0.450411 0.502194
1353 1 0.103792 0.451127 0.502173
1210 1 0.116076 0.445565 0.498958
1280 1 0.130535 0.449844 0.501898
1198 1 0.00691208 0.460249 0.503549
1268 1 0.0084966 0.471507 0.508855
1200 1 0.0226716 0.458301 0.508062
1409 1 0.0472138 0.454943 0.508257
1341 1 0.0617796 0.463831 0.511421
1483 1 0.0743735 0.460434 0.509571
1349 1 0.0901655 0.457197 0.504852
1418 1 0.103717 0.462425 0.508147
1278 1 0.0875411 0.46992 0.511556
1348 1 0.116598 0.456972 0.505759
1417 1 0.116899 0.470714 0.51207
1491 1 0.133107 0.465949 0.50871
1350 1 0.144421 0.460798 0.503835
1419 1 0.144682 0.474027 0.512117
1492 1 0.158699 0.470497 0.506996
1423 1 0.172373 0.465634 0.502609
1422 1 0.173993 0.476748 0.510796
1427 1 0.18688 0.471872 0.50537
1433 1 0.217648 0.474313 0.502999
1425 1 0.185972 0.48483 0.51071
1428 1 0.203687 0.477981 0.505559
1436 1 0.215633 0.486934 0.509556
1505 1 0.231894 0.482378 0.504917
1296 1 0.260287 0.487069 0.503384
1367 1 0.245967 0.487779 0.507199
1439 1 0.257179 0.496123 0.509902
1441 1 0.272506 0.494096 0.504288
1442 1 0.286751 0.499004 0.509205
1443 1 0.286868 0.488965 0.499993
186 1 0.320963 0.0183288 0.525443
123 1 0.347078 0.0134478 0.512896
120 1 0.334883 0.0168994 0.519144
46 1 0.342385 0.00262513 0.520436
54 1 0.359137 0.00326578 0.514601
351 1 0.00422873 0.0416414 0.517692
215 1 0.0202511 0.0407392 0.520696
174 1 0.265211 0.0403272 0.523721
241 1 0.285342 0.036767 0.51735
245 1 0.301184 0.0332841 0.515581
178 1 0.294124 0.0287604 0.523509
187 1 0.321975 0.0255491 0.51428
118 1 0.309328 0.0262082 0.51915
214 1 0.0230801 0.0509341 0.511944
146 1 0.0346423 0.0480179 0.520182
353 1 0.0581695 0.0633845 0.514073
9 1 0.050428 0.0530191 0.51965
78 1 0.0643034 0.0547293 0.520362
11 1 0.0834452 0.0565556 0.522014
284 1 0.0747431 0.0660057 0.514793
15 1 0.0984856 0.0624877 0.521435
84 1 0.125541 0.0637809 0.525053
159 1 0.172769 0.0645594 0.520608
26 1 0.188164 0.0627318 0.51751
173 1 0.212121 0.0544652 0.521103
99 1 0.204483 0.0611658 0.513876
161 1 0.197405 0.0538871 0.522904
171 1 0.226177 0.0536137 0.517207
239 1 0.253755 0.053145 0.513491
102 1 0.252725 0.0485984 0.5212
106 1 0.240262 0.0571412 0.515222
105 1 0.237694 0.0485956 0.524944
247 1 0.268774 0.044688 0.51712
81 1 0.0900786 0.0667147 0.513915
220 1 0.103022 0.072374 0.515424
12 1 0.113627 0.0655928 0.522678
83 1 0.118048 0.0737148 0.516593
152 1 0.13064 0.0731238 0.517443
87 1 0.139882 0.0654395 0.52334
153 1 0.146784 0.0726847 0.518574
157 1 0.155428 0.0799528 0.512515
89 1 0.158768 0.067036 0.52322
156 1 0.164328 0.0730653 0.515843
1408 1 0.0198855 0.471837 0.513663
1271 1 0.0341109 0.462855 0.513192
1410 1 0.0318663 0.476223 0.517614
1339 1 0.0469623 0.469278 0.514174
1338 1 0.0607132 0.475623 0.516851
1342 1 0.07504 0.473714 0.515214
1346 1 0.102365 0.476001 0.513818
1337 1 0.00738274 0.482396 0.517396
1270 1 0.005552 0.493501 0.523425
1477 1 0.0193283 0.485459 0.519194
1406 1 0.0323472 0.491928 0.522751
1481 1 0.0458813 0.483686 0.519387
1412 1 0.0726373 0.482485 0.523241
1345 1 0.0884511 0.479651 0.517913
1482 1 0.103174 0.484539 0.520589
1344 1 0.118679 0.482377 0.519608
1489 1 0.130412 0.475944 0.516363
1416 1 0.129985 0.490396 0.523938
1490 1 0.144175 0.485064 0.520506
1420 1 0.157156 0.480973 0.514083
1494 1 0.158906 0.490091 0.521645
1493 1 0.172673 0.488278 0.516245
1565 1 0.173295 0.498117 0.522676
1426 1 0.188409 0.495841 0.519161
1430 1 0.200803 0.496731 0.521785
1432 1 0.200406 0.487161 0.514188
1434 1 0.214082 0.49516 0.516891
1366 1 0.231642 0.491917 0.512777
1437 1 0.244157 0.499579 0.515177
1507 1 0.273212 0.49931 0.514767
179 1 0.274767 0.0193403 0.533085
108 1 0.299605 0.00620926 0.534074
107 1 0.288899 0.01956 0.530476
184 1 0.303143 0.0135211 0.525787
36 1 0.314703 0.00462877 0.529862
116 1 0.330851 0.00565638 0.525813
148 1 0.0114263 0.0333884 0.524884
213 1 0.00501761 0.0209375 0.533021
2940 1 0.0209793 0.0291867 0.533621
73 1 0.0288408 0.0369055 0.528169
143 1 0.0359015 0.0343389 0.535687
7 1 0.0515487 0.0374038 0.535116
2749 1 0.081144 0.040972 0.535786
10 1 0.0663154 0.0392875 0.534313
101 1 0.2032 0.040465 0.537713
29 1 0.217892 0.044514 0.536139
2760 1 0.235951 0.0390394 0.532142
109 1 0.251922 0.0393673 0.530293
30 1 0.246027 0.0303925 0.538371
253 1 0.278755 0.0298634 0.525176
37 1 0.259198 0.0250752 0.536008
38 1 0.265346 0.0283363 0.52956
76 1 0.0424212 0.045392 0.527676
147 1 0.058468 0.0447527 0.527985
77 1 0.0739588 0.0489677 0.527601
6 1 0.0921416 0.050622 0.528675
2745 1 0.0987069 0.0444976 0.536771
14 1 0.107377 0.0554945 0.530416
225 1 0.121359 0.0579115 0.531128
154 1 0.134788 0.0563284 0.532466
91 1 0.145367 0.0504302 0.537963
25 1 0.149532 0.0608291 0.52867
92 1 0.165962 0.0585432 0.527697
20 1 0.16156 0.0494779 0.535115
155 1 0.180721 0.0545614 0.525789
90 1 0.176839 0.0474782 0.533598
22 1 0.193527 0.0464225 0.530967
94 1 0.207869 0.0466217 0.529871
97 1 0.222546 0.0500401 0.526576
1405 1 0.0187377 0.494423 0.525343
1411 1 0.0448016 0.494593 0.527374
1340 1 0.059972 0.48791 0.524694
1480 1 0.0627583 0.498968 0.533814
1485 1 0.0732678 0.492212 0.529719
1413 1 0.0885076 0.484494 0.527052
1488 1 0.102459 0.492306 0.530445
1551 1 0.0874539 0.494931 0.53385
1484 1 0.117302 0.499015 0.537062
1415 1 0.115307 0.490007 0.528231
1486 1 0.130481 0.496978 0.531562
1414 1 0.147868 0.497575 0.526182
144 1 0.0144825 0.0173351 0.53889
3005 1 0.00356422 0.00860271 0.543775
3009 1 0.021009 0.011044 0.54637
4 1 0.0365296 0.0152801 0.546441
72 1 0.0514101 0.0178099 0.546938
2738 1 0.0694492 0.0223503 0.548598
40 1 0.25309 0.0179246 0.543163
34 1 0.25882 0.00625701 0.54852
2766 1 0.274554 0.00276113 0.545722
110 1 0.282853 0.00898209 0.537654
2765 1 0.26655 0.0129839 0.541545
2938 1 0.0313709 0.0227494 0.540807
145 1 0.0450764 0.0290487 0.542125
74 1 0.0600551 0.0294676 0.541915
13 1 0.0752977 0.033495 0.543353
2739 1 0.0820469 0.0247261 0.547997
2741 1 0.0902397 0.0347061 0.541963
2747 1 0.0983028 0.0283111 0.54715
2740 1 0.109862 0.0375722 0.543437
2748 1 0.12266 0.0409762 0.544755
2746 1 0.113786 0.0290051 0.549675
19 1 0.138771 0.0417248 0.543961
18 1 0.147471 0.0318973 0.549083
21 1 0.164883 0.0341222 0.549373
95 1 0.171718 0.0413449 0.542732
28 1 0.187004 0.0386777 0.539352
93 1 0.182662 0.0329305 0.547748
31 1 0.198273 0.0370254 0.54549
39 1 0.214785 0.0338109 0.543514
2761 1 0.224055 0.0255857 0.551222
104 1 0.229784 0.0316125 0.541096
2620 1 0.240315 0.0208826 0.54694
85 1 0.114597 0.0491285 0.538509
17 1 0.128515 0.0510769 0.539514
16 1 0.156419 0.0439437 0.543739
2936 1 0.0284232 0.0043406 0.553602
2935 1 0.055374 0.00155201 0.560401
2 1 0.04339 0.0049569 0.553433
2734 1 0.0592994 0.0125663 0.55307
2664 1 0.0700015 0.00229824 0.561401
75 1 0.0759066 0.0152569 0.554813
2737 1 0.0835607 0.00626724 0.562839
2675 1 0.0907726 0.0178097 0.555864
2672 1 0.10149 0.00828341 0.560894
2742 1 0.107225 0.0203742 0.554775
2674 1 0.118315 0.0108385 0.561918
2750 1 0.133419 0.00987292 0.561252
2679 1 0.148947 0.0119394 0.561456
2756 1 0.164002 0.0175244 0.562193
2751 1 0.185891 0.0171362 0.561574
2680 1 0.201994 0.0199732 0.557995
2687 1 0.216277 0.0220331 0.557578
2757 1 0.224078 0.0120793 0.561082
2758 1 0.234425 0.016118 0.554384
32 1 0.248396 0.0120761 0.554243
2759 1 0.2404 0.00545738 0.559844
2676 1 0.123754 0.0227585 0.554963
2744 1 0.129578 0.0321052 0.549876
2682 1 0.140988 0.0218063 0.556231
23 1 0.160267 0.0236727 0.554761
24 1 0.17627 0.0226211 0.555967
2688 1 0.19243 0.0278283 0.552552
2689 1 0.207035 0.0306689 0.551861
2678 1 0.142674 0.00075392 0.567113
2754 1 0.17486 0.00995731 0.567821
2752 1 0.159586 0.00294643 0.566584
2614 1 0.195799 0.0100856 0.566288
2464 1 0.184711 0.00169982 0.572993
2686 1 0.209257 0.00882467 0.563248
2552 1 0.220315 0.00150385 0.570217
1395 1 0.416192 0.500249 0.44894
1399 1 0.449522 0.500863 0.448185
1467 1 0.476522 0.5072 0.446893
4134 1 0.489923 0.514703 0.449082
4136 1 0.490551 0.502816 0.444025
1319 1 0.401378 0.510071 0.461687
1324 1 0.402939 0.501643 0.455527
1323 1 0.417223 0.509985 0.457303
1394 1 0.432326 0.516161 0.461318
1393 1 0.431263 0.506274 0.453735
1539 1 0.446764 0.511965 0.455956
1468 1 0.462865 0.505934 0.452425
4139 1 0.463037 0.518948 0.458951
1469 1 0.474912 0.519305 0.453327
1470 1 0.47654 0.531024 0.461352
4271 1 0.487577 0.525124 0.456173
1388 1 0.374767 0.505477 0.473632
1385 1 0.388932 0.509044 0.467125
1387 1 0.390779 0.514318 0.474994
1391 1 0.406851 0.521003 0.468541
1320 1 0.417032 0.519707 0.462666
1533 1 0.448586 0.519491 0.463894
1462 1 0.419091 0.527234 0.47295
1396 1 0.434479 0.523712 0.468835
1465 1 0.449559 0.531261 0.471271
1537 1 0.461356 0.527966 0.466882
4204 1 0.473728 0.535024 0.47073
1603 1 0.460213 0.538354 0.475811
1538 1 0.488985 0.536209 0.465059
1536 1 0.487845 0.545383 0.471392
205 1 0.459416 0.99871 0.470527
5532 1 0.475281 0.995175 0.46902
2803 1 0.486949 0.987841 0.471215
5531 1 0.488808 0.996744 0.464322
1453 1 0.364419 0.505991 0.480527
1525 1 0.347631 0.505551 0.486466
1392 1 0.378859 0.509104 0.482505
1386 1 0.391112 0.522111 0.482906
1389 1 0.403539 0.527636 0.477021
1459 1 0.406665 0.534383 0.485364
1322 1 0.417153 0.535488 0.480335
1461 1 0.429698 0.541452 0.483013
1463 1 0.434137 0.533499 0.476053
1464 1 0.445864 0.539154 0.479906
1532 1 0.443955 0.548715 0.486088
1535 1 0.4608 0.547306 0.482262
1609 1 0.473745 0.545597 0.477097
4341 1 0.472777 0.55436 0.485373
4207 1 0.486471 0.551089 0.480039
2658 1 0.463728 0.972111 0.486782
5463 1 0.48123 0.970633 0.485215
5462 1 0.495885 0.969252 0.481432
275 1 0.426421 0.995411 0.487625
2660 1 0.452557 0.979949 0.483809
135 1 0.443023 0.994011 0.483194
67 1 0.453403 0.989423 0.476764
2730 1 0.470605 0.988057 0.474192
2799 1 0.465435 0.978956 0.48032
5464 1 0.50116 0.978846 0.474115
5461 1 0.482259 0.976851 0.477169
1520 1 0.327649 0.507038 0.499084
1524 1 0.336897 0.50516 0.493393
1521 1 0.338189 0.51535 0.499886
1523 1 0.363055 0.511697 0.488696
1527 1 0.350747 0.510629 0.494331
1528 1 0.365707 0.518863 0.496552
1454 1 0.376808 0.517454 0.48952
1455 1 0.380942 0.528116 0.498706
1390 1 0.395471 0.527585 0.49249
1460 1 0.406435 0.539153 0.49574
1530 1 0.419459 0.543292 0.488104
1669 1 0.418881 0.552339 0.497767
1604 1 0.431968 0.553114 0.49156
1534 1 0.445882 0.562016 0.494166
1610 1 0.457553 0.557282 0.488864
4275 1 0.471834 0.5625 0.491601
4273 1 0.486127 0.558535 0.488508
1605 1 0.458691 0.566189 0.49792
4343 1 0.499359 0.57896 0.499022
4274 1 0.497149 0.568614 0.493357
4342 1 0.483049 0.570327 0.495733
5392 1 0.473152 0.951127 0.498816
5394 1 0.488128 0.950716 0.494736
5325 1 0.497303 0.940936 0.499401
2728 1 0.439205 0.974297 0.498214
2656 1 0.449533 0.974952 0.492227
2659 1 0.475152 0.963433 0.492231
2657 1 0.458262 0.963555 0.494107
5396 1 0.488748 0.960758 0.487547
130 1 0.402339 0.998857 0.498827
63 1 0.414804 0.994717 0.492724
134 1 0.426397 0.987083 0.495545
65 1 0.439314 0.984241 0.490229
1509 1 0.299528 0.508259 0.511286
1517 1 0.300761 0.499957 0.503408
1584 1 0.310381 0.511577 0.509873
1510 1 0.315781 0.507943 0.503078
1587 1 0.325967 0.517187 0.506362
1522 1 0.339132 0.524057 0.508679
1526 1 0.350101 0.522614 0.502121
1458 1 0.365388 0.529193 0.503803
1595 1 0.350323 0.530431 0.510153
1456 1 0.380111 0.537957 0.506185
1457 1 0.392736 0.538483 0.501778
1670 1 0.403289 0.550939 0.503057
1599 1 0.39375 0.549748 0.51076
1675 1 0.420265 0.557298 0.505417
1531 1 0.433194 0.5617 0.500134
1600 1 0.433265 0.566734 0.509532
1601 1 0.445918 0.568127 0.503267
1606 1 0.445128 0.578301 0.511648
1608 1 0.457749 0.575091 0.506618
4414 1 0.471468 0.582353 0.508468
1607 1 0.469127 0.57398 0.500183
4344 1 0.486645 0.581091 0.502814
4416 1 0.484875 0.589349 0.510333
4485 1 0.495499 0.598176 0.511945
4413 1 0.499748 0.589696 0.506286
5324 1 0.47729 0.931029 0.511236
5256 1 0.491038 0.929797 0.507639
5321 1 0.45325 0.946153 0.510996
5391 1 0.458387 0.9533 0.502469
5393 1 0.467438 0.943368 0.506175
5395 1 0.481824 0.941479 0.502154
64 1 0.410015 0.976795 0.510332
2798 1 0.425857 0.976657 0.505456
2729 1 0.434271 0.966238 0.507595
2588 1 0.445852 0.956783 0.510066
2727 1 0.446291 0.963096 0.500271
61 1 0.388387 0.998217 0.505263
127 1 0.371889 0.999406 0.509064
2792 1 0.400183 0.990679 0.506492
2796 1 0.4135 0.988411 0.502626
1504 1 0.228178 0.502513 0.518745
1440 1 0.256411 0.50542 0.518647
1575 1 0.242118 0.508886 0.52387
1506 1 0.272062 0.509124 0.522993
1514 1 0.300803 0.517303 0.51939
1513 1 0.28571 0.507722 0.516134
1508 1 0.286447 0.51542 0.523824
1589 1 0.317484 0.519377 0.512086
1586 1 0.317458 0.520711 0.520822
1659 1 0.329784 0.52263 0.514736
1593 1 0.339437 0.530267 0.518419
1592 1 0.352369 0.540497 0.519657
1529 1 0.363912 0.536389 0.51333
1665 1 0.368107 0.543935 0.522457
1598 1 0.378969 0.544275 0.515819
1602 1 0.405329 0.558331 0.512092
1743 1 0.390694 0.555898 0.517623
1667 1 0.406937 0.566429 0.520743
1671 1 0.418724 0.566333 0.5141
1673 1 0.431126 0.574565 0.517634
1677 1 0.418638 0.57457 0.522892
1680 1 0.443063 0.584087 0.520104
4411 1 0.456849 0.583944 0.515882
1679 1 0.456915 0.59384 0.521817
4412 1 0.468769 0.589416 0.515786
1676 1 0.469702 0.603352 0.522502
4483 1 0.481066 0.599767 0.517466
4555 1 0.494957 0.608258 0.519416
5255 1 0.480794 0.909847 0.523232
5259 1 0.49842 0.906458 0.517795
5186 1 0.490901 0.897769 0.523587
5322 1 0.471874 0.92089 0.518635
5254 1 0.460121 0.927514 0.52275
5258 1 0.486377 0.919209 0.515438
2655 1 0.430395 0.948475 0.524044
2589 1 0.44915 0.939699 0.519613
2795 1 0.44103 0.950237 0.518536
2590 1 0.463203 0.93403 0.514349
57 1 0.394874 0.971755 0.523806
2788 1 0.409746 0.970418 0.518579
2790 1 0.421289 0.968855 0.514195
2797 1 0.430629 0.958583 0.515438
2794 1 0.419437 0.957563 0.52161
2711 1 0.356952 0.992459 0.520294
58 1 0.384823 0.990425 0.513457
51 1 0.371386 0.993343 0.517696
55 1 0.383779 0.981083 0.522442
59 1 0.396493 0.981028 0.516212
1475 1 0.0166785 0.507344 0.534645
1471 1 -0.000852422 0.512212 0.536936
1404 1 0.00451094 0.50345 0.530004
1407 1 0.0322652 0.501727 0.531508
1478 1 0.0445485 0.503688 0.536268
1487 1 0.14653 0.504375 0.534479
1563 1 0.159172 0.504427 0.527905
1561 1 0.160657 0.512053 0.536788
1424 1 0.176006 0.509346 0.531923
1497 1 0.190067 0.514844 0.533605
1499 1 0.186962 0.503433 0.526823
1503 1 0.217155 0.505097 0.525657
1500 1 0.202982 0.508385 0.528037
1571 1 0.215157 0.514851 0.533539
1568 1 0.201184 0.518614 0.537194
1502 1 0.22867 0.512337 0.530512
1579 1 0.243725 0.517534 0.533876
1438 1 0.256299 0.514576 0.5276
1649 1 0.272406 0.521664 0.528298
1581 1 0.259918 0.523661 0.534471
1577 1 0.274335 0.528671 0.536444
1512 1 0.297437 0.524534 0.526205
1576 1 0.287626 0.526698 0.531895
1585 1 0.302795 0.535878 0.533161
1516 1 0.310336 0.526646 0.527167
1582 1 0.317023 0.5355 0.53075
1588 1 0.327382 0.530289 0.524591
1591 1 0.329942 0.539446 0.532844
1596 1 0.340626 0.539076 0.527087
1590 1 0.343107 0.547487 0.534737
1597 1 0.354308 0.545847 0.528298
1660 1 0.359326 0.552766 0.537292
1739 1 0.382537 0.553324 0.526165
1661 1 0.371022 0.551511 0.52978
1594 1 0.382487 0.561948 0.534029
1744 1 0.391882 0.575486 0.53577
1668 1 0.393638 0.563597 0.526307
1745 1 0.404632 0.576335 0.529111
1817 1 0.432306 0.580922 0.527574
1672 1 0.41985 0.583541 0.530505
1747 1 0.436699 0.589454 0.534722
1678 1 0.44532 0.591591 0.526081
1749 1 0.451013 0.598792 0.536417
4481 1 0.458396 0.599622 0.5297
4482 1 0.463553 0.611418 0.536896
1887 1 0.470757 0.61089 0.530163
4484 1 0.483349 0.61267 0.526379
4621 1 0.497753 0.620912 0.52617
1816 1 0.482887 0.622967 0.531997
4623 1 0.497284 0.634117 0.530168
4622 1 0.499369 0.644832 0.535182
5181 1 0.497699 0.871442 0.534207
5251 1 0.475574 0.888478 0.536068
5182 1 0.485906 0.885933 0.532043
5112 1 0.499716 0.880441 0.527851
2520 1 0.462446 0.900841 0.533688
5257 1 0.475543 0.9011 0.528689
5323 1 0.451395 0.924359 0.528091
5252 1 0.451248 0.912568 0.534035
2725 1 0.439534 0.929106 0.531926
5253 1 0.465922 0.912964 0.527315
2779 1 0.389113 0.953187 0.537645
2786 1 0.39942 0.949285 0.53324
2724 1 0.415925 0.945821 0.528593
2722 1 0.429566 0.938377 0.530333
2793 1 0.414234 0.939298 0.536198
2652 1 0.442905 0.937093 0.526086
44 1 0.343115 0.978671 0.53622
2783 1 0.365712 0.9735 0.532979
2784 1 0.376708 0.964808 0.535289
2785 1 0.378423 0.974477 0.529289
2781 1 0.391305 0.964053 0.531703
2726 1 0.405004 0.960536 0.526588
115 1 0.322244 0.994536 0.536155
2782 1 0.345749 0.990588 0.52557
117 1 0.335551 0.992055 0.531257
2787 1 0.365959 0.983422 0.524769
119 1 0.352621 0.980519 0.52995
1472 1 0.01569 0.517798 0.541268
1402 1 0.0294522 0.512007 0.538798
1476 1 0.0437041 0.51565 0.543587
1548 1 0.0573553 0.50937 0.541776
1479 1 0.076003 0.498208 0.53688
1550 1 0.0732908 0.512229 0.543674
1552 1 0.0870166 0.506843 0.542163
1555 1 0.0848481 0.515517 0.548297
1627 1 0.0984084 0.511051 0.545843
1553 1 0.103372 0.502177 0.538721
1629 1 0.116062 0.507778 0.544469
1560 1 0.131416 0.50591 0.539437
1557 1 0.133186 0.515291 0.546336
1564 1 0.14543 0.514058 0.54141
1635 1 0.161381 0.518432 0.543739
1566 1 0.177705 0.517372 0.53919
1567 1 0.216032 0.52084 0.542116
1573 1 0.229802 0.518541 0.537676
1549 1 0.0127486 0.528674 0.547308
1543 1 -0.00290618 0.536635 0.548765
1547 1 0.0293888 0.523066 0.545833
1621 1 0.058868 0.52076 0.546969
1545 1 0.0441071 0.528924 0.551877
1498 1 0.190288 0.523652 0.54176
1501 1 0.175646 0.525398 0.548803
1496 1 0.204153 0.524712 0.547084
1570 1 0.217336 0.528443 0.549889
1711 1 0.230885 0.527536 0.544533
1572 1 0.244581 0.527561 0.540966
1642 1 0.247574 0.537067 0.548047
1645 1 0.259909 0.533484 0.542222
1650 1 0.274548 0.539419 0.545197
1651 1 0.288886 0.535305 0.539921
1580 1 0.304547 0.544568 0.541067
1511 1 0.290789 0.543525 0.54646
1721 1 0.317153 0.542861 0.537455
1657 1 0.318071 0.550451 0.546651
1583 1 0.330272 0.549404 0.540132
1730 1 0.344561 0.558043 0.542488
1727 1 0.328718 0.558164 0.546762
1664 1 0.358455 0.56465 0.545585
1663 1 0.367932 0.563007 0.539082
1728 1 0.342735 0.567589 0.551577
1662 1 0.370606 0.574051 0.549035
1741 1 0.37818 0.571751 0.542217
1740 1 0.38976 0.584046 0.543445
1674 1 0.404454 0.58459 0.538444
1813 1 0.403267 0.591095 0.546364
1746 1 0.419351 0.589479 0.539041
1748 1 0.432552 0.596866 0.54313
4552 1 0.418162 0.596322 0.548031
4551 1 0.449477 0.609121 0.543932
1819 1 0.437182 0.6076 0.550345
1888 1 0.472727 0.623755 0.537752
1750 1 0.458522 0.62047 0.544233
1889 1 0.468563 0.633762 0.544066
1958 1 0.478369 0.646838 0.545682
1959 1 0.485055 0.636622 0.538723
4556 1 0.49091 0.650938 0.543281
4691 1 0.486978 0.66268 0.546538
4696 1 0.497708 0.670547 0.546189
2445 1 0.49919 0.845213 0.542712
2376 1 0.496503 0.83393 0.548315
2518 1 0.470124 0.86472 0.551566
2517 1 0.487306 0.848583 0.546186
2519 1 0.484841 0.862014 0.544291
2448 1 0.49322 0.859446 0.538827
2516 1 0.444847 0.890243 0.54786
5184 1 0.473793 0.876475 0.543304
2583 1 0.45952 0.878268 0.547622
2584 1 0.459434 0.888187 0.541153
2450 1 0.486078 0.874043 0.537073
2515 1 0.436032 0.904556 0.546045
2586 1 0.445707 0.900419 0.539551
2791 1 0.399596 0.930874 0.54866
2721 1 0.413953 0.929923 0.543224
2585 1 0.426701 0.928707 0.538927
2653 1 0.427115 0.916593 0.544373
2723 1 0.413156 0.918149 0.548234
2654 1 0.438166 0.914804 0.538064
2712 1 0.350982 0.95461 0.54604
52 1 0.362197 0.946477 0.5448
2716 1 0.385707 0.941349 0.545054
49 1 0.375536 0.950359 0.54195
2780 1 0.372849 0.938456 0.548397
2789 1 0.401423 0.939468 0.540959
45 1 0.326209 0.970015 0.547085
2704 1 0.340885 0.968567 0.542693
42 1 0.335026 0.959946 0.549733
50 1 0.366044 0.961611 0.540375
48 1 0.353816 0.96746 0.538181
2768 1 0.290803 0.999438 0.542189
2770 1 0.300039 0.985285 0.546063
2769 1 0.284341 0.991183 0.547206
112 1 0.308954 0.995831 0.540127
2764 1 0.316134 0.984753 0.544751
47 1 0.330282 0.98162 0.539282
1558 1 0.116979 0.51738 0.551752
1562 1 0.149861 0.519342 0.549916
1544 1 0.0117798 0.541494 0.554422
1691 1 0.0265324 0.532301 0.553484
1617 1 0.0427923 0.541411 0.556658
1623 1 0.0587627 0.533615 0.553292
1556 1 0.0732674 0.527145 0.552059
1625 1 0.073795 0.540583 0.558099
1559 1 0.101138 0.522639 0.552489
1624 1 0.087681 0.530243 0.555994
1696 1 0.0999513 0.53404 0.56109
1626 1 0.113363 0.530024 0.557625
1697 1 0.126719 0.524309 0.55852
1628 1 0.13576 0.523397 0.552564
1633 1 0.147317 0.524349 0.557528
1495 1 0.161694 0.524513 0.553184
1703 1 0.163015 0.531259 0.561296
1637 1 0.176747 0.53112 0.557509
1636 1 0.191204 0.535906 0.559983
1705 1 0.18904 0.526506 0.551675
1638 1 0.203912 0.532918 0.55561
1569 1 0.220143 0.537323 0.558903
1712 1 0.233198 0.536012 0.552301
1648 1 0.261817 0.541423 0.550656
1622 1 0.0134762 0.55051 0.562545
1620 1 0.0254288 0.546044 0.557173
1694 1 0.0360101 0.553953 0.561926
1554 1 0.0574384 0.54452 0.560638
1578 1 0.231672 0.545666 0.56063
1643 1 0.249084 0.545549 0.555756
1574 1 0.263858 0.552307 0.559509
1723 1 0.276494 0.549951 0.552645
1722 1 0.277448 0.558996 0.560109
1655 1 0.291407 0.553751 0.555268
1725 1 0.302607 0.56174 0.558946
1654 1 0.305158 0.552047 0.549861
1652 1 0.319238 0.560599 0.554107
1653 1 0.329215 0.571307 0.555849
1729 1 0.343058 0.579059 0.558986
1801 1 0.355744 0.574866 0.554666
1798 1 0.357633 0.585194 0.562869
1666 1 0.38058 0.584862 0.551185
1735 1 0.370604 0.582915 0.557071
1738 1 0.381146 0.593977 0.559147
1818 1 0.391417 0.594622 0.552092
1810 1 0.39407 0.60132 0.558817
1815 1 0.407816 0.600426 0.552285
1820 1 0.423687 0.605599 0.553431
1883 1 0.40911 0.611302 0.559015
1814 1 0.432523 0.618435 0.555319
1742 1 0.422039 0.616257 0.561481
2027 1 0.430413 0.630475 0.561587
1886 1 0.447108 0.6186 0.550174
1882 1 0.443667 0.629847 0.556087
1956 1 0.453446 0.642817 0.55552
1955 1 0.455467 0.631216 0.550272
2093 1 0.442849 0.641159 0.561229
2026 1 0.468594 0.642655 0.551422
2029 1 0.453271 0.654686 0.561788
4692 1 0.476417 0.656761 0.55017
1957 1 0.464767 0.654525 0.55541
2028 1 0.471787 0.670133 0.556214
4767 1 0.483553 0.672062 0.55333
2097 1 0.46569 0.680925 0.562046
4761 1 0.470727 0.693693 0.561745
4764 1 0.494756 0.683387 0.551463
1960 1 0.481245 0.684846 0.558002
4765 1 0.476718 0.704159 0.559101
4901 1 0.498396 0.712565 0.552643
4763 1 0.489043 0.698314 0.553293
2030 1 0.485356 0.717198 0.556956
2098 1 0.476231 0.72177 0.562543
2100 1 0.497572 0.727327 0.554805
2165 1 0.484211 0.733196 0.560293
2167 1 0.493978 0.744644 0.556309
2305 1 0.484365 0.753993 0.559994
4973 1 0.490169 0.780382 0.559592
4975 1 0.495841 0.763733 0.555788
2309 1 0.489852 0.795277 0.558969
2371 1 0.479872 0.824819 0.560089
2442 1 0.498293 0.806324 0.553603
2441 1 0.487894 0.810399 0.558469
2375 1 0.491086 0.822483 0.554183
2374 1 0.47087 0.8416 0.558621
2443 1 0.4834 0.83873 0.553138
2514 1 0.475333 0.85146 0.551616
2444 1 0.460743 0.866993 0.557168
2446 1 0.464573 0.85302 0.556824
2513 1 0.444057 0.870668 0.561482
2512 1 0.435329 0.884745 0.557752
2509 1 0.449378 0.878565 0.55639
2579 1 0.411998 0.90408 0.557977
2651 1 0.397988 0.904402 0.56079
2581 1 0.421289 0.893921 0.559813
2580 1 0.430746 0.896053 0.553002
2587 1 0.423155 0.907618 0.552078
2710 1 0.364024 0.930444 0.555646
2713 1 0.360301 0.921955 0.562329
2649 1 0.39001 0.917264 0.558144
2719 1 0.384629 0.929307 0.553054
2717 1 0.374969 0.922813 0.560304
2650 1 0.404139 0.915691 0.553522
43 1 0.328433 0.950266 0.557412
2771 1 0.343219 0.947245 0.552196
2708 1 0.335028 0.938652 0.559314
2778 1 0.350679 0.934359 0.558932
2714 1 0.356544 0.939431 0.550839
2694 1 0.272069 0.976576 0.56181
2698 1 0.286479 0.968848 0.559593
2772 1 0.291667 0.975446 0.552832
41 1 0.310207 0.976427 0.550056
2776 1 0.315498 0.958337 0.561217
2774 1 0.304628 0.970294 0.557495
111 1 0.319644 0.963884 0.554298
3008 1 0.00445865 0.989477 0.557566
2934 1 0.0110564 1.00031 0.550813
2933 1 0.0215389 0.9943 0.55853
2939 1 0.0388621 0.998175 0.560972
33 1 0.25533 1.00128 0.556688
2624 1 0.267984 0.995935 0.55236
2762 1 0.262834 0.986855 0.559085
2700 1 0.278793 0.982861 0.55403
1765 1 0.0850447 0.541583 0.563477
1631 1 0.10803 0.541547 0.568077
1766 1 0.121852 0.535843 0.56504
1699 1 0.135428 0.53164 0.562291
1632 1 0.148222 0.534056 0.566309
1630 1 0.134057 0.540313 0.569629
1634 1 0.163486 0.540117 0.570696
1700 1 0.177221 0.536846 0.566228
1640 1 0.193343 0.543502 0.56829
1690 1 0.025048 0.561351 0.566556
1695 1 0.0515315 0.555555 0.566637
1693 1 0.0707422 0.547943 0.566382
1764 1 0.0665327 0.557472 0.573165
1761 1 0.0815589 0.550381 0.573388
1768 1 0.0944087 0.544531 0.569351
1698 1 0.11988 0.54434 0.570981
1771 1 0.149204 0.543277 0.575327
1701 1 0.179566 0.545426 0.575812
1706 1 0.205974 0.541252 0.56374
1707 1 0.20658 0.550973 0.571257
1646 1 0.220355 0.556901 0.57378
1641 1 0.220208 0.547623 0.566024
1639 1 0.232356 0.555305 0.568602
1647 1 0.246523 0.55366 0.564835
1644 1 0.247718 0.562413 0.572199
1719 1 0.261963 0.559389 0.567541
1720 1 0.277444 0.563858 0.5698
1795 1 0.289611 0.561976 0.564316
1546 1 0.00964783 0.565317 0.568439
1618 1 0.0389805 0.567453 0.568965
1613 1 0.0262873 0.575347 0.573073
1762 1 0.053427 0.565556 0.5743
1717 1 0.262661 0.570686 0.574054
1797 1 0.30373 0.569726 0.566944
1796 1 0.28899 0.573562 0.571606
1865 1 0.299504 0.583415 0.572237
1658 1 0.317201 0.568204 0.561824
1656 1 0.314979 0.582394 0.568825
1799 1 0.326323 0.580634 0.564694
1726 1 0.324649 0.591487 0.571551
1800 1 0.340536 0.589636 0.566905
1734 1 0.338204 0.600206 0.574438
1737 1 0.369865 0.593479 0.565092
1731 1 0.35345 0.595446 0.569384
1736 1 0.369339 0.602316 0.571409
1805 1 0.381658 0.603586 0.566325
1733 1 0.381453 0.613734 0.573344
1885 1 0.395914 0.612291 0.566568
1811 1 0.409066 0.619721 0.567359
1809 1 0.395574 0.621777 0.574211
1884 1 0.418018 0.628385 0.568095
1807 1 0.408116 0.629487 0.574659
1953 1 0.428729 0.642321 0.568537
1880 1 0.417756 0.638443 0.575362
2024 1 0.442578 0.651129 0.56861
2022 1 0.446859 0.667264 0.567547
2025 1 0.436263 0.663664 0.57358
2091 1 0.457675 0.669036 0.562037
2095 1 0.455253 0.683256 0.567849
2089 1 0.447016 0.693218 0.575072
2094 1 0.45351 0.70525 0.573748
2099 1 0.461244 0.69558 0.568026
4831 1 0.465704 0.709694 0.56508
2096 1 0.458687 0.717414 0.569794
2162 1 0.457333 0.733629 0.573242
2164 1 0.467189 0.727347 0.56763
2239 1 0.473056 0.738163 0.564059
2166 1 0.472819 0.755005 0.564426
2235 1 0.463971 0.746776 0.569091
2240 1 0.461888 0.761562 0.57059
2236 1 0.472205 0.772114 0.566795
2238 1 0.458791 0.775972 0.57332
2168 1 0.484238 0.767046 0.562541
2303 1 0.45655 0.794092 0.573294
2308 1 0.476326 0.798589 0.564669
2306 1 0.466135 0.788003 0.569106
2302 1 0.465085 0.802553 0.570396
5041 1 0.480205 0.783783 0.564704
2372 1 0.450268 0.806867 0.573607
2368 1 0.444026 0.822979 0.574276
2304 1 0.474523 0.81366 0.564666
2298 1 0.460517 0.81679 0.569846
2370 1 0.453033 0.833535 0.570386
2439 1 0.444939 0.8488 0.57233
2440 1 0.457487 0.843144 0.564548
2373 1 0.464359 0.825849 0.565339
2507 1 0.428811 0.850522 0.574854
2578 1 0.423177 0.866928 0.571617
2511 1 0.451441 0.8558 0.562842
2577 1 0.438515 0.85972 0.568604
2576 1 0.40708 0.872889 0.575281
2647 1 0.39827 0.88422 0.571899
2582 1 0.413582 0.881015 0.566557
2510 1 0.428989 0.875432 0.564644
2643 1 0.3757 0.903235 0.571648
2648 1 0.383692 0.909408 0.564172
2644 1 0.389677 0.897532 0.568592
2646 1 0.404865 0.892219 0.563788
2637 1 0.322587 0.92489 0.575594
2633 1 0.334716 0.921701 0.572252
2706 1 0.343056 0.926712 0.564907
2709 1 0.351086 0.914955 0.569481
2720 1 0.369111 0.912449 0.56815
5596 1 0.00353448 0.956569 0.575095
2703 1 0.289968 0.955396 0.569927
2702 1 0.296825 0.941454 0.574368
2707 1 0.311433 0.937641 0.571052
2773 1 0.305478 0.948457 0.567851
2777 1 0.319007 0.945182 0.564554
2638 1 0.327591 0.936262 0.568244
2865 1 0.00829989 0.967849 0.568555
5598 1 0.0242131 0.975448 0.569842
2867 1 0.038125 0.975671 0.571843
2623 1 0.251588 0.973701 0.574794
2699 1 0.274763 0.96102 0.572012
2696 1 0.265825 0.971856 0.570312
2634 1 0.282843 0.96402 0.566537
2767 1 0.298987 0.958599 0.564033
2866 1 0.0142792 0.980123 0.56328
2937 1 0.0301382 0.986659 0.564523
2869 1 0.0565517 0.980369 0.572784
2666 1 0.0477905 0.98912 0.567419
2868 1 0.0627427 0.992683 0.567106
5 1 0.0727651 0.981963 0.570195
2667 1 0.0793593 0.994697 0.568059
2663 1 0.0882026 0.985098 0.572192
2600 1 0.0949247 0.99861 0.56633
2736 1 0.102211 0.985898 0.570265
2604 1 0.12523 1.00072 0.565792
2735 1 0.109341 0.996759 0.567634
2743 1 0.119654 0.988357 0.572378
2677 1 0.13567 0.990024 0.571873
2608 1 0.152723 0.992677 0.572739
2755 1 0.167548 0.998376 0.572732
2684 1 0.20377 0.99987 0.571284
35 1 0.234918 0.997448 0.566276
2622 1 0.226895 0.988191 0.575141
2693 1 0.256558 0.982421 0.567688
2692 1 0.249717 0.99269 0.563775
2695 1 0.241398 0.987246 0.570959
1692 1 0.0790268 0.562559 0.579564
1763 1 0.094491 0.555466 0.576912
1836 1 0.108027 0.560852 0.582378
1832 1 0.107862 0.551594 0.575473
1767 1 0.122239 0.553106 0.578324
1835 1 0.119746 0.565663 0.587858
1837 1 0.134881 0.556818 0.585115
1769 1 0.134373 0.548617 0.577409
1772 1 0.149296 0.552725 0.581737
1704 1 0.164195 0.550958 0.57904
1702 1 0.1644 0.557064 0.586079
1709 1 0.179322 0.556129 0.583148
1708 1 0.192366 0.553086 0.576925
1710 1 0.191675 0.562925 0.586093
1781 1 0.205489 0.55869 0.580544
1716 1 0.23263 0.565654 0.576969
1753 1 0.0109009 0.579827 0.575104
1756 1 0.0252461 0.581284 0.580948
1760 1 0.0402121 0.576694 0.578662
1823 1 0.0382962 0.586505 0.584969
1759 1 0.0516322 0.578808 0.581337
1831 1 0.0671492 0.571789 0.581526
1834 1 0.0819943 0.576234 0.585895
1827 1 0.0674005 0.586606 0.585609
1900 1 0.0924778 0.568504 0.582951
1713 1 0.21912 0.57071 0.580061
1782 1 0.205646 0.572056 0.58712
1715 1 0.231997 0.575165 0.583953
1718 1 0.247922 0.57253 0.581167
1794 1 0.261429 0.578034 0.5827
1724 1 0.27541 0.575438 0.577699
1863 1 0.286626 0.584381 0.577587
1757 1 0.0111137 0.584848 0.58285
1792 1 0.271984 0.588161 0.583343
1868 1 0.298039 0.595537 0.581041
1864 1 0.283325 0.594799 0.58432
1937 1 0.295259 0.605992 0.585068
1867 1 0.311282 0.591885 0.575285
1802 1 0.310605 0.603139 0.58231
1732 1 0.324266 0.6019 0.57965
1804 1 0.354377 0.606029 0.577324
1870 1 0.324797 0.611979 0.58574
1875 1 0.338767 0.61154 0.582345
1803 1 0.338072 0.623717 0.586212
1806 1 0.369597 0.615655 0.578314
1808 1 0.354603 0.622532 0.582172
1879 1 0.383512 0.624424 0.579172
1881 1 0.365498 0.630813 0.583593
1952 1 0.381837 0.638249 0.585969
1812 1 0.396898 0.636064 0.580018
1949 1 0.395441 0.64989 0.587103
1951 1 0.40809 0.646859 0.58123
1950 1 0.402252 0.663899 0.587401
1954 1 0.427176 0.650993 0.576347
2023 1 0.417854 0.657086 0.58157
2020 1 0.428614 0.67117 0.58036
1948 1 0.412066 0.67517 0.584694
1946 1 0.421066 0.686654 0.586022
2092 1 0.437351 0.678601 0.574733
2016 1 0.434594 0.687444 0.581094
2021 1 0.428532 0.701521 0.584263
2088 1 0.427351 0.714895 0.585993
2090 1 0.439056 0.707458 0.579847
2159 1 0.425519 0.730309 0.58805
2163 1 0.451024 0.72162 0.576689
2161 1 0.435482 0.723257 0.582595
2232 1 0.446736 0.737819 0.579251
2157 1 0.433683 0.741716 0.585406
2231 1 0.43056 0.757583 0.585848
2234 1 0.454119 0.750023 0.575099
2233 1 0.44584 0.754368 0.58097
2237 1 0.450051 0.766809 0.576045
2230 1 0.440225 0.769808 0.5824
2300 1 0.446561 0.782755 0.57915
2301 1 0.432757 0.78775 0.584642
2435 1 0.427835 0.802778 0.585068
2369 1 0.44168 0.797976 0.579308
2432 1 0.421399 0.818533 0.583835
2367 1 0.436141 0.813613 0.579498
2437 1 0.421105 0.844166 0.580024
2436 1 0.427305 0.830005 0.580113
2505 1 0.415285 0.833762 0.58683
2438 1 0.436092 0.838469 0.57477
2573 1 0.386419 0.865505 0.58499
2508 1 0.409851 0.8465 0.583509
2574 1 0.399403 0.861773 0.582288
2506 1 0.414562 0.857931 0.577324
2570 1 0.384029 0.889009 0.575783
2575 1 0.376509 0.880496 0.582825
2645 1 0.389979 0.87582 0.57864
2486 1 0.319906 0.907927 0.587355
2631 1 0.336493 0.902613 0.586687
2562 1 0.330269 0.913 0.580001
2715 1 0.345977 0.908976 0.578013
2718 1 0.360869 0.905426 0.576087
2642 1 0.36841 0.893853 0.57999
2640 1 0.351868 0.895805 0.584257
5527 1 0.00553504 0.93209 0.582571
2556 1 0.278298 0.936232 0.584634
2775 1 0.297504 0.919756 0.584417
2632 1 0.291938 0.930996 0.581522
2635 1 0.305429 0.930627 0.577399
2636 1 0.310869 0.918135 0.582255
5597 1 0.0109703 0.947715 0.580395
5456 1 0.0212748 0.937774 0.586855
5528 1 0.0262936 0.950782 0.582858
2594 1 0.0414307 0.955566 0.581141
5458 1 0.0499074 0.944948 0.587021
2592 1 0.0658229 0.950551 0.586897
2621 1 0.255043 0.953083 0.58505
2626 1 0.268906 0.949914 0.580917
2484 1 0.282177 0.948482 0.578092
5599 1 0.0187331 0.960603 0.575593
5600 1 0.0333204 0.965462 0.57796
2661 1 0.0554995 0.95772 0.582271
5530 1 0.0499401 0.970734 0.577865
2870 1 0.065833 0.96936 0.57755
71 1 0.0730436 0.963546 0.583266
3 1 0.0820469 0.976467 0.576711
2731 1 0.0893801 0.965216 0.583106
2669 1 0.0961924 0.977729 0.577709
1 1 0.105381 0.966165 0.583
2596 1 0.113457 0.974724 0.577318
2733 1 0.122062 0.965654 0.58222
2607 1 0.139384 0.970289 0.583814
2599 1 0.130237 0.977506 0.577921
2542 1 0.155921 0.971888 0.584026
2616 1 0.172452 0.976745 0.583443
2536 1 0.167631 0.960781 0.587093
2617 1 0.197661 0.967656 0.587079
2763 1 0.230746 0.967298 0.584663
2619 1 0.236025 0.977051 0.577236
2613 1 0.220465 0.975926 0.581354
2615 1 0.246231 0.96502 0.582297
2697 1 0.260688 0.9619 0.577501
2610 1 0.149378 0.982893 0.578037
2612 1 0.163 0.985066 0.578076
2685 1 0.187265 0.978076 0.58264
2753 1 0.179979 0.991875 0.578962
2611 1 0.195246 0.994249 0.577294
2690 1 0.212737 0.990472 0.577017
2618 1 0.202122 0.981487 0.580536
1774 1 0.148691 0.560621 0.588588
1906 1 0.0929736 0.581635 0.592208
1905 1 0.1064 0.571455 0.590631
1904 1 0.108513 0.584506 0.596651
1828 1 0.121692 0.57586 0.596494
1839 1 0.134423 0.581396 0.598243
1775 1 0.134154 0.56619 0.593173
1773 1 0.146876 0.572182 0.595212
1779 1 0.162388 0.566637 0.593631
1851 1 0.159191 0.58188 0.59958
1853 1 0.178532 0.565807 0.590011
1855 1 0.176871 0.58003 0.595268
1783 1 0.191509 0.575621 0.592676
1991 1 0.190086 0.588808 0.59726
1784 1 0.206114 0.582994 0.594139
1714 1 0.216669 0.579497 0.588591
1787 1 0.230332 0.586103 0.591006
1793 1 0.24401 0.580846 0.58729
1895 1 0.0116883 0.598058 0.587686
1825 1 0.0224631 0.607521 0.592652
1824 1 0.0243037 0.593749 0.58767
1826 1 0.0385653 0.598842 0.59088
1829 1 0.0503281 0.591948 0.588302
1896 1 0.0484093 0.603718 0.595778
1899 1 0.0635388 0.593726 0.593519
1969 1 0.0631796 0.609172 0.597714
1758 1 0.0765833 0.590393 0.592604
1830 1 0.078921 0.602685 0.598064
1833 1 0.0917847 0.592752 0.597001
1785 1 0.218514 0.591322 0.595191
1789 1 0.231494 0.599093 0.596641
1790 1 0.256558 0.588582 0.588575
1791 1 0.24443 0.592018 0.592339
1860 1 0.254537 0.601216 0.595546
1859 1 0.241297 0.607939 0.598418
1931 1 0.268386 0.597743 0.588674
1861 1 0.283332 0.606493 0.589783
1897 1 0.00803185 0.611708 0.593122
1965 1 0.0201441 0.620373 0.597482
2036 1 0.00734306 0.624212 0.597069
1898 1 0.0361328 0.615007 0.598383
1930 1 0.268676 0.611254 0.594884
1862 1 0.279558 0.625212 0.594485
1866 1 0.290543 0.617799 0.591304
1869 1 0.307748 0.615503 0.587354
1872 1 0.323964 0.6243 0.589506
1938 1 0.305035 0.629051 0.591941
1935 1 0.291569 0.634006 0.596286
2009 1 0.319996 0.636441 0.593057
1941 1 0.307497 0.643416 0.596781
1874 1 0.33523 0.636908 0.590783
1871 1 0.335853 0.649008 0.59659
1876 1 0.352365 0.638357 0.588482
1942 1 0.350441 0.646452 0.594082
1877 1 0.367402 0.64465 0.590246
1878 1 0.381376 0.649359 0.591862
1945 1 0.363917 0.654206 0.59513
1940 1 0.348792 0.659182 0.598807
2017 1 0.361727 0.670299 0.600183
2019 1 0.388048 0.663629 0.59199
1947 1 0.375944 0.662033 0.596742
1944 1 0.36957 0.683112 0.59946
2014 1 0.382759 0.679479 0.597563
2086 1 0.404828 0.688428 0.58932
2018 1 0.396011 0.676306 0.590483
2085 1 0.391182 0.691003 0.59415
2083 1 0.380016 0.697073 0.597793
2015 1 0.388492 0.709455 0.596629
2158 1 0.399543 0.702622 0.591334
2087 1 0.412924 0.700961 0.588904
2222 1 0.387611 0.724171 0.599758
2225 1 0.402026 0.718039 0.593745
2160 1 0.41078 0.73402 0.592818
2227 1 0.397688 0.737218 0.597545
2155 1 0.416236 0.718849 0.590682
2229 1 0.40799 0.749329 0.595071
2290 1 0.390625 0.751983 0.599898
2299 1 0.421037 0.744825 0.591593
2294 1 0.402721 0.763677 0.596443
2288 1 0.399744 0.778097 0.598326
2292 1 0.417665 0.760656 0.590528
2365 1 0.414404 0.776634 0.592996
2293 1 0.426274 0.7748 0.588017
2296 1 0.406498 0.793465 0.594582
2364 1 0.39135 0.794519 0.599218
2297 1 0.420401 0.792249 0.589218
2429 1 0.386793 0.812328 0.596152
2428 1 0.372642 0.814893 0.597661
2501 1 0.407874 0.820912 0.588747
2360 1 0.398195 0.806477 0.594125
2366 1 0.414026 0.806304 0.588368
2433 1 0.379941 0.828448 0.596779
2497 1 0.370377 0.841888 0.597139
2503 1 0.38805 0.840722 0.592861
2434 1 0.401295 0.835006 0.588835
2500 1 0.394584 0.826085 0.593158
2566 1 0.33737 0.86528 0.599637
2571 1 0.354465 0.858889 0.597983
2567 1 0.366469 0.854097 0.593543
2569 1 0.357188 0.8702 0.594004
2502 1 0.37929 0.854653 0.590309
2572 1 0.37048 0.869907 0.590422
2504 1 0.395838 0.85062 0.588232
2426 1 0.32172 0.887623 0.59835
2629 1 0.309283 0.88355 0.599417
2496 1 0.33619 0.880007 0.59815
2641 1 0.361967 0.885001 0.588794
2563 1 0.349735 0.879026 0.595717
5310 1 0.0119005 0.909955 0.594597
5379 1 0.0034689 0.897819 0.598561
2705 1 0.290128 0.910879 0.592941
2558 1 0.283978 0.899858 0.600093
2627 1 0.297143 0.895989 0.596983
2560 1 0.302663 0.908335 0.589414
2559 1 0.313989 0.898283 0.593105
2639 1 0.345678 0.890443 0.592701
2564 1 0.330772 0.896486 0.592788
5384 1 0.014202 0.92595 0.591563
5314 1 0.0260649 0.918236 0.596381
5386 1 0.0297214 0.932041 0.59172
5317 1 0.0416874 0.924015 0.598692
5385 1 0.0552605 0.926682 0.597943
2662 1 0.0716097 0.926155 0.597106
2522 1 0.0849162 0.932142 0.597135
2553 1 0.256193 0.929574 0.596653
2550 1 0.240478 0.929353 0.59802
2628 1 0.276288 0.912211 0.597367
2555 1 0.270931 0.924466 0.592825
2701 1 0.283616 0.925009 0.589853
5529 1 0.0345727 0.94375 0.588374
5387 1 0.0453316 0.937084 0.593411
5460 1 0.0630502 0.937248 0.592258
2593 1 0.0763134 0.943378 0.592647
2732 1 0.0822949 0.953595 0.587758
2597 1 0.0907196 0.947861 0.59465
2665 1 0.0984403 0.957107 0.590629
2523 1 0.102893 0.937766 0.599131
2595 1 0.118811 0.936878 0.599059
2527 1 0.109339 0.947061 0.59315
2591 1 0.125048 0.946994 0.593413
2602 1 0.142485 0.950081 0.592887
2671 1 0.13545 0.937534 0.599275
2606 1 0.151188 0.938489 0.598161
2471 1 0.159341 0.950756 0.592293
2601 1 0.168738 0.940593 0.598751
2474 1 0.177565 0.94906 0.592211
2472 1 0.186037 0.940755 0.597121
2540 1 0.193817 0.954652 0.593516
2401 1 0.207577 0.953496 0.59268
2468 1 0.20161 0.944355 0.599933
2546 1 0.233695 0.943867 0.594741
2547 1 0.22441 0.956133 0.591233
2544 1 0.216998 0.94593 0.597462
2548 1 0.240866 0.954496 0.59006
2691 1 0.24836 0.938711 0.592735
2551 1 0.265565 0.937502 0.590242
2598 1 0.115737 0.959054 0.588245
2538 1 0.150977 0.960371 0.588495
2668 1 0.132241 0.957821 0.587577
2537 1 0.183887 0.964048 0.588106
2539 1 0.214354 0.965837 0.588247
1970 1 0.0933552 0.608683 0.602332
1977 1 0.106413 0.597468 0.60143
1777 1 0.121494 0.592263 0.600134
1901 1 0.120459 0.605473 0.605612
1843 1 0.132478 0.595901 0.605283
1780 1 0.145502 0.587741 0.601365
1778 1 0.145293 0.600593 0.606553
1849 1 0.160587 0.593672 0.605701
1841 1 0.158729 0.605101 0.609928
1921 1 0.175545 0.587644 0.602465
1922 1 0.177496 0.597863 0.608969
1852 1 0.190628 0.591614 0.605104
1856 1 0.192259 0.601417 0.611065
1786 1 0.205603 0.592944 0.599949
1927 1 0.205976 0.600351 0.607114
1788 1 0.219741 0.599747 0.601881
1857 1 0.234339 0.607342 0.605043
1854 1 0.219518 0.610341 0.609438
2109 1 0.0499521 0.617409 0.601239
1902 1 0.0630025 0.621285 0.603797
1903 1 0.0759129 0.614335 0.602342
1974 1 0.0783606 0.626392 0.608098
1975 1 0.091159 0.619441 0.607339
1908 1 0.103614 0.61071 0.607195
1910 1 0.102803 0.6242 0.612372
1979 1 0.119974 0.617826 0.612206
1770 1 0.134864 0.610971 0.608976
1928 1 0.231888 0.619386 0.612033
1929 1 0.256613 0.613731 0.601749
1858 1 0.244183 0.617596 0.607217
1999 1 0.256807 0.626328 0.607242
2001 1 0.267629 0.626054 0.600397
2032 1 0.0122303 0.647207 0.606799
2038 1 0.00552496 0.635548 0.603213
1968 1 0.0192054 0.635117 0.600401
1967 1 0.0318827 0.632005 0.602263
2043 1 0.0265641 0.644705 0.60747
2111 1 0.0416474 0.646476 0.608628
2112 1 0.0483786 0.631512 0.604428
1973 1 0.053547 0.64231 0.608687
2045 1 0.0610984 0.652604 0.610798
1976 1 0.0668734 0.635688 0.606723
1972 1 0.0745717 0.641349 0.611804
1912 1 0.0876615 0.63483 0.610981
2002 1 0.253984 0.641029 0.611467
1932 1 0.266078 0.64076 0.60631
1933 1 0.278633 0.639124 0.60109
1934 1 0.277301 0.649719 0.606799
1939 1 0.294695 0.64724 0.600492
1943 1 0.320042 0.654333 0.598822
2103 1 0.00876156 0.666528 0.610322
2042 1 0.0241496 0.65849 0.611719
2006 1 0.277666 0.663124 0.612595
2007 1 0.290171 0.658243 0.608206
2079 1 0.302466 0.668889 0.60972
1936 1 0.3068 0.657737 0.603677
2008 1 0.317806 0.665544 0.605296
1873 1 0.333174 0.664137 0.601451
2080 1 0.345908 0.674346 0.603931
4825 1 0.00625485 0.681023 0.612732
2074 1 0.315239 0.681606 0.610508
2078 1 0.327276 0.692671 0.6091
2011 1 0.332177 0.676434 0.606946
2012 1 0.340631 0.690018 0.607158
2010 1 0.355633 0.686108 0.602866
2076 1 0.311458 0.698933 0.611618
2147 1 0.323279 0.710626 0.610339
2151 1 0.336972 0.706356 0.608675
2082 1 0.351952 0.702164 0.606233
2013 1 0.36754 0.696843 0.602233
2084 1 0.360914 0.715283 0.604823
2154 1 0.373606 0.713742 0.60147
2150 1 0.335539 0.724777 0.611603
2152 1 0.344013 0.736133 0.612123
2153 1 0.34708 0.718519 0.60895
2223 1 0.359211 0.729357 0.608567
2226 1 0.372069 0.728608 0.602934
2224 1 0.357687 0.747783 0.610718
2359 1 0.369974 0.743127 0.60711
2156 1 0.384132 0.739526 0.603413
2228 1 0.380627 0.755284 0.60467
2221 1 0.366679 0.760899 0.609348
2357 1 0.361484 0.774823 0.610774
2361 1 0.375846 0.772414 0.605733
2363 1 0.386593 0.768309 0.601955
2289 1 0.353232 0.790456 0.608198
2358 1 0.369712 0.784943 0.604954
2431 1 0.364213 0.801933 0.602952
2295 1 0.38429 0.785445 0.602899
2362 1 0.377821 0.801941 0.601362
2420 1 0.344263 0.822521 0.606416
2352 1 0.334293 0.811685 0.611368
2356 1 0.346564 0.806708 0.607447
2216 1 0.356409 0.816758 0.603221
5098 1 0.00118632 0.842296 0.614126
2491 1 0.323308 0.846394 0.610187
2427 1 0.336565 0.837161 0.608079
2494 1 0.329945 0.827831 0.612133
2349 1 0.347734 0.834956 0.602881
2495 1 0.356601 0.843685 0.599638
2430 1 0.364061 0.827855 0.600716
5236 1 0.00554485 0.858347 0.611039
2492 1 0.298888 0.861807 0.611284
2423 1 0.314372 0.860931 0.608816
2568 1 0.341674 0.850366 0.602605
2425 1 0.326747 0.859956 0.60397
5242 1 0.00865729 0.873397 0.607925
5247 1 0.0115009 0.889971 0.605224
2381 1 0.0216003 0.880944 0.610974
2485 1 0.251905 0.889335 0.609756
2498 1 0.275225 0.875825 0.61008
2630 1 0.279582 0.890005 0.605262
2488 1 0.266493 0.887932 0.608754
2625 1 0.292945 0.885214 0.603054
2565 1 0.290543 0.874374 0.609669
2499 1 0.321345 0.873942 0.601459
2493 1 0.305926 0.87378 0.605287
5381 1 0.0185669 0.903313 0.600938
5316 1 0.0261694 0.896684 0.607973
5315 1 0.033791 0.90932 0.603647
2382 1 0.042241 0.903967 0.609442
5389 1 0.059136 0.903203 0.610725
5459 1 0.0749208 0.9067 0.609638
2454 1 0.0888943 0.908787 0.609223
2670 1 0.099365 0.899383 0.612626
5179 1 0.113001 0.901065 0.612097
2463 1 0.212625 0.91304 0.612404
2470 1 0.195554 0.910913 0.612244
2410 1 0.226345 0.909908 0.60877
2481 1 0.237267 0.895463 0.611487
2479 1 0.241498 0.904294 0.607003
2483 1 0.255667 0.901628 0.605417
2554 1 0.268854 0.901562 0.602365
5318 1 0.050861 0.913477 0.60312
5388 1 0.06707 0.916746 0.603469
5390 1 0.0808422 0.916543 0.604041
2524 1 0.0936325 0.924437 0.602937
2388 1 0.103634 0.913127 0.607941
2456 1 0.120514 0.91351 0.610274
2535 1 0.111497 0.924712 0.603646
2526 1 0.126748 0.925127 0.605879
2673 1 0.141327 0.92635 0.60411
2529 1 0.13803 0.913075 0.610118
2605 1 0.153446 0.917227 0.608431
2469 1 0.171247 0.919848 0.609287
2683 1 0.159382 0.926594 0.603654
2473 1 0.186127 0.919979 0.60918
2543 1 0.177109 0.932404 0.603751
2480 1 0.194863 0.931255 0.604862
2549 1 0.203497 0.922625 0.607958
2477 1 0.220358 0.92263 0.607206
2545 1 0.235019 0.920223 0.604372
2482 1 0.248376 0.915931 0.601391
2557 1 0.262527 0.914509 0.599787
2541 1 0.213098 0.934534 0.603882
2478 1 0.228258 0.934733 0.601972
1848 1 0.185339 0.608665 0.617021
1838 1 0.131692 0.623826 0.616135
1909 1 0.147881 0.615001 0.613264
1983 1 0.147565 0.62786 0.619446
1847 1 0.17117 0.608061 0.614165
1915 1 0.162837 0.619523 0.618597
1845 1 0.180838 0.619367 0.621383
1850 1 0.190389 0.627751 0.625225
1925 1 0.196359 0.615516 0.618351
1926 1 0.204245 0.608139 0.614329
1844 1 0.204328 0.623812 0.622504
1997 1 0.21486 0.621722 0.616355
1984 1 0.1016 0.639597 0.616665
1981 1 0.0862454 0.647988 0.6168
1907 1 0.115721 0.632722 0.615387
1917 1 0.115477 0.64725 0.62007
1840 1 0.128693 0.636199 0.620098
1776 1 0.144632 0.643033 0.623932
1842 1 0.158216 0.631041 0.624476
2069 1 0.21769 0.635075 0.621998
1996 1 0.231096 0.632016 0.615775
2071 1 0.228614 0.644958 0.620822
1998 1 0.243481 0.628874 0.612318
2067 1 0.240791 0.643769 0.616681
2113 1 0.0320219 0.66918 0.613919
2040 1 0.0454745 0.658257 0.611821
2115 1 0.0602299 0.664946 0.615099
2110 1 0.075658 0.658289 0.616976
1971 1 0.0896231 0.663841 0.619521
1911 1 0.100655 0.651864 0.6214
1978 1 0.102349 0.669887 0.625328
2073 1 0.237301 0.657722 0.622385
2000 1 0.248543 0.6554 0.616611
2005 1 0.250405 0.669448 0.621966
2003 1 0.26425 0.651412 0.611413
2004 1 0.262266 0.666022 0.617931
2081 1 0.288904 0.672189 0.614111
2107 1 0.020352 0.674365 0.61525
2105 1 0.0196122 0.691113 0.616654
2108 1 0.0333403 0.683435 0.619031
2044 1 0.0465531 0.674506 0.617667
2178 1 0.0476049 0.688445 0.620823
2046 1 0.0625949 0.677256 0.619706
4970 1 0.061113 0.692197 0.621807
2181 1 0.0758863 0.675177 0.619018
2116 1 0.0753414 0.688152 0.623277
2119 1 0.0885083 0.677087 0.623933
2072 1 0.26323 0.681962 0.624901
2143 1 0.272508 0.676549 0.618358
2144 1 0.272765 0.692027 0.62221
2077 1 0.297927 0.682151 0.614252
2075 1 0.286139 0.690304 0.616224
2039 1 0.0041543 0.696976 0.614782
4826 1 0.0158267 0.70452 0.618818
4965 1 0.00271727 0.714753 0.615787
4892 1 0.0310468 0.697167 0.62121
2179 1 0.031437 0.711499 0.622405
4966 1 0.0440847 0.718224 0.624043
2180 1 0.0466597 0.702722 0.62269
2212 1 0.27009 0.707604 0.625197
2213 1 0.282854 0.703537 0.619956
2145 1 0.298837 0.699356 0.615617
2283 1 0.295042 0.71504 0.619987
2215 1 0.306216 0.714226 0.614923
5030 1 0.00462497 0.731545 0.617085
2101 1 0.0168323 0.721317 0.620503
4900 1 0.0166287 0.737918 0.622799
2281 1 0.281296 0.721611 0.623092
2282 1 0.294439 0.731779 0.623707
2214 1 0.306588 0.730193 0.618741
2148 1 0.319443 0.727463 0.61314
5029 1 0.00399783 0.750018 0.620071
4963 1 0.0153057 0.760636 0.624218
2279 1 0.303451 0.745058 0.623965
2284 1 0.316359 0.743831 0.619662
2351 1 0.314281 0.757885 0.622913
2149 1 0.332215 0.741631 0.614843
2218 1 0.327327 0.757227 0.617131
2146 1 0.34179 0.75148 0.612542
5095 1 0.00313794 0.767449 0.621246
4822 1 0.0162269 0.774044 0.623521
4960 1 0.00433496 0.783107 0.618959
2206 1 0.301529 0.761245 0.622967
2219 1 0.30628 0.774202 0.623341
2220 1 0.322109 0.771222 0.620178
2291 1 0.337322 0.766212 0.616643
2286 1 0.348391 0.78 0.615336
2287 1 0.352856 0.765474 0.612441
5097 1 0.00515799 0.800718 0.6189
5102 1 0.0146013 0.790163 0.622476
2280 1 0.305238 0.79174 0.624352
2285 1 0.317052 0.788852 0.620056
2277 1 0.325673 0.800686 0.617617
2217 1 0.333369 0.783389 0.617508
2355 1 0.340408 0.79754 0.612709
5172 1 0.00706881 0.814788 0.618343
5173 1 0.0189255 0.80579 0.621581
5110 1 0.0210505 0.821773 0.621179
2489 1 0.275661 0.823988 0.623693
2350 1 0.282091 0.809478 0.624355
2348 1 0.297035 0.807791 0.622193
2343 1 0.292037 0.820824 0.619838
2415 1 0.311761 0.804194 0.620436
2421 1 0.304865 0.820178 0.620707
2424 1 0.320897 0.817524 0.616553
5239 1 0.0103164 0.829169 0.617088
5243 1 0.014681 0.844462 0.616192
5171 1 0.0254937 0.837887 0.619542
5104 1 0.0416705 0.843494 0.622696
5038 1 0.0346009 0.827746 0.623894
2418 1 0.251921 0.846825 0.623766
2344 1 0.266997 0.838666 0.622291
2561 1 0.284591 0.834969 0.620514
2416 1 0.300199 0.835274 0.616973
2276 1 0.316125 0.832928 0.616382
2422 1 0.308686 0.847476 0.612398
5313 1 0.0188617 0.859609 0.615191
5174 1 0.0300834 0.852521 0.617648
5311 1 0.0438331 0.858701 0.620013
5249 1 0.0566918 0.866076 0.622517
5176 1 0.0553352 0.850753 0.624721
2392 1 0.144687 0.86491 0.625587
2413 1 0.250869 0.864464 0.619626
2338 1 0.24186 0.857974 0.624597
2409 1 0.260986 0.853511 0.621193
2487 1 0.275459 0.851518 0.61816
2412 1 0.266729 0.86517 0.615878
2490 1 0.282115 0.862936 0.614302
2419 1 0.293184 0.8482 0.615639
5250 1 0.0369379 0.888239 0.614647
5244 1 0.0322459 0.869111 0.617619
5245 1 0.046648 0.877892 0.618365
2451 1 0.0622688 0.882875 0.61925
5177 1 0.0710915 0.873957 0.623314
2312 1 0.0789768 0.88457 0.620406
2314 1 0.0881824 0.873483 0.623379
2383 1 0.0971844 0.887833 0.617966
5108 1 0.105917 0.875374 0.622861
2452 1 0.114221 0.888039 0.617252
2457 1 0.127464 0.889106 0.618089
2453 1 0.120903 0.875569 0.622373
2390 1 0.153101 0.880803 0.623132
2458 1 0.137113 0.87758 0.622328
2528 1 0.167195 0.881848 0.621325
2465 1 0.182479 0.884974 0.621549
2466 1 0.190449 0.876892 0.624281
2603 1 0.200106 0.887793 0.6207
2467 1 0.213793 0.884512 0.620991
2525 1 0.202847 0.874337 0.622969
2399 1 0.220207 0.870853 0.622476
2336 1 0.233746 0.870794 0.620401
2408 1 0.230124 0.884484 0.617899
2414 1 0.244318 0.879962 0.614509
2417 1 0.258258 0.875099 0.613447
5319 1 0.0498781 0.891225 0.614758
2521 1 0.068385 0.896142 0.615692
5320 1 0.086188 0.897979 0.614764
2530 1 0.143344 0.892861 0.618962
2459 1 0.128305 0.900726 0.612943
2681 1 0.14786 0.902629 0.613216
2531 1 0.158547 0.893333 0.616816
2460 1 0.1641 0.90812 0.614177
2609 1 0.171776 0.893322 0.617697
2533 1 0.179237 0.908039 0.613029
2534 1 0.189988 0.897434 0.617859
2476 1 0.207487 0.899739 0.615556
2475 1 0.223024 0.896939 0.616176
1919 1 0.174033 0.628076 0.625602
1914 1 0.129525 0.651673 0.62555
1995 1 0.172912 0.64223 0.627244
1918 1 0.157904 0.647807 0.628307
1920 1 0.1851 0.640915 0.628573
1924 1 0.202974 0.636475 0.626813
2066 1 0.215694 0.648667 0.629102
1993 1 0.199376 0.649779 0.631632
1980 1 0.116583 0.659005 0.625986
1986 1 0.126952 0.667763 0.629201
1846 1 0.142266 0.657268 0.629394
2123 1 0.142007 0.676006 0.632745
2060 1 0.155796 0.665629 0.62974
1916 1 0.170695 0.65943 0.630609
2065 1 0.185835 0.653792 0.631235
1987 1 0.180962 0.667424 0.632358
1923 1 0.198308 0.663244 0.633396
1994 1 0.213549 0.66063 0.632592
2139 1 0.224238 0.658499 0.628098
2070 1 0.236749 0.669809 0.629684
2048 1 0.0883048 0.693903 0.626884
2053 1 0.103392 0.686304 0.627145
2057 1 0.11486 0.67467 0.628461
2187 1 0.129302 0.682916 0.630391
1982 1 0.115097 0.692562 0.630541
2058 1 0.14335 0.690327 0.633747
2055 1 0.156071 0.679133 0.632445
1990 1 0.16907 0.674305 0.631373
1988 1 0.172527 0.686759 0.635383
1913 1 0.18952 0.680972 0.635297
1989 1 0.207602 0.677354 0.635503
2134 1 0.217363 0.690701 0.636865
2059 1 0.199701 0.691771 0.636495
2068 1 0.221389 0.674289 0.632943
2063 1 0.233546 0.687132 0.632669
2141 1 0.247649 0.682435 0.627667
4898 1 0.0582255 0.7087 0.62692
2117 1 0.0728971 0.702138 0.626589
2050 1 0.0857356 0.708849 0.631314
2114 1 0.0714587 0.718082 0.631044
2047 1 0.101679 0.700154 0.629352
2049 1 0.0990869 0.71503 0.634283
2121 1 0.112583 0.707608 0.634487
2118 1 0.127685 0.698744 0.633354
1985 1 0.127774 0.715359 0.637103
2131 1 0.140493 0.704278 0.636992
2122 1 0.156908 0.69341 0.634976
2189 1 0.154183 0.71007 0.638333
2061 1 0.169245 0.704187 0.63856
1992 1 0.183783 0.696701 0.63765
2064 1 0.210541 0.70642 0.637363
2135 1 0.228035 0.704303 0.63485
2142 1 0.257968 0.695181 0.627399
2138 1 0.238444 0.717868 0.634935
2207 1 0.245663 0.701621 0.632352
2140 1 0.256717 0.712449 0.629869
4969 1 0.0294881 0.725199 0.624421
4967 1 0.0362456 0.737241 0.627535
2249 1 0.0518473 0.724259 0.629024
2184 1 0.0664052 0.730806 0.632539
2051 1 0.0854649 0.724784 0.6331
2188 1 0.0983487 0.730417 0.637313
2185 1 0.112087 0.722163 0.636915
2130 1 0.209353 0.722486 0.638293
2133 1 0.221645 0.716805 0.637442
2199 1 0.253502 0.727794 0.633496
2209 1 0.267674 0.722855 0.628769
2137 1 0.278912 0.734732 0.62691
2136 1 0.262959 0.737409 0.629369
4824 1 0.0242348 0.749275 0.62642
5100 1 0.0396834 0.754806 0.629671
4964 1 0.0518046 0.7417 0.631994
5036 1 0.054482 0.758813 0.632659
2182 1 0.0666272 0.749099 0.634237
2255 1 0.0805675 0.739584 0.63446
2198 1 0.2351 0.749009 0.635192
2274 1 0.229893 0.760501 0.637389
2201 1 0.251432 0.744399 0.632484
2202 1 0.25812 0.754923 0.630275
2203 1 0.272123 0.748253 0.628597
2211 1 0.288547 0.746933 0.624976
5031 1 0.0301169 0.780843 0.627008
2031 1 0.0284756 0.765904 0.62652
5103 1 0.0412973 0.770203 0.63119
2102 1 0.0562902 0.776688 0.633295
2250 1 0.0694301 0.767594 0.635752
2275 1 0.233949 0.776246 0.634213
2197 1 0.242707 0.76409 0.633004
2345 1 0.258036 0.770776 0.630539
2346 1 0.247407 0.781636 0.63188
2208 1 0.27236 0.766532 0.62832
2210 1 0.27965 0.780757 0.626384
2353 1 0.293484 0.777638 0.62542
2204 1 0.286455 0.762729 0.626791
5099 1 0.0283821 0.797694 0.624709
4968 1 0.0414009 0.787359 0.628715
5101 1 0.0413794 0.802079 0.62827
5037 1 0.0555876 0.792558 0.632496
2106 1 0.0702218 0.785041 0.635673
2173 1 0.071015 0.800626 0.634869
2104 1 0.0863258 0.790069 0.637474
2313 1 0.086825 0.805984 0.635858
2270 1 0.231705 0.789173 0.632635
2194 1 0.224591 0.801844 0.634056
2200 1 0.256192 0.796879 0.630118
2271 1 0.242984 0.80028 0.63107
2273 1 0.265018 0.784651 0.628665
2278 1 0.27257 0.794712 0.627089
2354 1 0.288002 0.794273 0.625498
5035 1 0.0326461 0.814549 0.624532
5034 1 0.0456847 0.816752 0.628717
2171 1 0.0578852 0.809349 0.631303
5105 1 0.0610273 0.823731 0.631042
5039 1 0.073246 0.814615 0.632631
5109 1 0.0866062 0.819836 0.633331
2176 1 0.0993439 0.810936 0.636729
2325 1 0.13824 0.819639 0.637795
2320 1 0.170171 0.816079 0.636425
2395 1 0.15494 0.822428 0.635563
2331 1 0.197229 0.809153 0.636881
2266 1 0.184784 0.822741 0.635901
2339 1 0.208529 0.814812 0.634544
2268 1 0.201102 0.827511 0.633786
2272 1 0.236163 0.815452 0.631661
2269 1 0.222543 0.817494 0.63307
2340 1 0.253686 0.814249 0.629781
2347 1 0.267086 0.810229 0.626805
5106 1 0.0486161 0.833566 0.627153
2315 1 0.0643704 0.841107 0.628768
5107 1 0.0765723 0.830947 0.630219
2242 1 0.101302 0.829508 0.633841
2241 1 0.0916247 0.83701 0.631361
5040 1 0.103971 0.846899 0.630093
2245 1 0.116557 0.834923 0.632586
2172 1 0.126522 0.825827 0.636706
2391 1 0.143022 0.835219 0.633596
2316 1 0.131912 0.837854 0.632924
2396 1 0.174562 0.845564 0.631577
2337 1 0.17428 0.832237 0.634325
2455 1 0.158663 0.839166 0.631123
2406 1 0.192071 0.837937 0.632179
2196 1 0.213813 0.830914 0.631379
2333 1 0.207452 0.846851 0.628122
2411 1 0.223449 0.844584 0.629828
2334 1 0.229558 0.830268 0.631542
2341 1 0.244505 0.832843 0.63038
2342 1 0.260186 0.82693 0.626545
2405 1 0.239538 0.845257 0.628854
2385 1 0.0769187 0.849456 0.629792
5248 1 0.0663452 0.859873 0.626205
2386 1 0.082936 0.866084 0.628326
5178 1 0.0906392 0.850128 0.630623
2311 1 0.0994995 0.862231 0.626653
5180 1 0.112895 0.862863 0.625922
2387 1 0.122597 0.850701 0.627971
2384 1 0.128135 0.864652 0.624797
2389 1 0.139483 0.851016 0.628569
2394 1 0.159961 0.868048 0.626186
2393 1 0.156745 0.853104 0.629139
2461 1 0.171797 0.858184 0.628401
2462 1 0.188799 0.852323 0.629301
2398 1 0.186043 0.863574 0.626422
2402 1 0.201444 0.861447 0.625219
2332 1 0.213562 0.86037 0.626896
2407 1 0.226583 0.855828 0.626643
2532 1 0.175625 0.873302 0.625725
2062 1 0.181661 0.711575 0.638272
2132 1 0.196692 0.708782 0.635946
2056 1 0.125252 0.72871 0.639663
2186 1 0.142039 0.71874 0.637616
2054 1 0.139215 0.735285 0.640373
2193 1 0.151819 0.727084 0.639834
2052 1 0.167852 0.721477 0.638049
2264 1 0.167013 0.737905 0.63988
2129 1 0.18168 0.729015 0.639387
2127 1 0.194176 0.736916 0.640282
2120 1 0.197019 0.721931 0.63965
2124 1 0.212044 0.734238 0.640334
2205 1 0.226073 0.730756 0.637204
2128 1 0.240848 0.733107 0.636831
2246 1 0.0834378 0.756372 0.63728
2253 1 0.0953908 0.745071 0.638593
2183 1 0.111714 0.739413 0.639983
2254 1 0.125741 0.746555 0.641509
2259 1 0.110372 0.75389 0.641836
2258 1 0.137915 0.756581 0.64312
2261 1 0.15098 0.746197 0.640911
2262 1 0.166475 0.755636 0.640275
2190 1 0.183137 0.747466 0.640052
2265 1 0.195708 0.754349 0.641201
2263 1 0.206185 0.7477 0.641065
2191 1 0.21746 0.756015 0.641215
2126 1 0.22287 0.744959 0.638127
2175 1 0.082547 0.772727 0.638287
2321 1 0.0964155 0.762276 0.639304
2177 1 0.0975843 0.778503 0.639283
2247 1 0.110074 0.770148 0.641941
2252 1 0.124647 0.762945 0.643453
2257 1 0.126217 0.777249 0.643204
2404 1 0.138439 0.771393 0.643151
2317 1 0.151118 0.763328 0.642282
2335 1 0.153075 0.777362 0.641952
2397 1 0.167671 0.769844 0.642203
2324 1 0.183037 0.762944 0.640908
2329 1 0.181657 0.78013 0.641806
2323 1 0.193232 0.772736 0.639988
2260 1 0.20659 0.764828 0.640953
2125 1 0.205971 0.78385 0.639713
2195 1 0.220499 0.772689 0.639431
2251 1 0.0995045 0.793987 0.63599
2328 1 0.125598 0.795526 0.642665
2248 1 0.111049 0.804299 0.639289
2256 1 0.113487 0.786746 0.641726
2330 1 0.138578 0.785176 0.641334
2318 1 0.152605 0.793978 0.640807
2400 1 0.166204 0.803659 0.638484
2192 1 0.164882 0.78543 0.641802
2327 1 0.193159 0.791223 0.63872
2243 1 0.178751 0.79674 0.640141
2326 1 0.20989 0.798334 0.636744
2267 1 0.219323 0.786144 0.636988
2174 1 0.12421 0.809873 0.639835
2244 1 0.112999 0.818759 0.636468
2319 1 0.140339 0.806074 0.641477
2322 1 0.152585 0.809733 0.6383
2403 1 0.182618 0.809059 0.637654
3437 1 0.502173 0.246201 0.372834
3363 1 0.526124 0.241375 0.374297
3440 1 0.518424 0.268243 0.37453
3506 1 0.503855 0.263418 0.373952
3576 1 0.508759 0.281966 0.373521
3580 1 0.509221 0.294198 0.374236
3649 1 0.497204 0.313034 0.372589
3228 1 0.512973 0.193879 0.382615
3300 1 0.508141 0.18027 0.38856
3232 1 0.523307 0.184644 0.387205
3367 1 0.543583 0.187057 0.38708
3433 1 0.519707 0.206078 0.379174
3230 1 0.502967 0.204669 0.378978
3226 1 0.532381 0.197107 0.38207
3441 1 0.53541 0.211793 0.379556
3296 1 0.546892 0.203003 0.384677
3370 1 0.558973 0.21044 0.385626
3435 1 0.515597 0.235536 0.374758
3431 1 0.50769 0.220557 0.376664
630 1 0.524326 0.223348 0.375699
3364 1 0.537871 0.229895 0.378057
3511 1 0.548972 0.219619 0.38072
3372 1 0.562819 0.224784 0.383113
3439 1 0.551461 0.235362 0.378999
3374 1 0.573495 0.217972 0.387349
3443 1 0.575632 0.233882 0.384656
3505 1 0.515178 0.254252 0.37547
3509 1 0.529 0.257799 0.37661
3366 1 0.541293 0.246511 0.3766
3442 1 0.554457 0.253647 0.377065
3513 1 0.562626 0.245295 0.380663
3444 1 0.581071 0.250275 0.383081
3515 1 0.571615 0.258606 0.380172
3517 1 0.590307 0.24113 0.385571
3446 1 0.597796 0.257266 0.38559
3578 1 0.53457 0.274887 0.375268
3438 1 0.542958 0.263289 0.376315
3577 1 0.561324 0.268526 0.37795
3572 1 0.548757 0.278107 0.378504
3512 1 0.572527 0.276599 0.379989
3587 1 0.584892 0.265119 0.38225
3516 1 0.598599 0.272044 0.385801
3579 1 0.522262 0.284296 0.374545
3581 1 0.524463 0.298395 0.376126
3582 1 0.536121 0.289508 0.377481
3510 1 0.546817 0.296995 0.379757
3508 1 0.559229 0.286375 0.381408
3653 1 0.562113 0.302013 0.383131
3514 1 0.572886 0.293302 0.382249
3585 1 0.585916 0.283189 0.38284
3586 1 0.587887 0.298042 0.385783
3725 1 0.512668 0.311686 0.376533
3788 1 0.508724 0.327497 0.375389
3651 1 0.523876 0.317331 0.378031
3652 1 0.534301 0.30605 0.379701
3656 1 0.538825 0.323386 0.380661
3654 1 0.549862 0.313225 0.383099
3655 1 0.56425 0.321914 0.385028
3583 1 0.573513 0.309734 0.386076
3723 1 0.509276 0.341444 0.379046
3727 1 0.522824 0.333784 0.37952
3658 1 0.535376 0.338114 0.38254
3785 1 0.521311 0.350023 0.383518
3657 1 0.549577 0.330088 0.384841
3859 1 0.549524 0.346809 0.386451
3787 1 0.509143 0.356891 0.383937
490 1 0.505699 0.167852 0.392768
3160 1 0.516075 0.157663 0.396917
3299 1 0.520164 0.170825 0.393575
3293 1 0.501979 0.152999 0.398155
3154 1 0.533313 0.166227 0.39699
3231 1 0.548335 0.167995 0.395985
3304 1 0.564756 0.173136 0.395904
3224 1 0.56002 0.156996 0.398753
3297 1 0.57523 0.161409 0.400098
3233 1 0.589915 0.167509 0.399591
3086 1 0.535707 0.176902 0.391353
3365 1 0.557301 0.195634 0.389279
3302 1 0.553032 0.181567 0.391372
3371 1 0.579115 0.176559 0.394315
3369 1 0.570762 0.187401 0.391895
3373 1 0.584293 0.190224 0.393214
3311 1 0.592341 0.18188 0.397926
3377 1 0.603236 0.186882 0.396434
3368 1 0.572336 0.203029 0.389691
3376 1 0.588783 0.209686 0.389992
3375 1 0.59474 0.198217 0.394617
3306 1 0.600081 0.21414 0.392506
3313 1 0.611463 0.202861 0.396026
3379 1 0.627046 0.209357 0.398095
3378 1 0.586826 0.224809 0.388599
3445 1 0.603296 0.231091 0.390097
3308 1 0.615594 0.217439 0.393682
3310 1 0.628366 0.224747 0.397216
3447 1 0.616738 0.23379 0.393257
3388 1 0.643117 0.234172 0.39899
3449 1 0.609308 0.246082 0.38966
3451 1 0.621852 0.253507 0.39332
3384 1 0.631666 0.239537 0.393616
3380 1 0.636382 0.260357 0.395658
3382 1 0.644844 0.248537 0.397865
3521 1 0.61248 0.262431 0.390253
3450 1 0.623046 0.270561 0.392779
3448 1 0.611788 0.280613 0.389885
3452 1 0.638799 0.277246 0.395715
3525 1 0.649501 0.263042 0.398595
3453 1 0.652783 0.279898 0.39963
3518 1 0.599832 0.290024 0.387485
3519 1 0.613539 0.295627 0.391204
3593 1 0.627387 0.286764 0.393494
3594 1 0.627151 0.301317 0.395284
3522 1 0.642904 0.292605 0.395926
3662 1 0.58782 0.314639 0.391807
3520 1 0.598288 0.305549 0.39211
3588 1 0.599308 0.320287 0.393998
3665 1 0.615583 0.311094 0.394594
3592 1 0.627403 0.31962 0.399373
3523 1 0.640165 0.307673 0.39909
3790 1 0.561482 0.335915 0.390214
3584 1 0.574496 0.325458 0.390968
3729 1 0.576824 0.341613 0.393766
3664 1 0.587052 0.331064 0.395603
3661 1 0.600437 0.33449 0.398077
3659 1 0.589031 0.345977 0.400558
3589 1 0.613405 0.327413 0.397726
3716 1 0.520034 0.36429 0.388392
3793 1 0.534741 0.356966 0.387522
3861 1 0.548888 0.361834 0.391414
3726 1 0.564388 0.351738 0.391598
3792 1 0.560424 0.365778 0.397347
3660 1 0.575849 0.357207 0.397425
3720 1 0.506493 0.374019 0.388442
3856 1 0.50798 0.387973 0.393938
3857 1 0.520722 0.38045 0.393282
3791 1 0.534913 0.372233 0.392659
3863 1 0.532497 0.388144 0.397892
3865 1 0.547505 0.376193 0.396665
3786 1 0.519953 0.395738 0.398244
3083 1 0.509822 0.131952 0.407606
420 1 0.52116 0.123401 0.409982
3085 1 0.537948 0.127698 0.408893
3014 1 0.555018 0.129762 0.408603
3163 1 0.581167 0.123922 0.412082
3152 1 0.514673 0.14336 0.401576
3227 1 0.529361 0.150514 0.400301
3153 1 0.526176 0.136985 0.405442
3089 1 0.544018 0.140373 0.404546
3084 1 0.557915 0.143899 0.404562
3090 1 0.569877 0.133105 0.408693
3157 1 0.573633 0.145285 0.40595
3022 1 0.58594 0.137629 0.40971
3156 1 0.60254 0.143673 0.409179
3236 1 0.618006 0.148004 0.410207
3158 1 0.54566 0.154302 0.400167
3155 1 0.587688 0.153514 0.405597
3164 1 0.601321 0.15604 0.404635
3309 1 0.604433 0.170698 0.402389
3240 1 0.615482 0.160692 0.406206
3241 1 0.626901 0.169537 0.405331
3092 1 0.631151 0.154941 0.411054
3234 1 0.646308 0.158028 0.412415
3314 1 0.647355 0.173212 0.40951
3316 1 0.660238 0.165255 0.411221
3244 1 0.677268 0.170717 0.409999
3301 1 0.620012 0.194284 0.400111
3315 1 0.616733 0.179538 0.402142
3303 1 0.633721 0.185318 0.40673
3305 1 0.650105 0.189944 0.407319
3387 1 0.663377 0.179375 0.408776
3389 1 0.678515 0.183994 0.409139
3318 1 0.69237 0.187899 0.408067
3317 1 0.693402 0.174697 0.411234
3320 1 0.707006 0.178984 0.412183
3246 1 0.72221 0.187627 0.410957
3324 1 0.738853 0.195859 0.410812
3312 1 0.639881 0.214738 0.401261
3307 1 0.636014 0.199083 0.403155
3242 1 0.666179 0.195977 0.407948
3383 1 0.653253 0.205375 0.404399
3455 1 0.668947 0.212375 0.402869
3385 1 0.679503 0.201355 0.407238
3461 1 0.683233 0.215951 0.405947
3391 1 0.695487 0.204136 0.409344
3466 1 0.709662 0.213418 0.409223
3319 1 0.70981 0.19848 0.409752
3464 1 0.724691 0.203024 0.409103
3469 1 0.726219 0.217367 0.408831
3402 1 0.740408 0.211732 0.409548
3390 1 0.754698 0.200181 0.411619
3467 1 0.753916 0.216683 0.410691
3381 1 0.654978 0.220953 0.401764
3456 1 0.655784 0.239517 0.403112
3386 1 0.66926 0.227247 0.404305
3457 1 0.686529 0.23174 0.406443
3322 1 0.698001 0.221706 0.406411
3533 1 0.712766 0.227566 0.408446
3459 1 0.702088 0.236754 0.407952
3537 1 0.727703 0.234449 0.409283
3465 1 0.739656 0.227757 0.40984
3539 1 0.755468 0.230481 0.410698
3454 1 0.659059 0.252806 0.403876
3458 1 0.671765 0.243027 0.405862
3460 1 0.686741 0.249119 0.407812
3529 1 0.675638 0.260532 0.405108
3532 1 0.703761 0.255256 0.408155
3535 1 0.715743 0.245176 0.40939
3536 1 0.730618 0.252274 0.410581
3468 1 0.744015 0.243147 0.411587
3540 1 0.757194 0.249982 0.413484
3530 1 0.664552 0.266895 0.403346
3462 1 0.690924 0.265002 0.40574
3531 1 0.678248 0.275803 0.404976
3601 1 0.693397 0.279224 0.407782
3528 1 0.709345 0.271967 0.408359
3603 1 0.718372 0.260623 0.409266
3673 1 0.71956 0.280641 0.411178
3534 1 0.730083 0.270196 0.410496
3538 1 0.74546 0.261067 0.411739
3526 1 0.654821 0.295635 0.401215
3527 1 0.664747 0.284301 0.40345
3524 1 0.666195 0.298493 0.405965
3600 1 0.680309 0.291278 0.407431
3602 1 0.693778 0.29711 0.410075
3669 1 0.681064 0.305805 0.411811
3604 1 0.705624 0.289711 0.409428
3675 1 0.73397 0.288348 0.412891
3599 1 0.642561 0.323414 0.403093
3597 1 0.653891 0.311967 0.404449
3670 1 0.670017 0.314658 0.40954
3740 1 0.681862 0.322831 0.411791
3591 1 0.618662 0.340239 0.402463
3595 1 0.630977 0.332961 0.405074
3666 1 0.632637 0.3459 0.409287
3739 1 0.645262 0.340486 0.409405
3596 1 0.657736 0.329704 0.407213
3668 1 0.669688 0.331487 0.413051
3798 1 0.590915 0.361084 0.403396
3724 1 0.605767 0.351308 0.40329
3590 1 0.603203 0.366863 0.40623
3663 1 0.619473 0.356354 0.407748
3860 1 0.544645 0.389782 0.40331
3864 1 0.563204 0.379489 0.401318
3795 1 0.57652 0.368988 0.401771
3794 1 0.576527 0.388006 0.406454
3731 1 0.590208 0.377667 0.406777
3804 1 0.60097 0.379237 0.410456
3873 1 0.588197 0.38967 0.412196
3878 1 0.614791 0.371752 0.410367
3858 1 0.504246 0.403501 0.399579
3930 1 0.517348 0.409347 0.4041
3855 1 0.532169 0.402061 0.405051
3931 1 0.548005 0.398387 0.409055
3929 1 0.561731 0.391364 0.406405
3935 1 0.563761 0.406035 0.411843
3924 1 0.507 0.419324 0.403701
3925 1 0.519476 0.421597 0.40876
3994 1 0.506264 0.430948 0.411685
3928 1 0.532993 0.415838 0.40827
3853 1 0.528577 0.431028 0.413233
4003 1 0.552122 0.416293 0.411312
2875 1 0.509723 0.0827366 0.423956
2947 1 0.52464 0.0853901 0.42229
2876 1 0.515048 0.0948495 0.421577
2944 1 0.520127 0.109155 0.4162
2945 1 0.502569 0.106176 0.418221
2948 1 0.530507 0.100233 0.418509
3016 1 0.542269 0.0913012 0.421506
3018 1 0.547623 0.104868 0.416272
3087 1 0.561068 0.0934118 0.424081
3015 1 0.565526 0.108139 0.417875
3091 1 0.576163 0.0980992 0.42224
3161 1 0.589713 0.103411 0.422966
3094 1 0.621332 0.109225 0.421988
3100 1 0.648171 0.107192 0.424091
280 1 0.508694 0.117142 0.413123
3017 1 0.534743 0.114612 0.412153
3012 1 0.550338 0.117705 0.41211
3088 1 0.564215 0.121175 0.412996
2950 1 0.580526 0.110592 0.416874
3162 1 0.604781 0.108966 0.421892
3235 1 0.595183 0.115373 0.416507
3159 1 0.598744 0.129608 0.412861
3093 1 0.611208 0.120868 0.41697
3096 1 0.62573 0.122246 0.418838
3098 1 0.636926 0.112511 0.421848
3167 1 0.651454 0.12237 0.420042
3165 1 0.640342 0.129187 0.417658
3175 1 0.667017 0.127419 0.418121
3171 1 0.663893 0.110984 0.423225
3176 1 0.691744 0.119159 0.423005
3106 1 0.677705 0.117048 0.423181
3238 1 0.615409 0.132846 0.412865
3239 1 0.644278 0.145064 0.415688
3166 1 0.631298 0.137437 0.415467
3168 1 0.658364 0.151172 0.416088
3237 1 0.654874 0.136795 0.41803
3173 1 0.669936 0.144805 0.415694
3247 1 0.681211 0.135204 0.419548
3252 1 0.686122 0.147445 0.415726
3172 1 0.700373 0.134078 0.419162
3245 1 0.713863 0.141159 0.420213
3323 1 0.703233 0.150499 0.417855
3251 1 0.732901 0.147347 0.420491
3249 1 0.75833 0.145952 0.421843
3260 1 0.757077 0.130322 0.423787
3183 1 0.777084 0.149119 0.420123
3185 1 0.771841 0.136066 0.424368
3257 1 0.803421 0.148236 0.423719
3190 1 0.845576 0.151825 0.423672
3261 1 0.8583 0.142541 0.424646
3337 1 0.872819 0.150167 0.423199
3170 1 0.675072 0.157653 0.413364
3248 1 0.691806 0.162778 0.412909
3250 1 0.705476 0.164356 0.415351
3321 1 0.718928 0.155822 0.417538
3394 1 0.732819 0.164531 0.417244
3254 1 0.720812 0.170959 0.414072
3328 1 0.747425 0.15703 0.419804
3392 1 0.749594 0.17103 0.418036
3256 1 0.763867 0.158526 0.419349
3331 1 0.778813 0.167484 0.420749
3398 1 0.788935 0.157522 0.42106
3400 1 0.795262 0.172912 0.41847
3259 1 0.820056 0.152802 0.423476
3329 1 0.805426 0.161923 0.421822
3334 1 0.818798 0.16899 0.422377
3264 1 0.832531 0.157178 0.423224
3336 1 0.844769 0.168611 0.42249
3332 1 0.832907 0.175728 0.421938
3349 1 0.860039 0.157765 0.421913
3338 1 0.887064 0.15594 0.42294
3276 1 0.873566 0.167714 0.420325
3266 1 0.901296 0.16326 0.424492
3278 1 0.914319 0.17225 0.423818
3325 1 0.734033 0.180641 0.412813
3326 1 0.749183 0.186538 0.413925
3395 1 0.765573 0.175076 0.417027
3330 1 0.782024 0.18255 0.417825
3397 1 0.764736 0.188995 0.416198
3463 1 0.79656 0.188925 0.417561
3401 1 0.809904 0.178264 0.418839
3477 1 0.822124 0.188836 0.417882
3407 1 0.834412 0.191023 0.42054
3412 1 0.860727 0.174996 0.419451
3343 1 0.862826 0.18924 0.417176
3346 1 0.846619 0.182313 0.418369
3335 1 0.889194 0.172485 0.421688
3418 1 0.874982 0.182628 0.418768
3422 1 0.889889 0.190983 0.417123
3409 1 0.903172 0.184444 0.41921
3351 1 0.917241 0.187678 0.420467
3352 1 0.930981 0.193411 0.422861
3393 1 0.768623 0.207254 0.412429
3405 1 0.780289 0.19909 0.41592
3470 1 0.785032 0.216222 0.41563
3479 1 0.795261 0.203901 0.417487
3399 1 0.810539 0.198488 0.418291
3410 1 0.815933 0.215226 0.416518
3396 1 0.82695 0.205758 0.416299
3344 1 0.841995 0.208474 0.417763
3413 1 0.849125 0.195771 0.416109
3483 1 0.862589 0.205926 0.41461
3484 1 0.877701 0.213108 0.414646
3408 1 0.875721 0.197716 0.414455
3347 1 0.904463 0.199201 0.416823
3345 1 0.890812 0.205726 0.41512
3419 1 0.906994 0.213999 0.416804
3424 1 0.919377 0.203153 0.419761
3493 1 0.935371 0.206286 0.422018
3473 1 0.770502 0.224437 0.413502
3404 1 0.787637 0.2306 0.415182
3403 1 0.801459 0.219644 0.41638
3544 1 0.799717 0.23758 0.417252
3475 1 0.815562 0.229526 0.416977
3546 1 0.830667 0.220684 0.41637
3545 1 0.843463 0.228304 0.416311
3414 1 0.854012 0.215281 0.415047
3481 1 0.857558 0.233047 0.415523
3415 1 0.866805 0.222957 0.413109
3488 1 0.878686 0.231363 0.414568
3417 1 0.893787 0.221755 0.414726
3348 1 0.910703 0.229178 0.415244
3416 1 0.89397 0.235538 0.415464
3486 1 0.923277 0.219585 0.417914
3420 1 0.924079 0.233817 0.41818
3494 1 0.939013 0.221804 0.421335
3564 1 0.952165 0.229393 0.424944
3543 1 0.770585 0.254833 0.416168
3541 1 0.770771 0.239688 0.413462
3472 1 0.784083 0.247586 0.414965
3406 1 0.800061 0.255135 0.415838
3474 1 0.786991 0.262209 0.418505
3471 1 0.813915 0.247533 0.416996
3411 1 0.829168 0.236092 0.416993
3476 1 0.82955 0.253877 0.417741
3478 1 0.844552 0.241524 0.416371
3554 1 0.842134 0.258045 0.41807
3549 1 0.857172 0.249798 0.414859
3556 1 0.86925 0.239988 0.414014
3490 1 0.883696 0.247552 0.415579
3557 1 0.87279 0.257153 0.415697
3489 1 0.898101 0.2526 0.418141
3487 1 0.910177 0.244963 0.418104
3491 1 0.923957 0.251833 0.421944
3635 1 0.939314 0.241101 0.423812
3609 1 0.748728 0.2772 0.413695
3611 1 0.761556 0.265927 0.415151
3615 1 0.774699 0.271137 0.416799
3617 1 0.802352 0.269872 0.419247
3548 1 0.790605 0.276955 0.420204
3550 1 0.816633 0.262572 0.417782
3482 1 0.814974 0.280123 0.421284
3480 1 0.829186 0.270053 0.419754
3687 1 0.844213 0.272871 0.419817
3552 1 0.831101 0.284344 0.422101
3485 1 0.85789 0.266692 0.418611
3621 1 0.861092 0.281112 0.420522
3689 1 0.875787 0.272161 0.41918
3555 1 0.887359 0.262942 0.418487
3558 1 0.888037 0.281418 0.418247
3559 1 0.908584 0.263002 0.41967
3553 1 0.899249 0.275806 0.420952
3562 1 0.923964 0.265199 0.42359
3560 1 0.912725 0.279306 0.423013
3743 1 0.718596 0.296582 0.413478
3606 1 0.733672 0.302834 0.417506
3607 1 0.747522 0.295694 0.415948
3605 1 0.761392 0.28236 0.415639
3613 1 0.76229 0.295874 0.417831
3683 1 0.776967 0.287792 0.418912
3542 1 0.77743 0.303848 0.420557
3551 1 0.790196 0.295195 0.421774
3612 1 0.804748 0.30094 0.422713
3547 1 0.800588 0.286996 0.421441
3619 1 0.815343 0.293667 0.422913
3616 1 0.828736 0.299333 0.424833
3623 1 0.848224 0.287216 0.422014
3627 1 0.859955 0.29887 0.422587
3691 1 0.874262 0.289573 0.421744
3628 1 0.889446 0.297373 0.420752
3561 1 0.901565 0.289808 0.422267
3671 1 0.69456 0.315088 0.413566
3672 1 0.707626 0.304128 0.413339
3746 1 0.707255 0.322301 0.415343
3811 1 0.719788 0.313329 0.414585
3744 1 0.735283 0.318471 0.41918
3677 1 0.747926 0.311085 0.418099
3614 1 0.75241 0.324984 0.422275
3676 1 0.763862 0.31201 0.419983
3608 1 0.778912 0.321087 0.423783
3681 1 0.790114 0.308843 0.423291
3688 1 0.817004 0.309642 0.424769
3625 1 0.876532 0.306166 0.422283
3807 1 0.658373 0.34328 0.412706
3732 1 0.670522 0.347595 0.416027
3598 1 0.682758 0.340928 0.416709
3741 1 0.695109 0.330098 0.414051
3809 1 0.695574 0.346052 0.417663
3745 1 0.710427 0.338807 0.418617
3610 1 0.723887 0.328724 0.418592
3817 1 0.723798 0.342127 0.420436
3674 1 0.738779 0.331854 0.422267
3750 1 0.75193 0.340833 0.424648
3749 1 0.765357 0.329229 0.422281
3679 1 0.781588 0.336345 0.42514
3747 1 0.765559 0.343716 0.425222
3875 1 0.627613 0.362478 0.413282
3667 1 0.645276 0.350416 0.416143
3737 1 0.641484 0.368641 0.417395
3733 1 0.657982 0.358087 0.417995
3877 1 0.670618 0.363235 0.421138
3738 1 0.685586 0.357045 0.419287
3742 1 0.696146 0.362557 0.422085
3810 1 0.709429 0.353643 0.42208
3812 1 0.712566 0.367847 0.423915
3813 1 0.736546 0.349944 0.424825
3879 1 0.721594 0.355723 0.42448
3868 1 0.613687 0.386257 0.416718
3730 1 0.624677 0.379674 0.417007
3728 1 0.639218 0.381968 0.4212
3805 1 0.655196 0.373111 0.420955
3802 1 0.667411 0.377929 0.423779
3951 1 0.655631 0.391216 0.423575
3736 1 0.684184 0.373856 0.424565
3796 1 0.577951 0.40072 0.413709
3862 1 0.589554 0.404552 0.417451
3876 1 0.602313 0.395818 0.416765
3735 1 0.599408 0.41295 0.4217
3803 1 0.62806 0.39411 0.421962
3869 1 0.61463 0.404039 0.421122
3871 1 0.643155 0.400358 0.424563
3936 1 0.543229 0.42708 0.415409
3866 1 0.56092 0.423834 0.41793
3926 1 0.551509 0.436598 0.419421
3799 1 0.575471 0.415369 0.415473
3867 1 0.576032 0.426433 0.422277
3797 1 0.586497 0.416247 0.42279
3999 1 0.51724 0.435908 0.415989
4004 1 0.52023 0.44822 0.42406
4067 1 0.504876 0.456958 0.42291
4000 1 0.504381 0.445686 0.41783
3995 1 0.534676 0.441525 0.419236
3927 1 0.549526 0.44875 0.424954
3937 1 0.56386 0.438749 0.423306
2807 1 0.515912 0.0582937 0.431638
2809 1 0.533165 0.0596753 0.431655
2813 1 0.527638 0.048873 0.436243
2880 1 0.558978 0.0563053 0.434533
2879 1 0.543713 0.0527579 0.437717
3027 1 0.575304 0.0613144 0.435224
2953 1 0.590455 0.0657493 0.436215
2806 1 0.504196 0.0652267 0.428009
2810 1 0.521411 0.0709763 0.426688
2877 1 0.53868 0.07563 0.426858
2949 1 0.554743 0.0813887 0.425619
2878 1 0.54655 0.06707 0.430731
3019 1 0.563995 0.0676241 0.430907
2946 1 0.571441 0.081752 0.425398
2960 1 0.581855 0.0740234 0.430394
3020 1 0.595466 0.0818659 0.431067
2955 1 0.611246 0.0842382 0.432208
2954 1 0.62197 0.0768878 0.437
3095 1 0.640182 0.0825341 0.43617
3026 1 0.655916 0.0876523 0.43302
3102 1 0.681897 0.0836881 0.43531
3107 1 0.697751 0.0881612 0.434821
2951 1 0.585086 0.089647 0.426814
2956 1 0.600926 0.0964026 0.426966
3021 1 0.615538 0.0976692 0.428462
3024 1 0.628961 0.0901252 0.431257
3169 1 0.631911 0.104394 0.427101
3101 1 0.64414 0.0913468 0.429875
3030 1 0.672843 0.0931704 0.432002
3104 1 0.659274 0.0968535 0.427391
3032 1 0.675598 0.105341 0.426794
3103 1 0.688776 0.0976014 0.429716
3178 1 0.689892 0.107305 0.424797
3109 1 0.702054 0.102393 0.431819
3108 1 0.711899 0.0919045 0.433673
3038 1 0.71797 0.105861 0.432147
3180 1 0.728747 0.0945457 0.435263
3177 1 0.744757 0.0957855 0.435512
3181 1 0.759882 0.0977327 0.437107
3112 1 0.749233 0.108635 0.431015
3184 1 0.793188 0.103144 0.436341
3044 1 0.808149 0.111164 0.432773
3050 1 0.809542 0.0964149 0.437184
3116 1 0.834448 0.103335 0.436187
2984 1 0.850304 0.097231 0.437168
3127 1 0.869882 0.103993 0.432805
3123 1 0.901967 0.109597 0.436391
3243 1 0.71357 0.129217 0.425521
3105 1 0.705407 0.1165 0.428858
3110 1 0.734707 0.107276 0.430729
3255 1 0.724314 0.117292 0.429386
3179 1 0.741001 0.122696 0.427868
3182 1 0.754397 0.12004 0.43052
3187 1 0.768014 0.112917 0.432465
3186 1 0.767469 0.124675 0.428227
3111 1 0.780358 0.112176 0.431711
3327 1 0.784064 0.127335 0.427838
3113 1 0.794463 0.118286 0.430371
3114 1 0.824783 0.113073 0.432369
3120 1 0.813075 0.123331 0.42985
3188 1 0.826818 0.129868 0.428408
3115 1 0.840079 0.118288 0.431731
3333 1 0.866868 0.118384 0.429617
3054 1 0.854605 0.109944 0.431982
3119 1 0.855802 0.126248 0.428151
3122 1 0.882189 0.10967 0.433331
3268 1 0.880284 0.124716 0.428249
3193 1 0.893033 0.122527 0.431379
3269 1 0.908787 0.125447 0.432381
3194 1 0.918301 0.115817 0.437796
3174 1 0.729511 0.13349 0.424512
3253 1 0.745465 0.138299 0.422826
3258 1 0.787037 0.141073 0.424876
3191 1 0.801026 0.133275 0.42667
3192 1 0.816183 0.140182 0.425936
3262 1 0.832251 0.144026 0.424849
3124 1 0.844007 0.13432 0.425772
3129 1 0.884485 0.141498 0.425428
3339 1 0.869753 0.134789 0.425111
3189 1 0.900452 0.149397 0.425806
3265 1 0.897444 0.132953 0.427541
3267 1 0.912921 0.1416 0.431416
3271 1 0.923827 0.13239 0.435596
3263 1 0.928234 0.147524 0.431973
3208 1 0.941 0.13549 0.43597
3207 1 0.947555 0.146961 0.436744
3342 1 0.929396 0.164587 0.427301
3270 1 0.913605 0.157182 0.427636
3274 1 0.94131 0.157691 0.432436
3281 1 0.941617 0.172168 0.429937
3277 1 0.953584 0.163509 0.436006
3340 1 0.929766 0.179641 0.426217
3360 1 0.955338 0.178398 0.433397
3279 1 0.943821 0.187185 0.430113
3428 1 0.958666 0.19284 0.43232
3425 1 0.969482 0.180115 0.435608
3497 1 0.971054 0.195765 0.435147
3341 1 0.949553 0.199384 0.425659
3495 1 0.95408 0.214344 0.423966
3353 1 0.965762 0.205088 0.429764
3496 1 0.978963 0.209704 0.432121
3421 1 0.987069 0.197533 0.436699
701 1 0.994178 0.213716 0.434051
3350 1 0.965638 0.221559 0.427541
3492 1 0.967783 0.236212 0.427227
3639 1 0.979886 0.226653 0.429802
774 1 0.994232 0.2268 0.431645
3568 1 0.985475 0.23945 0.430708
3633 1 0.938822 0.256564 0.426624
3498 1 0.954701 0.248 0.424635
3634 1 0.968189 0.255272 0.426764
3563 1 0.981686 0.251584 0.427257
3637 1 0.994879 0.256509 0.429274
3708 1 0.99677 0.241461 0.429721
3630 1 0.927092 0.28389 0.424599
3702 1 0.9404 0.27604 0.428547
3701 1 0.954265 0.265886 0.426316
3774 1 0.956618 0.281059 0.42719
3632 1 0.969392 0.27245 0.428272
3566 1 0.98161 0.26644 0.428654
3636 1 0.994721 0.273195 0.427666
3705 1 0.979975 0.28225 0.428018
3700 1 0.91651 0.294345 0.424927
3704 1 0.931475 0.293526 0.428943
3776 1 0.947024 0.29024 0.430537
3777 1 0.954597 0.300547 0.432544
3703 1 0.966402 0.292403 0.429044
3710 1 0.99753 0.301482 0.434382
3779 1 0.982093 0.29641 0.431443
984 1 0.995265 0.288899 0.430637
3751 1 0.791451 0.325387 0.42608
3686 1 0.801995 0.317897 0.425241
3618 1 0.818685 0.325286 0.427149
3620 1 0.843583 0.303779 0.425542
3682 1 0.830333 0.314469 0.42668
3690 1 0.844099 0.320324 0.429668
3622 1 0.860387 0.314731 0.426104
3626 1 0.873575 0.319753 0.427578
3699 1 0.886787 0.324674 0.431286
3631 1 0.905064 0.303189 0.425373
3697 1 0.889994 0.31351 0.425629
3773 1 0.907462 0.317168 0.430487
3843 1 0.923227 0.306515 0.430162
3769 1 0.92829 0.318191 0.433343
3770 1 0.939018 0.304768 0.433303
3847 1 0.94363 0.322808 0.435497
3778 1 0.954491 0.314791 0.434632
911 1 0.969271 0.306774 0.43418
914 1 0.983577 0.312596 0.435428
3680 1 0.789278 0.345372 0.429692
3758 1 0.802913 0.333908 0.427527
3761 1 0.816134 0.340256 0.431052
3693 1 0.830977 0.329797 0.431538
3624 1 0.84664 0.335693 0.431644
3695 1 0.830949 0.344572 0.43483
3694 1 0.858548 0.328834 0.429627
3629 1 0.860973 0.34494 0.434598
3698 1 0.873231 0.333615 0.432154
3768 1 0.889183 0.339877 0.434981
3771 1 0.901641 0.332359 0.434753
3772 1 0.916083 0.323753 0.433873
3819 1 0.735629 0.365881 0.426023
3678 1 0.750874 0.355998 0.425847
3753 1 0.777861 0.354187 0.428492
3821 1 0.762598 0.359389 0.427848
3755 1 0.77794 0.367868 0.431428
3748 1 0.791907 0.36216 0.431247
3829 1 0.805082 0.350159 0.431989
3754 1 0.806865 0.36612 0.436409
3763 1 0.820145 0.356491 0.435677
3766 1 0.846325 0.352387 0.435883
3886 1 0.684322 0.387932 0.426886
3808 1 0.698492 0.376746 0.42651
3820 1 0.712877 0.384922 0.42874
3815 1 0.724271 0.375483 0.425852
3816 1 0.737821 0.383413 0.429798
3953 1 0.724047 0.391152 0.430734
3887 1 0.750756 0.370011 0.427792
3823 1 0.757773 0.385636 0.435361
3756 1 0.764144 0.373236 0.430961
3893 1 0.774768 0.383671 0.436843
3759 1 0.789809 0.374891 0.43609
3947 1 0.631863 0.409229 0.425824
3806 1 0.669381 0.393415 0.427168
3734 1 0.65547 0.405154 0.427744
4021 1 0.668788 0.410158 0.431495
3880 1 0.683256 0.403004 0.429049
3889 1 0.696887 0.407614 0.433064
3881 1 0.696635 0.391526 0.42927
3814 1 0.710593 0.400834 0.431935
3822 1 0.724483 0.407855 0.434701
3752 1 0.738019 0.39891 0.434353
3870 1 0.585979 0.431804 0.426266
4016 1 0.599589 0.424063 0.42654
3940 1 0.61577 0.415207 0.425339
4014 1 0.626289 0.422614 0.42837
3801 1 0.611483 0.431137 0.427976
3872 1 0.640621 0.417637 0.427913
3949 1 0.644098 0.428596 0.43173
3885 1 0.655847 0.418984 0.432356
4019 1 0.668145 0.426322 0.435851
3948 1 0.653119 0.436853 0.436605
3874 1 0.682272 0.417424 0.434476
3955 1 0.697402 0.424088 0.436144
3883 1 0.710036 0.415318 0.435805
3961 1 0.726274 0.424446 0.437037
3892 1 0.740504 0.414602 0.437918
4001 1 0.534273 0.453577 0.426568
4008 1 0.563585 0.453714 0.427736
3939 1 0.576133 0.44331 0.427992
4007 1 0.587327 0.448274 0.432264
3800 1 0.599358 0.441007 0.429735
3942 1 0.616175 0.449009 0.432685
3945 1 0.627736 0.436886 0.430244
3943 1 0.628532 0.454957 0.434698
4023 1 0.638883 0.442077 0.434838
4064 1 0.518324 0.463285 0.42761
4069 1 0.519877 0.474233 0.431989
3996 1 0.503225 0.471894 0.430137
3932 1 0.533489 0.468989 0.429947
3933 1 0.547858 0.463193 0.429072
3934 1 0.547452 0.476979 0.434863
4079 1 0.56352 0.469176 0.431976
3938 1 0.574008 0.461018 0.432863
4005 1 0.573149 0.476302 0.437108
4015 1 0.587783 0.46671 0.435205
4009 1 0.599343 0.455932 0.434143
4010 1 0.601493 0.473628 0.436815
4013 1 0.614398 0.462545 0.436979
4133 1 0.506338 0.482106 0.435674
4006 1 0.534658 0.481628 0.436563
2805 1 0.51615 0.0248109 0.450007
2871 1 0.507834 0.0333134 0.443828
2811 1 0.522692 0.0352287 0.442357
5540 1 0.539435 0.0413394 0.441064
5542 1 0.533339 0.02733 0.44681
2883 1 0.55089 0.0294908 0.446332
2812 1 0.556458 0.041988 0.439792
2886 1 0.566176 0.0330021 0.446374
2815 1 0.580539 0.0382321 0.44526
3025 1 0.597424 0.0432041 0.446063
5546 1 0.593128 0.0308715 0.450557
2892 1 0.680206 0.0441671 0.449663
2808 1 0.50975 0.0457007 0.437567
2884 1 0.570509 0.0474559 0.44113
2957 1 0.588298 0.0532568 0.441687
2882 1 0.606213 0.0559615 0.442421
2958 1 0.617526 0.0643962 0.44163
2887 1 0.614469 0.0487878 0.447437
2888 1 0.62897 0.0596927 0.445573
2890 1 0.638993 0.0517218 0.449793
3031 1 0.647397 0.059791 0.44481
2962 1 0.655323 0.0513317 0.449161
2961 1 0.670758 0.053491 0.445245
2952 1 0.661004 0.0672189 0.44337
2964 1 0.688221 0.0581859 0.445181
2963 1 0.696224 0.0469506 0.448388
3028 1 0.701334 0.0622804 0.442546
3035 1 0.711412 0.051598 0.446412
2895 1 0.727407 0.0545956 0.446359
2905 1 0.740712 0.0585693 0.447389
2881 1 0.603973 0.0732735 0.437728
3023 1 0.651851 0.0754731 0.438731
3097 1 0.635669 0.0691773 0.440519
3099 1 0.668505 0.0794847 0.436982
3029 1 0.676265 0.0670575 0.440059
3034 1 0.69004 0.0735155 0.439315
2896 1 0.715849 0.0659947 0.442509
3033 1 0.705555 0.0776183 0.437868
2901 1 0.733259 0.0706636 0.44129
3042 1 0.720014 0.0800393 0.439288
2965 1 0.739298 0.0815224 0.43831
2826 1 0.749364 0.0709203 0.444615
2966 1 0.754342 0.0841619 0.440772
2969 1 0.761801 0.0734909 0.446999
3041 1 0.776063 0.0761298 0.445525
3040 1 0.769251 0.0854546 0.443322
2970 1 0.786236 0.0651508 0.448812
2902 1 0.792462 0.0804196 0.444589
3051 1 0.802343 0.0688984 0.448549
3048 1 0.808924 0.0809156 0.442514
3047 1 0.826042 0.0780051 0.444557
3049 1 0.816141 0.0681806 0.450429
2980 1 0.847814 0.0770954 0.445195
3126 1 0.859257 0.0854529 0.442937
3121 1 0.871804 0.0856343 0.446066
2967 1 0.77516 0.0998772 0.438238
3045 1 0.784966 0.089558 0.44061
3046 1 0.798951 0.0916554 0.439836
3117 1 0.823856 0.0899923 0.43957
3118 1 0.839576 0.0891264 0.441798
3125 1 0.866609 0.0936121 0.437248
3055 1 0.889705 0.10111 0.438535
3132 1 0.88953 0.0905661 0.446976
3052 1 0.880289 0.0943676 0.4387
3198 1 0.907123 0.0914891 0.44912
3195 1 0.902237 0.0981145 0.442101
3200 1 0.914386 0.101038 0.443432
3273 1 0.930315 0.107382 0.443028
3202 1 0.923036 0.0931707 0.446882
3137 1 0.936469 0.0964888 0.448686
3196 1 0.934152 0.120782 0.437906
3275 1 0.944705 0.109489 0.444293
3204 1 0.949353 0.12397 0.440055
3283 1 0.956415 0.109719 0.446387
3354 1 0.965398 0.125223 0.44328
3427 1 0.978304 0.12861 0.446414
3356 1 0.970635 0.114491 0.449641
3280 1 0.957883 0.133885 0.439041
3205 1 0.961451 0.152253 0.438967
3423 1 0.972614 0.141294 0.441154
494 1 0.993899 0.132052 0.449918
3429 1 0.985431 0.143429 0.446124
3212 1 0.968484 0.1668 0.438686
561 1 0.976358 0.15365 0.440456
3426 1 0.981431 0.167722 0.44005
492 1 0.993063 0.156723 0.442313
3565 1 0.982811 0.183485 0.439009
3500 1 0.995581 0.173429 0.443247
3567 1 0.997125 0.18815 0.440391
913 1 0.968681 0.320997 0.437956
983 1 0.983208 0.322501 0.44135
3842 1 0.899736 0.347126 0.439673
3849 1 0.929286 0.331908 0.437123
3767 1 0.915381 0.339486 0.438868
3846 1 0.927714 0.348525 0.441119
981 1 0.941753 0.337333 0.440043
3780 1 0.953971 0.330063 0.440061
3919 1 0.954118 0.343944 0.443646
3848 1 0.968717 0.334636 0.443135
912 1 0.971316 0.347367 0.44649
1053 1 0.983115 0.339578 0.445147
1057 1 0.996439 0.344699 0.448917
844 1 0.995928 0.330656 0.444884
3757 1 0.835054 0.360824 0.43871
3692 1 0.847739 0.365539 0.441436
3765 1 0.860023 0.354782 0.440312
3907 1 0.859388 0.370046 0.445284
3837 1 0.875228 0.348547 0.437618
3840 1 0.872858 0.362458 0.442792
3839 1 0.887678 0.354762 0.440494
3911 1 0.900582 0.361879 0.444032
3845 1 0.914783 0.355244 0.442406
3844 1 0.928604 0.363969 0.446432
3850 1 0.941228 0.354049 0.44488
3913 1 0.944533 0.369779 0.448562
3920 1 0.955014 0.358868 0.447291
3824 1 0.804341 0.381755 0.43898
3827 1 0.791348 0.388072 0.440222
3684 1 0.818996 0.373359 0.438456
3898 1 0.818514 0.38767 0.443711
3685 1 0.833403 0.376901 0.442218
3828 1 0.846106 0.380529 0.444408
3838 1 0.859776 0.384249 0.450621
3906 1 0.872593 0.376724 0.449218
3909 1 0.885194 0.369735 0.446926
3912 1 0.899103 0.377627 0.449253
3841 1 0.913805 0.370887 0.447272
3915 1 0.930498 0.375127 0.450333
3818 1 0.75362 0.403011 0.438589
3826 1 0.768277 0.398624 0.438165
3888 1 0.768363 0.412162 0.441498
3897 1 0.78174 0.398814 0.440007
3894 1 0.790419 0.407363 0.444055
3764 1 0.804861 0.395651 0.444458
3832 1 0.817419 0.401483 0.448554
3760 1 0.805879 0.410912 0.449007
3836 1 0.831116 0.390201 0.446358
3950 1 0.682222 0.433253 0.437536
3957 1 0.712068 0.429003 0.440447
3884 1 0.739408 0.430316 0.442215
3960 1 0.754824 0.423983 0.441186
3891 1 0.777548 0.417817 0.445432
3890 1 0.767659 0.429016 0.446515
4028 1 0.668765 0.440409 0.440178
4017 1 0.655768 0.450733 0.442117
3952 1 0.670608 0.456777 0.44364
3882 1 0.682406 0.450639 0.44146
3959 1 0.694368 0.438941 0.439572
4024 1 0.695213 0.453427 0.445585
4020 1 0.708273 0.442974 0.444738
4097 1 0.722977 0.437991 0.443027
4027 1 0.723514 0.452526 0.448013
4030 1 0.735974 0.441315 0.447018
3964 1 0.752279 0.438063 0.447615
4086 1 0.629826 0.469866 0.440709
3944 1 0.641658 0.459316 0.440444
3956 1 0.652982 0.467225 0.442754
3946 1 0.664568 0.469404 0.446194
3954 1 0.680924 0.462011 0.448142
4087 1 0.677193 0.473374 0.449622
4071 1 0.519176 0.48869 0.438342
4066 1 0.504827 0.495007 0.440321
4137 1 0.531543 0.496607 0.441176
4075 1 0.560023 0.486097 0.439071
4073 1 0.546128 0.490678 0.439754
4072 1 0.561785 0.49807 0.442769
4081 1 0.576619 0.49102 0.441339
4011 1 0.5924 0.498335 0.444553
3941 1 0.589807 0.48153 0.438901
4080 1 0.604724 0.487096 0.441739
4082 1 0.616603 0.479442 0.439164
4149 1 0.616199 0.494457 0.444383
4083 1 0.628826 0.498078 0.448537
4091 1 0.645621 0.479351 0.442888
4012 1 0.631071 0.486782 0.44371
4148 1 0.645891 0.491988 0.448978
4089 1 0.658056 0.481932 0.447222
2873 1 0.512051 0.0121134 0.456848
5536 1 0.5034 -0.000196461 0.460423
5539 1 0.526268 0.0148078 0.454947
5543 1 0.540767 0.00674383 0.459253
5538 1 0.522707 0.00170629 0.460044
5537 1 0.542393 0.0187978 0.453044
5541 1 0.55469 0.0120425 0.459002
5544 1 0.57051 0.0116755 0.457791
5545 1 0.587525 0.0172564 0.45718
5547 1 0.599777 0.010289 0.460605
2816 1 0.603797 0.0208088 0.454151
5548 1 0.615994 0.0143316 0.459991
5550 1 0.629294 0.0210837 0.460271
5553 1 0.646173 0.0198966 0.46184
2824 1 0.682273 0.0200715 0.458618
5555 1 0.692145 0.0175126 0.464217
5552 1 0.708218 0.0162588 0.463231
2899 1 0.741337 0.0206464 0.463676
70 1 0.499626 0.0220714 0.452341
2814 1 0.560354 0.0204923 0.452605
2885 1 0.578801 0.0252513 0.452911
2889 1 0.628014 0.0412371 0.450904
2818 1 0.610405 0.036284 0.450233
2817 1 0.622358 0.0263385 0.454174
2822 1 0.63607 0.0331789 0.456415
2891 1 0.648363 0.0417205 0.453488
2959 1 0.664177 0.0400725 0.453655
2820 1 0.667573 0.0223607 0.460376
2893 1 0.655511 0.0293938 0.460198
2823 1 0.675114 0.0309699 0.455213
2827 1 0.689779 0.0335432 0.453442
2894 1 0.704982 0.0382064 0.452528
2821 1 0.699152 0.0240546 0.457245
2830 1 0.716292 0.0244886 0.454897
5554 1 0.720914 0.0396067 0.450765
2904 1 0.732117 0.0305555 0.456663
2832 1 0.746112 0.0315427 0.459589
3037 1 0.762425 0.036438 0.460198
2897 1 0.776268 0.0407608 0.459982
2906 1 0.736542 0.0433678 0.452863
3036 1 0.758093 0.0589672 0.449844
2898 1 0.752393 0.0455272 0.454286
3043 1 0.773497 0.0613684 0.451224
2968 1 0.767557 0.0479238 0.454782
2971 1 0.782593 0.0509365 0.456443
2979 1 0.7962 0.0454401 0.461173
3039 1 0.796051 0.0589668 0.454328
2900 1 0.809211 0.056527 0.456183
2981 1 0.824076 0.0574696 0.456734
2844 1 0.812539 0.0477257 0.46239
2913 1 0.839265 0.0582271 0.455661
2974 1 0.831733 0.0484294 0.462061
3135 1 0.85627 0.0606129 0.457372
3058 1 0.848452 0.049542 0.461598
3060 1 0.873257 0.0654564 0.457318
2976 1 0.831573 0.0688793 0.449749
3131 1 0.847413 0.0665869 0.450536
3197 1 0.864169 0.0732592 0.45123
3199 1 0.887855 0.0671911 0.458725
2982 1 0.881693 0.0774565 0.452159
3139 1 0.899489 0.0783157 0.454517
2997 1 0.902844 0.0698571 0.460511
3134 1 0.913065 0.0821258 0.454771
3272 1 0.92783 0.0830809 0.45349
3138 1 0.919932 0.072412 0.459628
3072 1 0.933783 0.0788782 0.461208
3203 1 0.944094 0.0866755 0.455854
3206 1 0.950525 0.098689 0.45221
3211 1 0.956856 0.0916645 0.458996
3210 1 0.96362 0.102788 0.454045
3282 1 0.971461 0.0983071 0.46115
3355 1 0.978713 0.10949 0.456861
3359 1 0.986329 0.123018 0.452799
496 1 0.995278 0.116571 0.460101
986 1 0.968709 0.362922 0.450896
3988 1 0.98456 0.354796 0.449431
3989 1 0.994712 0.364265 0.455806
3914 1 0.884025 0.38404 0.451943
3983 1 0.898677 0.388196 0.454668
3985 1 0.91434 0.382775 0.451613
3986 1 0.929952 0.389157 0.456124
4056 1 0.947804 0.384049 0.454595
1191 1 0.959243 0.374604 0.452965
4060 1 0.958532 0.389545 0.459167
4059 1 0.968814 0.379134 0.45657
4058 1 0.975701 0.38904 0.461719
982 1 0.980952 0.367741 0.453061
1121 1 0.985814 0.377989 0.457878
3834 1 0.84468 0.393455 0.452191
3833 1 0.83225 0.405392 0.452572
3899 1 0.842708 0.411904 0.456565
3905 1 0.869984 0.392183 0.453554
3696 1 0.856311 0.401373 0.455272
3901 1 0.873043 0.402606 0.4588
3910 1 0.887457 0.3942 0.457399
3984 1 0.901063 0.40017 0.460566
3916 1 0.914924 0.39407 0.459482
3918 1 0.945134 0.398796 0.460247
3896 1 0.779056 0.42955 0.450327
3830 1 0.791736 0.422719 0.449525
3825 1 0.790382 0.434332 0.455043
3835 1 0.804408 0.424157 0.454802
3974 1 0.819559 0.416134 0.453685
3762 1 0.816127 0.429225 0.458932
3981 1 0.833138 0.42194 0.45753
3908 1 0.84689 0.424796 0.460221
3902 1 0.861033 0.414555 0.460632
4105 1 0.740002 0.451834 0.451046
4031 1 0.753326 0.448856 0.451811
3963 1 0.763925 0.438271 0.452254
3831 1 0.777135 0.443874 0.455662
3967 1 0.766364 0.450569 0.457948
3966 1 0.789568 0.448403 0.459614
3895 1 0.804512 0.440482 0.459433
4099 1 0.693526 0.466469 0.450951
4095 1 0.688227 0.478801 0.454037
4029 1 0.707911 0.458626 0.449628
4174 1 0.707553 0.47177 0.456359
4101 1 0.720912 0.462834 0.454544
4098 1 0.725875 0.474311 0.459784
4035 1 0.737576 0.46607 0.456833
4032 1 0.751845 0.460951 0.457261
4037 1 0.750468 0.474278 0.462421
3962 1 0.778834 0.456978 0.46194
3965 1 0.764539 0.464594 0.461299
4084 1 0.660178 0.49593 0.45491
4085 1 0.670877 0.485756 0.453344
4093 1 0.682398 0.491082 0.457006
4094 1 0.698347 0.481569 0.45799
4102 1 0.711852 0.481581 0.463056
5474 1 0.584502 0.00428012 0.462675
5483 1 0.622218 -0.000104002 0.470397
5549 1 0.612173 0.00400127 0.465686
2819 1 0.62889 0.00976951 0.465494
5482 1 0.643415 0.00781302 0.465965
5481 1 0.655173 0.00233583 0.469961
5485 1 0.671721 0.000675635 0.469311
2825 1 0.65907 0.0123223 0.464346
5551 1 0.676654 0.0124135 0.463828
5484 1 0.684196 0.00602412 0.467221
5487 1 0.702113 0.00460872 0.468188
2828 1 0.727083 0.0181219 0.461551
2829 1 0.718116 0.00482859 0.467575
2831 1 0.735342 0.00761496 0.46788
5562 1 0.751357 0.00972418 0.468872
2833 1 0.769422 0.0170839 0.470455
2903 1 0.759458 0.0225402 0.464925
2975 1 0.772973 0.0296183 0.466757
2836 1 0.785754 0.0243109 0.473016
2972 1 0.787828 0.038969 0.46678
2973 1 0.806714 0.0378407 0.468953
2911 1 0.822929 0.0410832 0.469201
2978 1 0.837374 0.0396973 0.470533
5570 1 0.85241 0.0381231 0.47017
3053 1 0.862683 0.051811 0.463489
3059 1 0.872266 0.0436992 0.470964
3064 1 0.889022 0.0464916 0.470363
2914 1 0.879568 0.0536808 0.465158
3056 1 0.896612 0.0590475 0.465165
3201 1 0.905731 0.0514168 0.47092
3130 1 0.913789 0.0633574 0.464122
3128 1 0.919833 0.0548731 0.473576
3140 1 0.928608 0.0655314 0.467197
3209 1 0.948839 0.079909 0.463536
3142 1 0.943989 0.0678661 0.468241
3071 1 0.9557 0.0743564 0.47068
3213 1 0.968724 0.082119 0.476014
3141 1 0.962506 0.0864001 0.466372
3214 1 0.979402 0.091298 0.468638
3357 1 0.98609 0.103196 0.463989
3285 1 0.994049 0.0979932 0.470797
3284 1 1.00168 0.110537 0.467139
4057 1 0.990287 0.385891 0.464997
3904 1 0.888411 0.408533 0.463158
4053 1 0.927622 0.401356 0.462361
3982 1 0.914393 0.406537 0.46569
3980 1 0.926964 0.412772 0.469136
1051 1 0.96124 0.403162 0.464303
1123 1 0.975736 0.40128 0.466922
1132 1 0.988811 0.399807 0.46835
3975 1 0.830276 0.434267 0.462708
3976 1 0.861194 0.427824 0.464542
3903 1 0.875505 0.418275 0.464577
3978 1 0.88669 0.421052 0.469169
4049 1 0.874194 0.432349 0.469917
4050 1 0.888873 0.435045 0.475874
3979 1 0.898798 0.413974 0.468136
4051 1 0.901137 0.428985 0.473588
4052 1 0.913199 0.416568 0.472003
4125 1 0.946565 0.413565 0.466852
1192 1 0.948983 0.424214 0.471828
1193 1 0.935073 0.424065 0.472138
3917 1 0.963516 0.413891 0.470072
4054 1 0.968145 0.424307 0.475983
3987 1 0.977747 0.412567 0.471641
1056 1 0.993009 0.413631 0.473106
3969 1 0.805602 0.451617 0.464096
3900 1 0.819727 0.44384 0.464173
3973 1 0.818071 0.455153 0.469544
3977 1 0.831293 0.445127 0.469866
4046 1 0.844584 0.448183 0.473924
4047 1 0.848614 0.435778 0.466773
4048 1 0.860201 0.441136 0.471448
4175 1 0.737869 0.478433 0.464835
4033 1 0.779829 0.469697 0.466854
4103 1 0.767302 0.475915 0.467112
3971 1 0.792257 0.462689 0.465467
4039 1 0.791343 0.473876 0.471919
3972 1 0.803379 0.465013 0.47032
4109 1 0.803963 0.477414 0.474929
4025 1 0.697503 0.492562 0.46179
4167 1 0.711974 0.496175 0.467633
4022 1 0.72523 0.488077 0.466225
4104 1 0.739323 0.491422 0.469234
4170 1 0.751503 0.497304 0.473776
4034 1 0.753956 0.481984 0.469066
3968 1 0.764084 0.488226 0.473453
3970 1 0.778335 0.482327 0.471289
4038 1 0.791478 0.48721 0.474837
5497 1 0.764056 0.00555893 0.475508
5563 1 0.779816 0.00950009 0.477828
2977 1 0.792639 0.015591 0.479448
2845 1 0.808139 0.0191438 0.481618
5572 1 0.824146 0.0210339 0.482747
2840 1 0.837887 0.0214084 0.483834
2908 1 0.799293 0.0285022 0.475083
2912 1 0.815093 0.0294026 0.476442
2986 1 0.844625 0.0289965 0.477655
3057 1 0.82883 0.0336764 0.477092
5576 1 0.855954 0.0211999 0.482455
3066 1 0.863712 0.0324153 0.47758
2983 1 0.869823 0.0245681 0.483932
2988 1 0.877428 0.0369111 0.47745
2990 1 0.88612 0.029283 0.485141
3065 1 0.903666 0.0339031 0.486642
3063 1 0.89515 0.0408293 0.478767
3069 1 0.911644 0.0430408 0.478746
3136 1 0.927732 0.0478372 0.48054
3070 1 0.936204 0.058327 0.475781
3002 1 0.943072 0.0540282 0.483399
3000 1 0.951803 0.0641265 0.477229
3068 1 0.957718 0.057085 0.485263
3148 1 0.972715 0.0619928 0.48688
3144 1 0.966402 0.0701574 0.478656
3147 1 0.978284 0.0742779 0.482688
3215 1 0.982741 0.0858144 0.476824
3217 1 0.992415 0.0810951 0.485322
4055 1 0.923437 0.423522 0.476067
4123 1 0.941158 0.435372 0.47781
4124 1 0.955234 0.432077 0.47678
3990 1 0.984935 0.425481 0.477906
1197 1 0.997257 0.428014 0.484232
4118 1 0.875338 0.441798 0.476546
4189 1 0.886868 0.448088 0.481525
4120 1 0.901873 0.443474 0.479846
4122 1 0.902004 0.454259 0.485629
4121 1 0.915829 0.435064 0.478051
4195 1 0.912506 0.450188 0.483264
4197 1 0.927942 0.442278 0.481505
4263 1 0.92562 0.454445 0.485142
4265 1 0.939807 0.447236 0.484071
4130 1 0.971387 0.434064 0.481538
1195 1 0.955634 0.440789 0.482219
1194 1 0.968922 0.447905 0.487496
1058 1 0.985411 0.438088 0.485034
4041 1 0.815723 0.468831 0.474817
4045 1 0.830471 0.458307 0.474698
4115 1 0.831349 0.470785 0.478479
4044 1 0.84539 0.462465 0.480264
4116 1 0.839257 0.475438 0.483893
4117 1 0.858857 0.45375 0.477995
4186 1 0.856426 0.468047 0.483136
4119 1 0.873585 0.455327 0.481444
4190 1 0.885592 0.461338 0.486167
4187 1 0.869615 0.471119 0.48613
4036 1 0.778995 0.494434 0.477895
4040 1 0.800926 0.492506 0.479476
4043 1 0.815994 0.482369 0.478396
4113 1 0.814063 0.495973 0.484465
4111 1 0.827265 0.486819 0.485213
2843 1 0.801931 0.00664389 0.487805
5494 1 0.817562 0.010566 0.488327
5571 1 0.82547 -0.000730485 0.494544
2837 1 0.832347 0.0101371 0.489026
2838 1 0.841814 0.00152564 0.496143
2917 1 0.847284 0.0125737 0.48779
2846 1 0.856746 0.00417647 0.495268
2842 1 0.865324 0.0134726 0.4888
2848 1 0.872329 0.00794086 0.49529
3061 1 0.887096 0.0131657 0.49888
2915 1 0.880113 0.016956 0.491027
2992 1 0.894636 0.0228358 0.492412
2995 1 0.910442 0.027632 0.494034
3067 1 0.919566 0.0401572 0.487861
2999 1 0.927997 0.0324711 0.496179
3073 1 0.942167 0.0374104 0.497939
3001 1 0.958071 0.0378495 0.497831
2998 1 0.935282 0.0429437 0.489898
3143 1 0.952788 0.0445812 0.489977
3146 1 0.965108 0.0476766 0.490861
3076 1 0.976821 0.0531344 0.49507
283 1 0.996284 0.0632411 0.49722
3149 1 0.987354 0.0662104 0.490478
1263 1 0.951564 0.450425 0.488751
1196 1 0.992722 0.453996 0.498451
4200 1 0.980921 0.45119 0.492297
1055 1 0.996734 0.44518 0.491401
4191 1 0.884639 0.474732 0.491419
4193 1 0.900105 0.469114 0.491887
4261 1 0.914226 0.472809 0.495599
4128 1 0.913298 0.463823 0.490232
4129 1 0.926362 0.46701 0.492706
4196 1 0.927145 0.477572 0.499433
4126 1 0.937845 0.459672 0.490862
4199 1 0.939705 0.472065 0.499152
1331 1 0.951046 0.464281 0.495391
4127 1 0.965239 0.457365 0.493043
1265 1 0.978164 0.462576 0.49987
4112 1 0.841338 0.49786 0.49778
4185 1 0.841297 0.48547 0.490946
4114 1 0.830323 0.495928 0.492958
4183 1 0.855479 0.489823 0.496848
4188 1 0.855635 0.480091 0.48845
4257 1 0.870115 0.497427 0.500752
4192 1 0.870161 0.484429 0.493011
4258 1 0.884922 0.489385 0.4968
4194 1 0.897034 0.482293 0.49727
2849 1 0.896586 0.00648753 0.506551
2985 1 0.90225 0.0171561 0.499412
2918 1 0.914227 0.0106658 0.506892
2987 1 0.92869 0.0175319 0.507862
3133 1 0.945678 0.0211878 0.511579
2996 1 0.918928 0.0231324 0.500308
3074 1 0.952697 0.0314636 0.504098
2994 1 0.93856 0.0252821 0.502571
142 1 0.966934 0.0362769 0.508141
3003 1 0.972065 0.0433027 0.501648
3145 1 0.981375 0.041801 0.508529
3075 1 0.987074 0.0525533 0.501582
3080 1 0.997147 0.0471224 0.508808
1401 1 0.950053 0.476694 0.503406
1262 1 0.963955 0.469726 0.500701
1333 1 0.965258 0.478559 0.508429
1266 1 0.982294 0.472048 0.506685
1261 1 0.994138 0.463863 0.50684
1267 1 0.993855 0.477165 0.513147
4329 1 0.898728 0.495456 0.502799
4262 1 0.908624 0.498144 0.507214
4259 1 0.911721 0.487056 0.501366
4334 1 0.925825 0.491918 0.505802
4198 1 0.937445 0.482947 0.505462
1403 1 0.95039 0.487093 0.511997
4264 1 0.938272 0.495644 0.511612
2916 1 0.922616 0.00413886 0.514058
2991 1 0.944211 0.00377088 0.522514
3062 1 0.936885 0.0114826 0.514824
2993 1 0.95264 0.015013 0.519399
2928 1 0.966446 0.0206217 0.520387
2854 1 0.958337 0.00872875 0.525604
3006 1 0.962803 0.0257776 0.512394
3079 1 0.977184 0.0305388 0.516225
211 1 0.995298 0.0298537 0.523499
3007 1 0.98066 0.023363 0.522503
141 1 0.991119 0.0375678 0.51568
4269 1 0.951484 0.496615 0.518412
1334 1 0.964685 0.488116 0.515858
4267 1 0.962783 0.500119 0.52328
1332 1 0.977199 0.491638 0.519714
1264 1 0.976538 0.479848 0.513343
1336 1 0.991448 0.488498 0.520004
2924 1 0.965974 0.00170099 0.533416
2926 1 0.973894 0.0131724 0.528296
3004 1 0.979367 0.00650008 0.53814
3010 1 0.992564 0.0217218 0.528997
2930 1 0.998043 0.0101646 0.536416
1335 1 0.990773 0.499564 0.52736
3077 1 0.990411 -0.000746409 0.542193
4068 1 0.518364 0.501091 0.444151
4140 1 0.520157 0.51565 0.449585
4205 1 0.505659 0.510551 0.4449
4142 1 0.534933 0.510926 0.446395
4074 1 0.546928 0.504045 0.444345
4144 1 0.561733 0.511608 0.447526
4213 1 0.548926 0.517602 0.449363
4143 1 0.576396 0.505285 0.445063
4076 1 0.6053 0.499522 0.447764
4077 1 0.59073 0.512812 0.449312
4141 1 0.533948 0.523081 0.45238
4078 1 0.571436 0.520282 0.450578
4147 1 0.602145 0.519637 0.451826
4220 1 0.614707 0.519607 0.457048
4150 1 0.628596 0.511127 0.455623
4219 1 0.61561 0.507778 0.450657
4153 1 0.64182 0.51497 0.462273
4151 1 0.643259 0.503359 0.454992
4155 1 0.655608 0.508861 0.460601
4090 1 0.671531 0.501199 0.459236
4202 1 0.505857 0.520652 0.452391
4201 1 0.499633 0.531894 0.461253
4203 1 0.515601 0.527306 0.455853
4210 1 0.531938 0.532492 0.458661
4215 1 0.548067 0.530306 0.456802
4145 1 0.560032 0.526935 0.455314
4212 1 0.55973 0.535884 0.460996
4146 1 0.571965 0.532723 0.457601
4216 1 0.583527 0.537635 0.460389
4217 1 0.587591 0.524898 0.453549
4221 1 0.598263 0.53028 0.460124
4223 1 0.627703 0.524283 0.461963
4157 1 0.669191 0.513945 0.463834
4026 1 0.684128 0.505837 0.462347
4162 1 0.682443 0.518863 0.468267
4092 1 0.696859 0.508916 0.467471
4168 1 0.708453 0.510483 0.472675
3958 1 0.723021 0.50211 0.471869
4177 1 0.738347 0.504196 0.475417
4070 1 0.516478 0.535244 0.464593
1540 1 0.502089 0.541614 0.469185
4211 1 0.53002 0.54185 0.466635
4281 1 0.543352 0.539387 0.464995
4214 1 0.571543 0.542999 0.464884
4218 1 0.59523 0.541446 0.465418
4293 1 0.610599 0.532919 0.463359
4225 1 0.623994 0.535017 0.469024
4226 1 0.638921 0.529502 0.466879
4227 1 0.636518 0.536774 0.474126
4154 1 0.650452 0.533087 0.472991
4152 1 0.653673 0.520529 0.46458
4018 1 0.665116 0.525348 0.469026
4096 1 0.69464 0.521998 0.47179
4088 1 0.681281 0.530103 0.474212
4206 1 0.516089 0.546145 0.471629
4279 1 0.542541 0.548283 0.472552
4282 1 0.555608 0.547346 0.471597
4285 1 0.582234 0.545927 0.468492
4283 1 0.56994 0.551976 0.474042
4289 1 0.596859 0.554318 0.472358
4291 1 0.612175 0.548836 0.470917
5466 1 0.513895 0.978591 0.471307
5534 1 0.502305 0.989817 0.467582
5535 1 0.519351 0.99112 0.465279
5469 1 0.529145 0.981391 0.469572
5470 1 0.536196 0.994287 0.464276
5473 1 0.552841 0.998962 0.46428
5472 1 0.545767 0.982497 0.469319
5475 1 0.562723 0.989728 0.470627
5408 1 0.575401 0.980118 0.474688
5477 1 0.580592 0.991584 0.469642
5476 1 0.570039 1.00019 0.464177
5479 1 0.593213 0.98455 0.473929
5480 1 0.605305 0.995192 0.471607
5478 1 0.595087 0.997911 0.467477
5411 1 0.61645 0.990075 0.473718
5412 1 0.630141 0.986487 0.473552
5417 1 0.637833 0.996643 0.470967
5414 1 0.647297 0.98979 0.47403
5558 1 0.662802 0.991265 0.473522
5486 1 0.678723 0.992694 0.47339
5559 1 0.693358 0.992959 0.473176
5419 1 0.709974 0.995328 0.473557
5556 1 0.729989 0.998674 0.474009
5492 1 0.748127 1.00028 0.474583
4164 1 0.722378 0.514785 0.477353
4173 1 0.735868 0.517565 0.481678
4241 1 0.74647 0.511163 0.480019
4106 1 0.758071 0.515788 0.48312
4108 1 0.774953 0.509146 0.482851
4107 1 0.762303 0.502719 0.478256
4100 1 0.792286 0.502558 0.480231
4110 1 0.802782 0.508108 0.485078
4179 1 0.788509 0.514178 0.487912
4229 1 0.652074 0.542671 0.482262
4158 1 0.666268 0.534977 0.476837
4156 1 0.679423 0.540419 0.481948
4161 1 0.692899 0.533122 0.478349
4165 1 0.707137 0.524553 0.478915
4235 1 0.706831 0.537513 0.486289
4163 1 0.723905 0.528283 0.481907
4239 1 0.734728 0.530448 0.48712
4231 1 0.720714 0.541304 0.486104
4169 1 0.748882 0.523588 0.487776
4138 1 0.500779 0.558597 0.485648
4272 1 0.500035 0.551044 0.476368
4208 1 0.514157 0.554907 0.480224
4278 1 0.529302 0.552674 0.47658
4280 1 0.540493 0.55672 0.481053
4209 1 0.526385 0.56291 0.483832
4353 1 0.554561 0.557766 0.478504
4284 1 0.568676 0.563899 0.480912
4222 1 0.583412 0.558149 0.475668
4290 1 0.622674 0.547125 0.475922
4360 1 0.610926 0.557618 0.476315
4362 1 0.621999 0.557117 0.482735
4297 1 0.63813 0.547203 0.480932
4228 1 0.649528 0.554544 0.487666
4160 1 0.665818 0.546818 0.482706
4159 1 0.693683 0.543557 0.485685
4277 1 0.514328 0.565638 0.487872
4276 1 0.54159 0.570807 0.487734
4356 1 0.55506 0.568834 0.486241
4287 1 0.583758 0.56946 0.484193
4359 1 0.596597 0.565424 0.480229
4361 1 0.611238 0.568867 0.485557
5401 1 0.563611 0.955603 0.485998
5399 1 0.54866 0.953227 0.48706
5338 1 0.579954 0.956524 0.484734
5465 1 0.504529 0.958234 0.485509
5467 1 0.521166 0.961099 0.484569
5468 1 0.508913 0.970271 0.479283
5402 1 0.538702 0.974444 0.476218
5471 1 0.524463 0.972422 0.47738
5400 1 0.536454 0.965519 0.483204
5406 1 0.558965 0.978115 0.475241
5404 1 0.551945 0.967503 0.4819
5403 1 0.569203 0.968036 0.480046
5405 1 0.585616 0.96995 0.47898
5407 1 0.596203 0.959573 0.484282
5413 1 0.603183 0.969506 0.479517
5409 1 0.620973 0.974252 0.478947
5272 1 0.614502 0.962233 0.484125
5344 1 0.632056 0.96731 0.48327
5274 1 0.648839 0.967469 0.4834
5418 1 0.638039 0.976028 0.478
5349 1 0.665056 0.968844 0.483775
5557 1 0.681184 0.969484 0.4851
5489 1 0.698408 0.972648 0.483936
5420 1 0.715987 0.976183 0.483682
5410 1 0.606291 0.982735 0.476281
5415 1 0.654114 0.979569 0.478085
5416 1 0.674748 0.981012 0.478715
5347 1 0.689734 0.982725 0.479597
5346 1 0.705273 0.984933 0.479827
5564 1 0.728976 0.97836 0.485041
5560 1 0.721633 0.989852 0.478789
5493 1 0.739253 0.991092 0.480644
2834 1 0.755215 0.992173 0.479741
2835 1 0.746853 0.979148 0.486192
5567 1 0.772073 0.995196 0.482319
2907 1 0.786262 1.0007 0.48506
4246 1 0.771442 0.520746 0.489828
4042 1 0.803748 0.518583 0.49155
4181 1 0.81794 0.5039 0.491816
4249 1 0.815903 0.517002 0.498563
4180 1 0.828497 0.506236 0.499586
4243 1 0.748246 0.539214 0.491052
4176 1 0.765386 0.542796 0.497105
4171 1 0.761912 0.532328 0.492525
4172 1 0.778103 0.534885 0.494492
4245 1 0.790125 0.522654 0.492672
4317 1 0.789416 0.53594 0.499945
4178 1 0.804946 0.528458 0.498878
4363 1 0.636884 0.560785 0.489324
4230 1 0.663323 0.559849 0.491461
4233 1 0.678902 0.552144 0.489036
4166 1 0.691902 0.555243 0.493161
4234 1 0.678426 0.5639 0.495041
4236 1 0.706603 0.54774 0.490557
4232 1 0.706469 0.559802 0.497513
4307 1 0.736055 0.559494 0.497493
4242 1 0.733209 0.547164 0.490981
4237 1 0.719512 0.553295 0.493556
4315 1 0.746492 0.552507 0.496189
4313 1 0.775601 0.546763 0.500152
4346 1 0.515896 0.577848 0.495539
4345 1 0.527658 0.574127 0.492026
4349 1 0.538931 0.580185 0.494671
4347 1 0.526205 0.584562 0.498903
4351 1 0.555168 0.578367 0.491871
4355 1 0.570012 0.574521 0.487462
4286 1 0.580837 0.581883 0.491778
4288 1 0.565634 0.586997 0.494654
4427 1 0.596337 0.575137 0.488227
4431 1 0.612575 0.581038 0.491717
4358 1 0.625121 0.569372 0.489623
4432 1 0.627895 0.583549 0.494775
4365 1 0.639726 0.574191 0.493224
4292 1 0.656031 0.580964 0.498
4224 1 0.651058 0.570271 0.49297
4299 1 0.668287 0.572875 0.496794
4301 1 0.680198 0.576762 0.50041
4303 1 0.690297 0.569834 0.498119
4238 1 0.721428 0.565271 0.498742
4354 1 0.554176 0.58958 0.498338
4357 1 0.583904 0.593101 0.496371
4421 1 0.569462 0.598878 0.500422
4429 1 0.596949 0.588827 0.493135
4422 1 0.599548 0.600613 0.498614
4434 1 0.62724 0.59624 0.500846
4430 1 0.613681 0.593652 0.496381
4364 1 0.640448 0.589628 0.498528
5330 1 0.554289 0.930633 0.497151
5335 1 0.570743 0.92957 0.494373
5262 1 0.583866 0.922146 0.500046
5268 1 0.597555 0.923837 0.498595
5203 1 0.631468 0.927913 0.498418
5341 1 0.615091 0.925445 0.499054
5201 1 0.645847 0.927689 0.495671
5202 1 0.662197 0.930058 0.497553
5326 1 0.50254 0.950522 0.492284
5328 1 0.509756 0.937466 0.497027
5397 1 0.518866 0.947713 0.490799
5398 1 0.533207 0.951103 0.489906
5332 1 0.52308 0.938732 0.497373
5334 1 0.539678 0.94156 0.494122
5336 1 0.557136 0.943249 0.491545
5333 1 0.573596 0.942192 0.490306
5339 1 0.586209 0.933721 0.49331
5340 1 0.603569 0.936781 0.493395
5342 1 0.592623 0.945473 0.489117
5343 1 0.609134 0.952036 0.490139
5200 1 0.618749 0.93997 0.494407
5270 1 0.624887 0.954444 0.488695
5277 1 0.64006 0.955618 0.488654
5271 1 0.635762 0.941335 0.49276
5276 1 0.650923 0.942624 0.49305
5273 1 0.667566 0.945137 0.492766
5345 1 0.677984 0.936015 0.496898
5421 1 0.684157 0.947923 0.494694
5208 1 0.697092 0.938402 0.498219
5280 1 0.713395 0.940575 0.49937
5278 1 0.703696 0.951555 0.493988
5282 1 0.720089 0.951988 0.494289
5284 1 0.73094 0.942624 0.500615
5491 1 0.734511 0.955657 0.496427
5353 1 0.746761 0.945283 0.499706
5279 1 0.657895 0.953689 0.488213
5351 1 0.674132 0.958187 0.490373
5348 1 0.69291 0.961033 0.490967
5350 1 0.70784 0.965474 0.489044
5488 1 0.724339 0.964382 0.489335
5495 1 0.738972 0.968292 0.491416
5561 1 0.751305 0.957557 0.494535
5500 1 0.75616 0.972168 0.491417
5501 1 0.765788 0.962175 0.497384
5565 1 0.773391 0.976984 0.493287
5498 1 0.789431 0.979911 0.496366
5566 1 0.763865 0.982869 0.48852
2909 1 0.782308 0.98757 0.48912
5496 1 0.796205 0.991747 0.491331
2910 1 0.811814 0.996884 0.495927
5579 1 0.835287 0.989762 0.50009
4182 1 0.843179 0.511166 0.503008
4253 1 0.828593 0.521421 0.505785
4254 1 0.856185 0.516072 0.508585
4184 1 0.858006 0.504643 0.501685
4330 1 0.885835 0.513884 0.510322
4256 1 0.869299 0.511691 0.506289
4255 1 0.884115 0.503633 0.50271
4260 1 0.896943 0.502445 0.508821
4338 1 0.926258 0.503953 0.512623
4247 1 0.802845 0.543515 0.504724
4251 1 0.817762 0.529989 0.504604
4248 1 0.814546 0.542782 0.510734
4323 1 0.828194 0.534847 0.510587
4326 1 0.841406 0.524703 0.510774
4244 1 0.761788 0.555355 0.499634
4310 1 0.774522 0.557548 0.505772
4316 1 0.788013 0.550757 0.50552
4318 1 0.789913 0.562679 0.510355
4319 1 0.801736 0.554647 0.511535
4415 1 0.512783 0.586019 0.501032
4371 1 0.691769 0.58401 0.502438
4305 1 0.706641 0.574172 0.501682
4304 1 0.721155 0.579855 0.505271
4302 1 0.735536 0.588871 0.509745
4379 1 0.738874 0.573404 0.50024
4240 1 0.750209 0.564205 0.501532
4309 1 0.748845 0.579193 0.50699
4311 1 0.762627 0.569706 0.50592
4314 1 0.776188 0.571576 0.512411
4419 1 0.512444 0.595629 0.507935
4348 1 0.541145 0.591649 0.501184
4417 1 0.526803 0.594779 0.50539
4352 1 0.540954 0.603507 0.506723
4350 1 0.525488 0.606359 0.512142
4423 1 0.555456 0.603139 0.502837
4420 1 0.583742 0.605611 0.502786
4433 1 0.614619 0.605341 0.503639
4366 1 0.64255 0.601478 0.502542
4296 1 0.65655 0.593692 0.502221
4369 1 0.668014 0.603298 0.505359
4295 1 0.667896 0.587263 0.499983
4298 1 0.680764 0.592701 0.501858
4368 1 0.682425 0.609153 0.509062
4300 1 0.694773 0.59989 0.507074
4370 1 0.706891 0.59041 0.506069
4373 1 0.708031 0.605798 0.509151
4375 1 0.722159 0.596673 0.508935
4489 1 0.553515 0.614741 0.510579
4492 1 0.569506 0.609989 0.505328
4426 1 0.582481 0.616626 0.507747
4425 1 0.599919 0.609538 0.504985
4424 1 0.597027 0.622064 0.510456
4502 1 0.611223 0.616609 0.5082
4505 1 0.627466 0.607705 0.505282
4506 1 0.626022 0.621672 0.510824
4507 1 0.638891 0.614862 0.50969
4294 1 0.654368 0.610223 0.506793
4435 1 0.667648 0.614992 0.510091
4374 1 0.695011 0.614427 0.512698
5193 1 0.593778 0.886044 0.512379
5127 1 0.625494 0.889545 0.510512
5196 1 0.64428 0.889652 0.510428
5131 1 0.686938 0.882271 0.513294
5118 1 0.541782 0.907063 0.509385
5052 1 0.552526 0.897068 0.512297
5264 1 0.558023 0.909776 0.507597
5122 1 0.567416 0.895372 0.510421
5337 1 0.573177 0.908718 0.507145
5192 1 0.583733 0.898346 0.510258
5194 1 0.600794 0.899058 0.507878
5266 1 0.590302 0.91199 0.505559
5265 1 0.616402 0.899913 0.507515
5198 1 0.632848 0.901553 0.507143
5128 1 0.648082 0.904488 0.507757
5133 1 0.662727 0.89132 0.512085
5132 1 0.664562 0.906372 0.507019
5135 1 0.67567 0.893657 0.510581
5204 1 0.682282 0.910407 0.506216
5137 1 0.6932 0.897411 0.510548
5136 1 0.710461 0.900899 0.511168
5134 1 0.699244 0.912897 0.506365
5263 1 0.515921 0.916998 0.50913
5188 1 0.500123 0.918963 0.512178
5327 1 0.507361 0.929848 0.504933
5190 1 0.521522 0.926152 0.502203
5187 1 0.531763 0.916997 0.50588
5329 1 0.537221 0.931423 0.500039
5260 1 0.548038 0.919908 0.50359
5331 1 0.565531 0.91928 0.50171
5267 1 0.605973 0.911553 0.503487
5269 1 0.624166 0.913312 0.503805
5130 1 0.639726 0.915958 0.501765
5206 1 0.670087 0.920004 0.502822
5205 1 0.655651 0.917071 0.502865
5275 1 0.688731 0.922301 0.501766
5210 1 0.707639 0.925557 0.502025
5281 1 0.718538 0.914859 0.506964
5213 1 0.722573 0.927505 0.503836
5141 1 0.734503 0.918209 0.510826
5355 1 0.739288 0.931765 0.504446
5212 1 0.749583 0.922132 0.510728
5357 1 0.765398 0.923051 0.512099
5356 1 0.755104 0.934727 0.506667
5499 1 0.762839 0.94651 0.501734
5354 1 0.771412 0.936117 0.506965
5422 1 0.776531 0.9513 0.502492
5490 1 0.790809 0.956226 0.505958
5352 1 0.787208 0.941156 0.508814
5432 1 0.78185 0.964532 0.500107
5426 1 0.797628 0.968805 0.502208
5569 1 0.805167 0.961479 0.50835
5503 1 0.823625 0.965969 0.511042
5573 1 0.817079 0.974743 0.506234
5577 1 0.838035 0.970003 0.511635
5568 1 0.804697 0.982899 0.499483
5575 1 0.820549 0.989201 0.501242
5502 1 0.829722 0.981572 0.507264
2919 1 0.843033 0.980679 0.506943
5581 1 0.859956 0.984336 0.508041
2839 1 0.866402 0.997378 0.502452
2841 1 0.849659 0.993805 0.501795
5578 1 0.88176 1.00144 0.502997
5580 1 0.87543 0.988367 0.509548
2989 1 0.889709 0.992462 0.510433
4327 1 0.869577 0.522779 0.51266
4332 1 0.911268 0.509584 0.513676
4331 1 0.898932 0.517089 0.515088
4333 1 0.911048 0.522316 0.521181
4266 1 0.924504 0.515439 0.519121
4340 1 0.937742 0.505589 0.51815
4339 1 0.934807 0.51827 0.526508
4325 1 0.836403 0.538144 0.517212
4328 1 0.85281 0.533334 0.515364
4397 1 0.868116 0.529748 0.518981
4401 1 0.885551 0.524942 0.517346
4400 1 0.881378 0.536148 0.522911
4404 1 0.897351 0.527426 0.522383
4250 1 0.813842 0.558922 0.516978
4392 1 0.824712 0.559874 0.52261
4252 1 0.82422 0.546746 0.51685
4322 1 0.83666 0.550509 0.522932
4324 1 0.850032 0.544211 0.522308
4398 1 0.865801 0.542768 0.52451
4312 1 0.763236 0.583336 0.513164
4385 1 0.776858 0.587258 0.51606
4321 1 0.799987 0.569242 0.51694
4381 1 0.789909 0.579995 0.516213
4389 1 0.800878 0.581473 0.523173
4393 1 0.816454 0.571119 0.521705
4418 1 0.509283 0.603217 0.514632
4380 1 0.738339 0.601883 0.513881
4382 1 0.748252 0.591318 0.512583
4306 1 0.750605 0.609864 0.518062
4308 1 0.761864 0.595674 0.517937
4383 1 0.774758 0.601386 0.522525
4387 1 0.787735 0.590447 0.521532
4553 1 0.509456 0.613197 0.520277
4486 1 0.511342 0.628684 0.523156
4563 1 0.524318 0.618191 0.518723
4488 1 0.536458 0.615679 0.514197
4558 1 0.55109 0.62926 0.516195
4487 1 0.565902 0.620545 0.512055
4491 1 0.579395 0.628241 0.513742
4573 1 0.613417 0.626958 0.51426
4570 1 0.639758 0.628753 0.514995
4575 1 0.652232 0.620832 0.513733
4577 1 0.666843 0.626945 0.515982
4437 1 0.681326 0.622589 0.516371
4367 1 0.698573 0.627548 0.519219
4376 1 0.710163 0.618359 0.51528
4445 1 0.725559 0.609919 0.512968
4449 1 0.738017 0.619517 0.516026
4447 1 0.723659 0.625527 0.516234
4452 1 0.751907 0.624253 0.519648
4451 1 0.764704 0.612013 0.522582
4494 1 0.53597 0.631157 0.51961
4557 1 0.523382 0.637982 0.5251
4495 1 0.539353 0.645594 0.525035
4693 1 0.551769 0.6418 0.521675
4493 1 0.56592 0.633592 0.516985
4633 1 0.56671 0.647764 0.523313
4564 1 0.582216 0.642138 0.519353
4565 1 0.594287 0.632977 0.515919
4567 1 0.596845 0.644542 0.522301
4504 1 0.610782 0.641792 0.518235
4503 1 0.626215 0.633787 0.517657
4501 1 0.625647 0.646376 0.521855
4500 1 0.642836 0.642671 0.520505
4645 1 0.653703 0.632982 0.518087
4641 1 0.668789 0.639919 0.52113
4639 1 0.656452 0.646787 0.523911
4436 1 0.684885 0.635062 0.519937
4439 1 0.69768 0.642863 0.521959
4372 1 0.712318 0.637354 0.51948
4450 1 0.734993 0.63213 0.519192
4377 1 0.725105 0.640612 0.522178
4444 1 0.736064 0.651116 0.523903
4591 1 0.747529 0.638718 0.524995
4635 1 0.580712 0.656518 0.52395
4496 1 0.609391 0.6547 0.524658
4499 1 0.639953 0.656953 0.523888
4508 1 0.668354 0.657926 0.522409
4438 1 0.683496 0.649431 0.521823
4378 1 0.694255 0.659269 0.523118
4443 1 0.681346 0.669008 0.52507
4516 1 0.710071 0.651603 0.522991
4440 1 0.709846 0.668237 0.523298
4519 1 0.723153 0.657192 0.525407
4441 1 0.695715 0.679595 0.524841
4578 1 0.674023 0.685682 0.525491
4921 1 0.644709 0.821642 0.524489
4850 1 0.662216 0.824915 0.524398
4924 1 0.678898 0.825779 0.521477
5057 1 0.596329 0.844913 0.523656
4990 1 0.63641 0.836125 0.524535
4987 1 0.652724 0.836511 0.52229
5060 1 0.642185 0.847068 0.518317
4918 1 0.668429 0.83839 0.520089
4991 1 0.685123 0.839307 0.520069
4996 1 0.69545 0.827514 0.523689
5071 1 0.699594 0.846534 0.522847
5125 1 0.585269 0.857149 0.522642
5054 1 0.601049 0.860061 0.520188
5123 1 0.587363 0.868125 0.516705
4988 1 0.611049 0.846708 0.522698
5197 1 0.615264 0.860077 0.517308
5056 1 0.625632 0.849867 0.521264
5059 1 0.630687 0.860322 0.51593
5129 1 0.64622 0.862975 0.51548
4989 1 0.658268 0.849004 0.518733
5061 1 0.664939 0.863368 0.516689
4922 1 0.674283 0.853686 0.518533
4992 1 0.689963 0.856883 0.518884
5063 1 0.683064 0.869052 0.515257
5065 1 0.700221 0.869238 0.517544
4994 1 0.706132 0.858567 0.521769
5067 1 0.723956 0.862031 0.52423
5116 1 0.516537 0.882259 0.523212
5114 1 0.530517 0.88274 0.518558
5117 1 0.541937 0.869496 0.523285
5048 1 0.556482 0.869568 0.521279
5044 1 0.546651 0.881784 0.516137
5121 1 0.561633 0.883504 0.514851
5191 1 0.577579 0.883905 0.513789
5053 1 0.57435 0.871356 0.520568
5199 1 0.61032 0.887701 0.512528
5124 1 0.603534 0.873524 0.514548
5126 1 0.619598 0.87695 0.51385
5195 1 0.637964 0.875266 0.51277
5058 1 0.654909 0.878142 0.514857
5062 1 0.670957 0.877113 0.512466
5066 1 0.714626 0.873479 0.518147
5064 1 0.704924 0.886146 0.514784
5070 1 0.721251 0.889307 0.514919
5006 1 0.728901 0.878446 0.519681
5211 1 0.742996 0.879582 0.522397
5142 1 0.761482 0.883732 0.523653
5261 1 0.511851 0.905211 0.514448
5189 1 0.505404 0.893925 0.521734
5119 1 0.520555 0.894143 0.518512
5120 1 0.525929 0.906589 0.511244
5115 1 0.535341 0.894562 0.513475
5207 1 0.726046 0.904991 0.514246
5138 1 0.735381 0.893087 0.517982
5140 1 0.743326 0.907011 0.516254
5209 1 0.752563 0.896253 0.519207
5283 1 0.756904 0.911997 0.514751
5215 1 0.766697 0.900705 0.520882
5358 1 0.782445 0.903383 0.521972
5286 1 0.795736 0.905064 0.525261
5423 1 0.781167 0.928718 0.513656
5214 1 0.772178 0.914399 0.516928
5285 1 0.785261 0.918598 0.519345
5425 1 0.794825 0.931839 0.517318
5360 1 0.799393 0.91913 0.523577
5427 1 0.819765 0.927946 0.52299
5289 1 0.83378 0.93127 0.525038
5424 1 0.800754 0.945731 0.512148
5430 1 0.815993 0.951966 0.513111
5431 1 0.81231 0.938497 0.518735
5361 1 0.824696 0.942606 0.518685
5428 1 0.83087 0.954322 0.516246
5429 1 0.838977 0.945488 0.521647
5434 1 0.855305 0.951669 0.522894
5574 1 0.84372 0.960688 0.517246
5362 1 0.853474 0.97296 0.511639
5507 1 0.861665 0.96411 0.519818
5510 1 0.872951 0.955651 0.525528
5582 1 0.878209 0.96891 0.522369
2847 1 0.868395 0.97604 0.514374
5586 1 0.895196 0.972883 0.523096
5512 1 0.884395 0.979554 0.516152
2850 1 0.906987 1.00083 0.513269
5591 1 0.90796 0.980851 0.524972
2851 1 0.898778 0.986681 0.51897
2857 1 0.916411 0.993678 0.52105
2922 1 0.931609 0.998234 0.520924
4335 1 0.949709 0.509169 0.526506
4479 1 0.948233 0.519905 0.532993
4337 1 0.961373 0.507103 0.531246
4270 1 0.972887 0.511233 0.536109
4268 1 0.976163 0.501398 0.528401
1473 1 0.987566 0.507773 0.534181
4403 1 0.910777 0.53372 0.527981
4474 1 0.906665 0.543858 0.53419
4402 1 0.892672 0.539687 0.528937
4407 1 0.92307 0.527005 0.526841
4336 1 0.919431 0.538895 0.534341
4410 1 0.936387 0.529642 0.532631
4395 1 0.85068 0.557907 0.527847
4467 1 0.865825 0.554406 0.531296
4399 1 0.880426 0.545866 0.529594
4471 1 0.879096 0.557619 0.538536
4472 1 0.892194 0.548779 0.53669
4386 1 0.811889 0.586165 0.527879
4320 1 0.827649 0.589272 0.532775
4396 1 0.840146 0.564599 0.527605
4463 1 0.826861 0.576045 0.528385
4391 1 0.84127 0.577757 0.532232
4468 1 0.853576 0.567102 0.534427
4457 1 0.789222 0.608233 0.527727
4384 1 0.800671 0.596091 0.527845
4455 1 0.814787 0.602678 0.531447
4521 1 0.760534 0.628969 0.526694
4453 1 0.77671 0.61519 0.526782
4459 1 0.80336 0.612661 0.531506
4456 1 0.789351 0.621519 0.531375
4531 1 0.804954 0.624488 0.53674
4554 1 0.508137 0.643557 0.529113
4454 1 0.776853 0.629681 0.530829
4518 1 0.764633 0.64385 0.530156
4446 1 0.77913 0.647825 0.534614
4522 1 0.791936 0.637635 0.535827
4559 1 0.511544 0.657991 0.533355
4490 1 0.524307 0.65261 0.528451
4560 1 0.537834 0.662552 0.529206
4624 1 0.523942 0.667878 0.532971
4625 1 0.552376 0.656538 0.527446
4631 1 0.554064 0.670383 0.531225
4566 1 0.567908 0.662513 0.526693
4562 1 0.579918 0.672448 0.527191
4637 1 0.5949 0.662365 0.526311
4428 1 0.62488 0.662763 0.524892
4497 1 0.609358 0.672393 0.526595
4643 1 0.639474 0.672166 0.526313
4571 1 0.653225 0.662862 0.526192
4586 1 0.738408 0.665086 0.528015
4515 1 0.725815 0.669773 0.525958
4448 1 0.749486 0.651946 0.528803
4657 1 0.753061 0.665894 0.5328
4597 1 0.765042 0.657776 0.534375
4587 1 0.764692 0.672607 0.537107
4768 1 0.539595 0.673768 0.534961
4697 1 0.541137 0.692142 0.535545
4629 1 0.554801 0.683573 0.536019
4627 1 0.570059 0.679969 0.531769
4699 1 0.583 0.686025 0.531955
4632 1 0.595676 0.678342 0.529653
4630 1 0.610313 0.689622 0.528712
4634 1 0.623572 0.677321 0.527319
4640 1 0.623679 0.693625 0.529181
4647 1 0.639292 0.688823 0.528036
4509 1 0.665134 0.674455 0.526332
4572 1 0.652888 0.679763 0.527775
4644 1 0.687816 0.691252 0.525772
4510 1 0.710091 0.683549 0.527409
4574 1 0.726429 0.682258 0.528707
4513 1 0.740973 0.680204 0.530992
4582 1 0.744976 0.693905 0.532732
4517 1 0.755838 0.682967 0.534903
4626 1 0.554044 0.700251 0.537184
4628 1 0.570937 0.695767 0.536331
4701 1 0.583177 0.703534 0.533355
4703 1 0.565794 0.71418 0.536337
4498 1 0.596399 0.695151 0.530504
4708 1 0.598441 0.712917 0.533184
4569 1 0.614806 0.705889 0.531502
4580 1 0.635185 0.706265 0.529712
4638 1 0.64867 0.713288 0.529524
4579 1 0.650926 0.699569 0.528006
4646 1 0.665496 0.694461 0.529223
4642 1 0.664004 0.711974 0.530361
4581 1 0.679088 0.702714 0.526994
4585 1 0.695713 0.70842 0.526879
4511 1 0.702437 0.69538 0.525917
4583 1 0.709005 0.711994 0.529235
4659 1 0.717475 0.696788 0.526689
4654 1 0.724933 0.711255 0.532909
4442 1 0.732339 0.696605 0.529977
4514 1 0.742125 0.710597 0.535644
4698 1 0.579774 0.717639 0.535283
4847 1 0.597491 0.733595 0.53546
4705 1 0.623583 0.716988 0.53156
4777 1 0.612229 0.721891 0.531676
4849 1 0.610607 0.734815 0.533039
4568 1 0.626202 0.734541 0.532475
4707 1 0.637799 0.723007 0.531023
4636 1 0.653898 0.724619 0.529934
4717 1 0.669126 0.728687 0.529268
4779 1 0.680165 0.715889 0.528789
4576 1 0.682618 0.732823 0.53068
4651 1 0.697864 0.723344 0.530124
4512 1 0.715894 0.72199 0.53169
4786 1 0.699056 0.735047 0.531964
4653 1 0.714876 0.73624 0.532248
4723 1 0.728956 0.72482 0.535379
4700 1 0.590602 0.749768 0.537354
4704 1 0.604202 0.748599 0.534399
4709 1 0.618589 0.751658 0.533597
4712 1 0.633097 0.747648 0.532257
4711 1 0.643731 0.737402 0.530027
4784 1 0.648537 0.752982 0.529408
4710 1 0.659998 0.74137 0.528572
4648 1 0.664185 0.758911 0.53098
4649 1 0.673996 0.743859 0.530695
4715 1 0.690788 0.74696 0.531232
4718 1 0.680206 0.760295 0.533063
4857 1 0.70659 0.752093 0.533364
4789 1 0.732005 0.739503 0.534656
4584 1 0.72104 0.749685 0.532955
4706 1 0.579414 0.778943 0.535602
4782 1 0.607064 0.763258 0.532991
4775 1 0.589653 0.763706 0.535198
4778 1 0.594285 0.780242 0.533856
4845 1 0.61063 0.780975 0.533705
4781 1 0.622904 0.765311 0.531956
4851 1 0.626964 0.78148 0.531767
4780 1 0.638848 0.767077 0.531485
4650 1 0.644497 0.782433 0.531474
4714 1 0.652268 0.766505 0.531385
4716 1 0.670549 0.771767 0.531877
4652 1 0.68462 0.776701 0.534728
4720 1 0.695223 0.763745 0.533985
4721 1 0.711481 0.769099 0.534135
4858 1 0.701251 0.777601 0.534759
4855 1 0.717933 0.78294 0.536826
4978 1 0.559017 0.804159 0.537317
4774 1 0.584577 0.793519 0.534494
4913 1 0.569904 0.792806 0.536447
4842 1 0.602007 0.79286 0.533705
4846 1 0.618585 0.795692 0.531908
4713 1 0.635855 0.794085 0.531032
4783 1 0.653233 0.795964 0.530061
4852 1 0.660389 0.780867 0.531283
4853 1 0.666921 0.798595 0.529142
4787 1 0.674954 0.786762 0.53102
4719 1 0.691802 0.790443 0.533446
4923 1 0.683834 0.803448 0.529252
4785 1 0.706096 0.794884 0.534275
4995 1 0.6999 0.806149 0.529804
4788 1 0.722831 0.796726 0.537458
4985 1 0.580143 0.82032 0.531516
4843 1 0.575208 0.805531 0.535334
4981 1 0.566195 0.81678 0.534185
4986 1 0.591936 0.806422 0.534508
4914 1 0.595787 0.818908 0.529517
4844 1 0.60854 0.807103 0.532855
4920 1 0.625093 0.806043 0.530815
4848 1 0.61411 0.818019 0.528887
4917 1 0.628818 0.819818 0.527619
4919 1 0.639218 0.805602 0.527608
4926 1 0.657454 0.811405 0.526552
4854 1 0.673835 0.811792 0.524476
4993 1 0.688884 0.815032 0.526187
4925 1 0.714865 0.810491 0.534317
4928 1 0.705592 0.822414 0.529544
4927 1 0.717641 0.825108 0.533801
5111 1 0.532451 0.849728 0.534385
5113 1 0.540477 0.83605 0.536538
4912 1 0.558161 0.834001 0.533577
5050 1 0.548957 0.84598 0.53089
4979 1 0.572649 0.832823 0.531416
4984 1 0.56536 0.846928 0.528897
5051 1 0.580498 0.844817 0.526968
4982 1 0.59145 0.836283 0.529125
4915 1 0.605458 0.83336 0.527015
4916 1 0.621774 0.832729 0.525557
4997 1 0.710389 0.834814 0.528347
4999 1 0.733207 0.831632 0.536394
4998 1 0.723541 0.839239 0.530717
5075 1 0.744468 0.844331 0.533619
5001 1 0.751258 0.832172 0.537021
2378 1 0.506234 0.858519 0.535988
5042 1 0.522008 0.85933 0.531723
5046 1 0.539713 0.857265 0.528843
4980 1 0.554631 0.858978 0.52662
5055 1 0.570854 0.859918 0.525119
5069 1 0.716698 0.849658 0.525699
5139 1 0.733097 0.852927 0.529525
5068 1 0.75725 0.849575 0.535566
5077 1 0.749058 0.857508 0.530428
5072 1 0.739861 0.867608 0.52612
5145 1 0.764761 0.864267 0.532995
5143 1 0.780433 0.866921 0.535568
5219 1 0.797364 0.869734 0.536506
2377 1 0.510184 0.870034 0.528119
5183 1 0.526335 0.870926 0.526222
5004 1 0.756768 0.872987 0.527808
5217 1 0.770817 0.875151 0.529475
5288 1 0.777815 0.889513 0.526144
5144 1 0.786885 0.880269 0.531879
5008 1 0.802255 0.884852 0.532999
5149 1 0.81882 0.891028 0.534314
5146 1 0.791578 0.892112 0.529424
5287 1 0.813924 0.912514 0.527172
5216 1 0.808575 0.899031 0.530473
5433 1 0.825345 0.902618 0.530159
5364 1 0.84359 0.906392 0.532633
5081 1 0.834246 0.896356 0.537158
5366 1 0.830439 0.916375 0.526901
5505 1 0.846912 0.920718 0.528472
5506 1 0.857052 0.912819 0.534014
5293 1 0.861705 0.929688 0.531019
5437 1 0.872132 0.920924 0.536929
5436 1 0.849671 0.935683 0.526092
5504 1 0.864814 0.944158 0.528287
5438 1 0.873317 0.935842 0.53425
5508 1 0.8788 0.949217 0.531062
2853 1 0.897459 0.955699 0.534526
5583 1 0.887109 0.962133 0.527672
5589 1 0.90255 0.968153 0.529711
5588 1 0.911008 0.959518 0.536703
5584 1 0.91527 0.972927 0.531877
5595 1 0.930441 0.977731 0.533453
5590 1 0.922447 0.983285 0.526264
2852 1 0.936171 0.990871 0.527829
2923 1 0.943349 0.983068 0.535639
2921 1 0.951844 0.99733 0.529616
1541 1 0.959773 0.519997 0.537339
1474 1 0.998889 0.522936 0.544003
1542 1 0.986559 0.516955 0.540371
4478 1 0.931854 0.538529 0.53956
4409 1 0.946968 0.530491 0.537965
1681 1 0.9451 0.542112 0.546091
4406 1 0.956818 0.532196 0.543432
4480 1 0.972834 0.524117 0.544322
1611 1 0.986337 0.527311 0.547814
4546 1 0.890793 0.559671 0.543187
4545 1 0.904731 0.554501 0.543736
4405 1 0.917731 0.546875 0.54042
4475 1 0.917184 0.556982 0.548476
4473 1 0.932736 0.550772 0.545073
4465 1 0.852345 0.578764 0.540483
4470 1 0.867802 0.568197 0.539081
4466 1 0.863101 0.580089 0.545845
4469 1 0.878802 0.571167 0.544429
4476 1 0.901308 0.567004 0.549139
4388 1 0.827888 0.600687 0.538017
4464 1 0.84139 0.590147 0.540782
4460 1 0.837864 0.607202 0.543689
4394 1 0.8524 0.596636 0.545872
4390 1 0.818276 0.615989 0.537174
4529 1 0.818555 0.631196 0.542331
4461 1 0.828103 0.618281 0.544402
4520 1 0.793296 0.652596 0.540444
4524 1 0.806867 0.640019 0.541417
4523 1 0.820062 0.644121 0.547251
4695 1 0.501195 0.661376 0.539338
4694 1 0.510629 0.671488 0.538979
4589 1 0.778822 0.663582 0.539308
4525 1 0.793251 0.666755 0.544084
4593 1 0.804905 0.652939 0.545743
4600 1 0.805504 0.669917 0.550335
4766 1 0.509747 0.684256 0.544599
4561 1 0.524542 0.684391 0.537911
4592 1 0.764244 0.690711 0.540379
4596 1 0.775547 0.677146 0.542137
4590 1 0.778202 0.692294 0.545771
4598 1 0.791899 0.681465 0.547082
4835 1 0.51615 0.696547 0.541047
4762 1 0.503418 0.697989 0.549554
4833 1 0.51249 0.709558 0.548374
1890 1 0.529851 0.699918 0.539851
4832 1 0.525649 0.712092 0.544287
4769 1 0.542096 0.708788 0.538135
4588 1 0.755227 0.702803 0.537949
4793 1 0.756605 0.715192 0.540065
4727 1 0.768491 0.706379 0.542324
4790 1 0.781934 0.707045 0.546948
4905 1 0.523794 0.726454 0.547678
4839 1 0.537515 0.722282 0.541981
4834 1 0.551676 0.720448 0.539038
4702 1 0.547489 0.736218 0.541473
4776 1 0.583864 0.73271 0.538493
4771 1 0.565599 0.731813 0.537853
4656 1 0.743018 0.726437 0.537314
4725 1 0.757305 0.732606 0.542302
4655 1 0.770494 0.721374 0.544536
4861 1 0.769393 0.737036 0.54582
4794 1 0.783513 0.722151 0.54842
4868 1 0.782205 0.736187 0.549092
4902 1 0.520323 0.741762 0.548687
2169 1 0.516866 0.758814 0.550099
4837 1 0.534167 0.738134 0.544304
4836 1 0.52901 0.753505 0.545968
4770 1 0.559863 0.743647 0.53933
4773 1 0.546083 0.754549 0.54162
4841 1 0.563332 0.758632 0.539131
4911 1 0.577328 0.746729 0.538176
4840 1 0.576784 0.762255 0.537447
4860 1 0.732846 0.753581 0.53876
4724 1 0.746021 0.743025 0.539274
4722 1 0.758222 0.750513 0.543047
4932 1 0.746495 0.758736 0.541507
4863 1 0.77401 0.754286 0.54683
4976 1 0.522582 0.770928 0.548755
4910 1 0.536768 0.768007 0.543967
4907 1 0.544529 0.781664 0.540613
4906 1 0.552488 0.770444 0.540344
4772 1 0.565958 0.77369 0.537868
4931 1 0.725062 0.766881 0.536508
5005 1 0.737602 0.77076 0.540664
4939 1 0.749496 0.775443 0.54481
4930 1 0.763863 0.765137 0.546429
4936 1 0.763012 0.779542 0.5485
5011 1 0.775939 0.775573 0.549876
4908 1 0.520425 0.794605 0.546914
4904 1 0.533168 0.783931 0.547305
4909 1 0.535699 0.79772 0.542369
4838 1 0.55698 0.785557 0.53917
5047 1 0.548796 0.794874 0.539839
4862 1 0.735215 0.785673 0.539203
4859 1 0.738107 0.802556 0.539478
4792 1 0.748411 0.791467 0.542362
5009 1 0.764936 0.792983 0.546429
2380 1 0.505169 0.818849 0.548529
5043 1 0.51261 0.807578 0.546807
2449 1 0.519751 0.820826 0.543974
5045 1 0.535321 0.822253 0.540474
4977 1 0.527323 0.807718 0.544363
4983 1 0.552385 0.822943 0.537277
5049 1 0.543041 0.809608 0.540212
4856 1 0.728809 0.813987 0.536874
5000 1 0.744262 0.817772 0.539189
4929 1 0.755152 0.806309 0.543608
5003 1 0.759717 0.820016 0.542445
5007 1 0.776759 0.825724 0.544586
4937 1 0.769838 0.807365 0.545575
4866 1 0.780553 0.81172 0.548977
2447 1 0.516674 0.848236 0.538171
2379 1 0.511462 0.833947 0.542661
5185 1 0.526878 0.835329 0.539187
5073 1 0.765089 0.835823 0.539703
5074 1 0.780884 0.842215 0.543593
5083 1 0.789678 0.829073 0.545925
5080 1 0.797269 0.845568 0.546309
5082 1 0.802612 0.833531 0.548171
5078 1 0.817326 0.838464 0.549193
5153 1 0.829974 0.829312 0.550479
4934 1 0.771695 0.8521 0.537731
5002 1 0.789359 0.856807 0.53969
5148 1 0.809513 0.850292 0.546856
5010 1 0.803744 0.861169 0.542659
5221 1 0.823997 0.865696 0.543864
5298 1 0.823939 0.854605 0.547526
5152 1 0.837451 0.858173 0.549028
5218 1 0.813332 0.873696 0.536975
5223 1 0.826148 0.88033 0.540281
5220 1 0.839523 0.872898 0.546305
5147 1 0.84381 0.886929 0.541705
5297 1 0.854998 0.877779 0.548727
5295 1 0.86895 0.88482 0.550375
5291 1 0.852433 0.89768 0.537706
5076 1 0.860821 0.891469 0.543533
5435 1 0.868585 0.905647 0.5392
5363 1 0.874437 0.899262 0.546165
5440 1 0.881251 0.912966 0.542781
5292 1 0.888194 0.900987 0.547986
5514 1 0.883814 0.928058 0.539661
5509 1 0.895149 0.917568 0.546724
5517 1 0.898016 0.935159 0.543651
5515 1 0.889888 0.94286 0.537339
5516 1 0.905152 0.948124 0.541936
5445 1 0.912709 0.94055 0.548773
5585 1 0.917952 0.952975 0.543701
5523 1 0.922481 0.966841 0.538516
5446 1 0.93185 0.962607 0.544263
5522 1 0.936311 0.972844 0.540223
5520 1 0.949042 0.966233 0.547183
2856 1 0.951076 0.97626 0.542234
2920 1 0.9559 0.98909 0.5379
2855 1 0.963072 0.982601 0.544803
2858 1 0.97066 0.993105 0.541456
2932 1 0.978946 0.988676 0.548092
2859 1 0.996015 0.994642 0.549109
4408 1 0.971152 0.536244 0.550976
4477 1 0.958323 0.543504 0.551399
1614 1 0.983851 0.542319 0.553068
4549 1 0.930373 0.562929 0.551788
1612 1 0.94539 0.555083 0.550665
1685 1 0.957284 0.557512 0.555016
1616 1 0.971095 0.552663 0.555933
1687 1 0.971512 0.563118 0.561466
1615 1 0.998585 0.549165 0.556456
1619 1 0.985025 0.555702 0.559696
4543 1 0.87628 0.580926 0.551022
4541 1 0.88957 0.57405 0.549721
4613 1 0.894711 0.584925 0.5548
4542 1 0.905274 0.577826 0.553326
4547 1 0.915448 0.570094 0.552472
4617 1 0.930394 0.573613 0.558539
4544 1 0.915766 0.5852 0.558946
1682 1 0.944391 0.566594 0.55708
1686 1 0.957433 0.572974 0.561258
4535 1 0.867509 0.59312 0.551211
4536 1 0.878127 0.604549 0.557808
4540 1 0.881779 0.591415 0.555344
4611 1 0.890189 0.599909 0.560022
4615 1 0.901555 0.590913 0.559956
4458 1 0.827934 0.633407 0.55046
4533 1 0.839937 0.618797 0.552403
4537 1 0.850209 0.609434 0.549895
4534 1 0.863148 0.607798 0.554464
4462 1 0.853633 0.623357 0.556824
4612 1 0.869909 0.619642 0.559755
4527 1 0.829141 0.647946 0.552946
4528 1 0.83808 0.634204 0.557769
4601 1 0.841427 0.650978 0.560523
4599 1 0.818176 0.660532 0.551409
4594 1 0.818721 0.674729 0.555769
4595 1 0.830347 0.661219 0.557466
4661 1 0.805528 0.684899 0.552953
4671 1 0.819185 0.687408 0.55813
4667 1 0.831496 0.677706 0.56197
4662 1 0.83181 0.692397 0.562357
4791 1 0.793279 0.697263 0.550651
4933 1 0.79596 0.7125 0.552517
4658 1 0.805484 0.69827 0.556239
4663 1 0.819919 0.70453 0.560574
4728 1 0.806179 0.716097 0.557233
4971 1 0.512245 0.723056 0.55141
4903 1 0.508752 0.735229 0.55196
4864 1 0.794345 0.726429 0.553895
4865 1 0.806968 0.73146 0.558378
4797 1 0.818477 0.723875 0.562245
4798 1 0.821295 0.739977 0.56124
2170 1 0.505785 0.751002 0.553251
4873 1 0.787757 0.749309 0.551693
4869 1 0.797811 0.741748 0.554845
4732 1 0.798214 0.755339 0.555363
4803 1 0.812044 0.747011 0.557064
4733 1 0.827347 0.752844 0.561067
4974 1 0.514944 0.781737 0.552069
4972 1 0.508416 0.768391 0.553107
4935 1 0.787214 0.766261 0.551924
4938 1 0.801331 0.774577 0.555831
4802 1 0.812464 0.762461 0.557749
4730 1 0.818873 0.779342 0.557067
4871 1 0.829715 0.770762 0.563259
2310 1 0.507684 0.795172 0.550872
2307 1 0.501511 0.784303 0.554798
4940 1 0.778988 0.792715 0.550186
4870 1 0.792291 0.802039 0.552908
5013 1 0.790596 0.784755 0.552857
4941 1 0.806032 0.78894 0.554737
4944 1 0.819986 0.796259 0.55616
4942 1 0.834106 0.785157 0.560296
5014 1 0.834358 0.804659 0.558245
5012 1 0.796862 0.818183 0.550628
5084 1 0.806822 0.805611 0.554314
5016 1 0.812539 0.820813 0.549681
5085 1 0.824613 0.811848 0.553828
5154 1 0.839739 0.819759 0.557014
5086 1 0.847481 0.811611 0.562672
5151 1 0.854116 0.824073 0.561068
5225 1 0.83448 0.842986 0.550933
5079 1 0.84411 0.834312 0.555414
5222 1 0.859282 0.840848 0.557778
5089 1 0.869919 0.833077 0.561722
5224 1 0.874126 0.844569 0.558825
5294 1 0.850001 0.849218 0.553316
5150 1 0.850565 0.863928 0.550852
5296 1 0.862216 0.854454 0.556908
5290 1 0.87813 0.85735 0.557558
5300 1 0.891052 0.867463 0.561293
5371 1 0.88933 0.848805 0.561709
5369 1 0.867763 0.86968 0.553504
5368 1 0.880022 0.873302 0.555622
5359 1 0.882845 0.887858 0.551087
5365 1 0.89516 0.880078 0.556848
5439 1 0.910793 0.885505 0.559946
5372 1 0.904962 0.907474 0.551146
5511 1 0.900676 0.891595 0.553988
5441 1 0.91441 0.900571 0.557126
5378 1 0.926318 0.910516 0.562172
5442 1 0.908272 0.924972 0.549203
5374 1 0.917753 0.9318 0.554955
5513 1 0.91755 0.915698 0.556691
5373 1 0.931394 0.927686 0.561781
5518 1 0.925373 0.946507 0.549758
5443 1 0.936726 0.941322 0.556568
5447 1 0.940946 0.955446 0.551429
5524 1 0.94992 0.948754 0.559035
2863 1 0.963725 0.951379 0.563485
5592 1 0.957405 0.959606 0.555275
2861 1 0.962206 0.971365 0.550976
2860 1 0.972002 0.965284 0.558349
2927 1 0.976161 0.975592 0.551902
2925 1 0.984948 0.972068 0.560345
2931 1 0.990813 0.982532 0.556195
1689 1 0.997694 0.560706 0.562703
4548 1 0.94015 0.579794 0.563674
1683 1 0.955431 0.581086 0.56722
1755 1 0.970693 0.574423 0.568156
1688 1 0.994029 0.572705 0.571254
4550 1 0.98218 0.567229 0.56573
1684 1 0.981276 0.58273 0.574156
4681 1 0.898232 0.603058 0.566726
4619 1 0.927189 0.587633 0.564418
4614 1 0.913854 0.599217 0.565824
4689 1 0.926741 0.600496 0.57107
4618 1 0.941382 0.587631 0.570814
4688 1 0.967281 0.586432 0.574747
4539 1 0.882654 0.609793 0.563878
4679 1 0.880377 0.623218 0.56584
4683 1 0.887994 0.629416 0.573387
4685 1 0.912451 0.609367 0.571709
4616 1 0.89407 0.616703 0.569516
4757 1 0.900223 0.624878 0.573417
4538 1 0.85005 0.641338 0.562378
4532 1 0.861706 0.634045 0.562861
4673 1 0.8639 0.647115 0.56786
4607 1 0.877952 0.636221 0.569359
4603 1 0.87542 0.650176 0.572899
4668 1 0.842116 0.668681 0.563362
4526 1 0.852293 0.654389 0.566482
4605 1 0.864695 0.66033 0.572212
4669 1 0.854631 0.671284 0.567819
4666 1 0.843749 0.682666 0.566536
4665 1 0.864468 0.676547 0.574211
4739 1 0.855782 0.687823 0.571734
4660 1 0.84316 0.700166 0.568469
4795 1 0.832299 0.711303 0.564185
4731 1 0.84279 0.715349 0.570251
4726 1 0.854122 0.703489 0.573712
4796 1 0.831268 0.72536 0.566064
4738 1 0.844167 0.728864 0.570664
4672 1 0.855356 0.737412 0.574731
4799 1 0.856629 0.720425 0.575636
4805 1 0.84017 0.758676 0.565114
4729 1 0.834059 0.742861 0.566405
4867 1 0.847994 0.745895 0.568622
4801 1 0.857766 0.753394 0.57119
5087 1 0.843698 0.777578 0.565222
4804 1 0.855341 0.767331 0.568498
4734 1 0.867861 0.776251 0.57205
4876 1 0.868742 0.762438 0.573596
5018 1 0.846772 0.795719 0.562562
4800 1 0.858691 0.784539 0.56739
5017 1 0.862045 0.798992 0.56653
5088 1 0.871735 0.791159 0.569479
5019 1 0.88744 0.7948 0.573679
5015 1 0.880864 0.781579 0.572975
5157 1 0.864473 0.81696 0.565417
5231 1 0.875505 0.807159 0.569071
5227 1 0.880605 0.82132 0.567307
5156 1 0.891318 0.810403 0.572605
5155 1 0.883687 0.834466 0.563765
5301 1 0.894713 0.824718 0.570404
5226 1 0.896866 0.840885 0.567523
5229 1 0.908318 0.833159 0.573508
5303 1 0.912077 0.84954 0.569855
5367 1 0.900067 0.85702 0.565142
5304 1 0.916366 0.862925 0.569428
5380 1 0.930261 0.868787 0.573062
5306 1 0.924976 0.852538 0.575619
5370 1 0.905191 0.875053 0.564331
5375 1 0.921218 0.88158 0.567276
5305 1 0.933688 0.88417 0.571892
5444 1 0.923898 0.893657 0.563648
5377 1 0.933408 0.901483 0.567787
5376 1 0.949043 0.907102 0.571149
5308 1 0.943469 0.893962 0.574258
5519 1 0.945525 0.933244 0.563276
5521 1 0.939331 0.916623 0.565495
5453 1 0.953146 0.921029 0.568535
5452 1 0.966103 0.92834 0.572929
5448 1 0.963022 0.912976 0.57464
5587 1 0.958242 0.936675 0.566505
5525 1 0.969781 0.942921 0.56908
5594 1 0.985214 0.951083 0.572958
2864 1 0.976735 0.956808 0.566589
2862 1 0.998541 0.976916 0.563069
2929 1 0.993602 0.963277 0.568283
1751 1 0.998815 0.582583 0.57684
1821 1 0.95371 0.593491 0.576673
1892 1 0.937897 0.599641 0.57672
4690 1 0.951637 0.604467 0.582338
1752 1 0.971651 0.598586 0.579846
1894 1 0.982867 0.601953 0.584472
4620 1 0.985124 0.592429 0.578515
1754 1 0.997545 0.593784 0.581732
4755 1 0.925922 0.611672 0.574555
4827 1 0.916049 0.624493 0.577351
4759 1 0.927322 0.623947 0.582178
4687 1 0.939832 0.611253 0.582379
1822 1 0.95289 0.618442 0.588516
4829 1 0.965926 0.607989 0.585169
4609 1 0.890341 0.642077 0.576164
4610 1 0.901698 0.635536 0.578667
4608 1 0.900614 0.648766 0.58332
4753 1 0.914284 0.639564 0.584005
4750 1 0.924607 0.634231 0.588775
4604 1 0.876234 0.664372 0.577664
4670 1 0.887716 0.655427 0.579846
4674 1 0.891644 0.668597 0.585183
4602 1 0.865828 0.690421 0.579467
4678 1 0.875263 0.676826 0.581662
4530 1 0.875455 0.696976 0.583645
4675 1 0.888561 0.686229 0.58563
4676 1 0.867159 0.710547 0.577853
4606 1 0.880054 0.709193 0.583393
4745 1 0.867995 0.726068 0.57908
4748 1 0.879569 0.727735 0.582313
4735 1 0.892956 0.736005 0.587019
4664 1 0.867659 0.744198 0.577209
4742 1 0.87955 0.740421 0.581312
4737 1 0.879985 0.75705 0.580136
4815 1 0.89296 0.750505 0.584604
4877 1 0.904919 0.756611 0.583927
4736 1 0.881609 0.771581 0.577861
4811 1 0.894358 0.767667 0.580526
4874 1 0.907511 0.774606 0.583623
4875 1 0.894103 0.782929 0.579045
4872 1 0.921666 0.76683 0.586849
4946 1 0.905974 0.788423 0.581015
4943 1 0.900088 0.800311 0.576548
4948 1 0.916192 0.795136 0.581624
5020 1 0.926127 0.798953 0.587553
5230 1 0.904597 0.816981 0.574426
5228 1 0.914045 0.80814 0.580793
5299 1 0.916772 0.823103 0.579887
5162 1 0.927256 0.815842 0.585164
5233 1 0.919088 0.839193 0.577711
5091 1 0.928698 0.832618 0.584335
5307 1 0.931533 0.846187 0.582148
5309 1 0.939021 0.859198 0.577651
5302 1 0.94507 0.852924 0.585195
5232 1 0.94903 0.867664 0.583432
5169 1 0.94339 0.876237 0.576877
5168 1 0.953112 0.884906 0.58031
5451 1 0.966384 0.891811 0.584724
5449 1 0.959904 0.897381 0.577275
5450 1 0.972704 0.906547 0.580206
5238 1 0.981136 0.899576 0.587305
5454 1 0.976029 0.923616 0.579292
5455 1 1.0029 0.920079 0.587424
5383 1 0.985487 0.912735 0.585214
5457 1 0.99052 0.927527 0.581765
5593 1 0.980039 0.936478 0.575368
5526 1 0.994241 0.938831 0.577251
1966 1 0.995516 0.603558 0.589176
4760 1 0.938827 0.622909 0.588178
1964 1 0.968455 0.622327 0.590683
4899 1 0.981037 0.625857 0.59675
1961 1 0.981038 0.613362 0.591025
1893 1 0.993027 0.618608 0.59557
4754 1 0.925766 0.646249 0.591844
1891 1 0.954933 0.632673 0.59264
4758 1 0.940406 0.634404 0.591482
4751 1 0.95395 0.644009 0.595747
1963 1 0.939446 0.649132 0.594914
2035 1 0.968129 0.634584 0.597429
2037 1 0.994716 0.633142 0.598186
4686 1 0.901528 0.662175 0.589287
4684 1 0.91328 0.670307 0.592801
4682 1 0.914903 0.653641 0.589581
4819 1 0.927457 0.659999 0.593052
4823 1 0.939316 0.664932 0.596941
4756 1 0.952963 0.65749 0.598416
4677 1 0.899917 0.680042 0.588508
4818 1 0.901818 0.693078 0.590126
4680 1 0.914631 0.684259 0.593651
4749 1 0.927601 0.674993 0.596414
4883 1 0.92699 0.691982 0.598215
4741 1 0.890876 0.700243 0.587391
4817 1 0.902944 0.711057 0.590285
4814 1 0.912959 0.700298 0.594185
4747 1 0.913477 0.717231 0.594359
4744 1 0.925142 0.707461 0.598494
4812 1 0.888783 0.720032 0.587106
4810 1 0.899355 0.72545 0.591337
4743 1 0.914756 0.733582 0.593572
4807 1 0.925743 0.723741 0.597527
4816 1 0.904443 0.743891 0.591045
4740 1 0.916662 0.752567 0.591981
4880 1 0.931919 0.756383 0.593048
4889 1 0.92481 0.740869 0.596275
4945 1 0.933393 0.772997 0.591424
5159 1 0.945877 0.779407 0.597063
5021 1 0.943472 0.762669 0.598035
5160 1 0.921602 0.783096 0.587453
4950 1 0.935725 0.791301 0.593068
5090 1 0.947488 0.796996 0.597358
5158 1 0.936367 0.807627 0.59089
5165 1 0.937764 0.823764 0.589917
5235 1 0.947526 0.812993 0.598457
5166 1 0.937226 0.838181 0.589746
5161 1 0.949004 0.830593 0.596826
5094 1 0.952673 0.845427 0.593443
4954 1 0.961462 0.83765 0.598914
5092 1 0.958053 0.859679 0.591096
5096 1 0.968493 0.854422 0.596637
5167 1 0.969741 0.868721 0.594566
5234 1 0.962457 0.876926 0.586641
5240 1 0.975533 0.885924 0.591355
5237 1 0.983773 0.877385 0.597707
5382 1 0.989559 0.890794 0.594833
5312 1 0.99515 0.906485 0.592907
4830 1 0.968204 0.649832 0.600924
4828 1 0.98043 0.641294 0.601499
4897 1 0.995323 0.645332 0.604652
4893 1 0.953515 0.672101 0.603555
1962 1 0.969105 0.663578 0.604063
2041 1 0.994784 0.667601 0.608285
4821 1 0.984757 0.656235 0.606409
2034 1 1.00245 0.656126 0.607867
2033 1 0.977084 0.671599 0.608854
4752 1 0.941014 0.683383 0.600591
4887 1 0.95151 0.687333 0.60519
4820 1 0.96465 0.680402 0.606181
4957 1 0.976014 0.687795 0.610256
4890 1 0.964529 0.694984 0.606865
4895 1 0.993246 0.681062 0.611532
4891 1 0.94013 0.699259 0.601298
4888 1 0.949863 0.706047 0.605434
4746 1 0.938645 0.714932 0.601678
4894 1 0.960243 0.71178 0.608616
5033 1 0.9759 0.704317 0.609255
4813 1 0.93739 0.729649 0.598501
4809 1 0.950193 0.721671 0.605346
4881 1 0.950922 0.737311 0.603658
4959 1 0.964394 0.727372 0.606647
4885 1 0.978326 0.735432 0.610394
4884 1 0.976998 0.719561 0.610857
4878 1 0.937306 0.748038 0.598986
4952 1 0.954927 0.751927 0.603601
4806 1 0.968347 0.744543 0.605744
4961 1 0.969623 0.761224 0.606744
4956 1 0.980682 0.750418 0.610607
4808 1 0.956225 0.77012 0.603567
4879 1 0.968806 0.776125 0.60606
5163 1 0.980424 0.76627 0.61171
4949 1 0.956863 0.787648 0.602603
5026 1 0.972125 0.794164 0.60662
4882 1 0.983534 0.783718 0.61178
5164 1 0.957974 0.821926 0.602527
4953 1 0.958211 0.804584 0.6045
5023 1 0.970476 0.815192 0.608597
5022 1 0.984588 0.821198 0.610766
4947 1 0.97213 0.831011 0.605616
5093 1 0.978301 0.846045 0.602481
5024 1 0.986485 0.837705 0.609056
5170 1 0.984392 0.864155 0.601722
5175 1 0.99089 0.85202 0.607004
5241 1 0.996607 0.866872 0.605656
5246 1 1.00016 0.882647 0.602457
4962 1 0.988409 0.71144 0.612591
4896 1 0.990928 0.696486 0.611434
4886 1 0.989181 0.72743 0.613577
4955 1 0.992666 0.742218 0.614844
5027 1 0.992573 0.757021 0.616837
5032 1 0.992309 0.773438 0.615035
4951 1 0.982522 0.803041 0.612133
5025 1 0.992503 0.79297 0.616668
5028 1 0.994963 0.810126 0.614871
4958 1 0.995709 0.825165 0.614844
