ITEM: TIMESTEP
399800
ITEM: NUMBER OF ATOMS
5600
ITEM: BOX BOUNDS pp pp pp
-3.5385000000000005e+01 3.5385000000000005e+01
-3.5022067329042613e+01 3.5022067329042613e+01
-6.0660000000000018e+01 6.0660000000000018e+01
ITEM: ATOMS id type xs ys zs
2743 1 0.0138073 0.0148533 0.493769
2560 1 0.398094 0.00799771 0.499553
2488 1 0.386512 0.0203212 0.499369
2557 1 0.42035 0.0137141 0.497911
2404 1 0.42601 0.00279037 0.498626
2418 1 0.41174 0.00750157 0.498697
2698 1 0.410514 0.0206142 0.49925
111 1 0.432922 0.0152637 0.499203
2625 1 0.438134 0.00243442 0.498433
42 1 0.444185 0.0147589 0.497587
2640 1 0.449995 0.0051257 0.49952
2708 1 0.461566 0.00693588 0.499857
2786 1 0.474114 0.00934499 0.499691
2785 1 0.468106 0.0187221 0.499767
48 1 0.487233 0.00988686 0.498635
2649 1 0.498161 0.0130473 0.499328
2783 1 0.493576 0.000964577 0.4992
2385 1 0.00743944 0.0320098 0.493124
2324 1 0.0086458 0.0448235 0.492671
2323 1 0.0238631 0.0323072 0.494757
2626 1 0.385601 0.0364559 0.49952
2561 1 0.39911 0.0233877 0.498652
2556 1 0.405863 0.0332731 0.498649
2773 1 0.397376 0.043626 0.499475
2637 1 0.425335 0.0247075 0.499069
2638 1 0.430333 0.0372308 0.498299
2633 1 0.41831 0.0333634 0.498548
2562 1 0.409187 0.0453748 0.498369
2774 1 0.437464 0.0262227 0.499936
2767 1 0.441149 0.0379765 0.499726
51 1 0.448786 0.0266689 0.498935
2714 1 0.453406 0.0384929 0.499797
2648 1 0.485637 0.0320189 0.499871
2396 1 0.00585278 0.0565282 0.494937
2536 1 0.0172406 0.0587441 0.494405
2389 1 0.0206782 0.0465106 0.495811
2391 1 0.0307375 0.0499967 0.496373
2534 1 0.0388258 0.0592396 0.495528
2609 1 0.0275286 0.0635008 0.496398
2604 1 0.0483119 0.0652192 0.497934
2700 1 0.380005 0.0666177 0.499788
109 1 0.378294 0.0494983 0.499764
2559 1 0.395683 0.0671288 0.49866
2769 1 0.408811 0.067438 0.49919
2763 1 0.390793 0.0560325 0.498769
2412 1 0.421889 0.0461397 0.499502
53 1 0.42769 0.0580735 0.498844
43 1 0.415771 0.0563535 0.499634
44 1 0.43911 0.0591509 0.499252
2718 1 0.475078 0.063099 0.499328
333 1 0.461377 0.0615963 0.499306
261 1 0.482823 0.0534469 0.499442
2792 1 0.486738 0.065559 0.499854
2793 1 0.494189 0.0566918 0.499764
7 1 0.00613201 0.0689937 0.495581
2466 1 0.0181842 0.0717865 0.496382
154 1 0.0054892 0.0812773 0.497045
16 1 0.0163434 0.0852364 0.496382
2395 1 0.0362035 0.0721247 0.495599
2601 1 0.0267942 0.0794521 0.496165
2605 1 0.0386257 0.0861913 0.496943
2673 1 0.0473006 0.0786219 0.497304
2675 1 0.0583985 0.0719221 0.497652
14 1 0.0579285 0.085398 0.498538
2326 1 0.0755787 0.0808907 0.499403
2628 1 0.363094 0.081926 0.498416
2619 1 0.38395 0.0880515 0.498832
2620 1 0.376317 0.0787234 0.499132
2768 1 0.388987 0.0765608 0.499901
2629 1 0.403779 0.0773089 0.499804
2566 1 0.395695 0.0872769 0.498639
36 1 0.407506 0.089302 0.498805
2771 1 0.420196 0.0683842 0.498461
117 1 0.414993 0.0805342 0.49776
56 1 0.426333 0.0821673 0.499628
2787 1 0.437938 0.0826481 0.499975
2716 1 0.45415 0.0705411 0.499555
58 1 0.468146 0.0724742 0.499874
2722 1 0.485395 0.0855041 0.498939
2789 1 0.479849 0.0736667 0.499749
2739 1 0.00822927 0.0938658 0.497815
2670 1 0.0188405 0.0982475 0.498654
11 1 0.00894638 0.107249 0.497926
12 1 0.0198157 0.111335 0.499471
2744 1 0.0388528 0.0992867 0.498665
85 1 0.0292121 0.105168 0.499279
2679 1 0.0283673 0.0922202 0.496555
2752 1 0.0383273 0.112504 0.498811
2740 1 0.0476482 0.0923473 0.498459
21 1 0.0669647 0.0915771 0.499902
2607 1 0.0583128 0.098869 0.499948
2401 1 0.0485398 0.105379 0.499794
2475 1 0.0786253 0.0931987 0.499551
2400 1 0.0913284 0.0994044 0.499922
2681 1 0.137038 0.104298 0.49994
2691 1 0.24824 0.113451 0.494103
2539 1 0.265804 0.11083 0.492213
2695 1 0.287678 0.102458 0.49552
2474 1 0.305937 0.10209 0.495168
2478 1 0.315814 0.111597 0.49613
2482 1 0.334761 0.110094 0.495674
2486 1 0.321608 0.0960743 0.495621
2624 1 0.335046 0.0981741 0.496491
45 1 0.34667 0.0924097 0.497162
38 1 0.353599 0.101695 0.49859
113 1 0.346976 0.11138 0.49719
2694 1 0.362174 0.0930079 0.497112
189 1 0.379044 0.107496 0.497726
2688 1 0.367942 0.104612 0.497989
2772 1 0.37483 0.0944061 0.499291
2770 1 0.38792 0.0988173 0.49889
334 1 0.391617 0.109463 0.499005
187 1 0.403808 0.11003 0.498845
2701 1 0.401016 0.0984967 0.498869
122 1 0.418913 0.091107 0.498837
118 1 0.412776 0.100643 0.499001
405 1 0.415544 0.112587 0.499595
2791 1 0.427771 0.113251 0.499551
339 1 0.445863 0.106878 0.499864
2790 1 0.436042 0.102721 0.499312
59 1 0.471949 0.10604 0.499857
78 1 0.00853134 0.119054 0.498663
150 1 0.0190514 0.124947 0.499286
286 1 0.0097619 0.132053 0.497506
3214 1 0.029279 0.131768 0.499116
156 1 0.059385 0.121633 0.499253
2549 1 0.132187 0.128776 0.498813
2558 1 0.179121 0.120006 0.499504
2543 1 0.170509 0.130927 0.499068
2684 1 0.180305 0.135413 0.499934
2749 1 0.228289 0.124862 0.495896
2547 1 0.241421 0.12734 0.495496
15 1 0.265094 0.134818 0.493108
2761 1 0.253169 0.131469 0.493781
105 1 0.259532 0.121967 0.493289
2618 1 0.278686 0.116449 0.492778
2555 1 0.290189 0.116918 0.493473
2623 1 0.273235 0.12728 0.492547
35 1 0.28456 0.12912 0.492639
2687 1 0.301998 0.113864 0.492628
2621 1 0.306925 0.125204 0.494401
2764 1 0.295559 0.127453 0.493332
2550 1 0.317586 0.128015 0.497221
2765 1 0.330338 0.130779 0.495703
2692 1 0.32598 0.119541 0.495643
190 1 0.339759 0.121355 0.4973
46 1 0.352484 0.122999 0.497662
257 1 0.35913 0.114123 0.497874
183 1 0.345323 0.132315 0.494987
260 1 0.363406 0.125365 0.497206
188 1 0.35649 0.134832 0.496965
39 1 0.37608 0.12789 0.49682
325 1 0.371004 0.116484 0.497092
191 1 0.383465 0.118908 0.49846
50 1 0.388162 0.130674 0.496863
119 1 0.398437 0.132022 0.498775
121 1 0.394984 0.120698 0.49681
264 1 0.407113 0.122529 0.499387
330 1 0.412364 0.132968 0.499629
403 1 0.431644 0.124944 0.499773
340 1 0.438186 0.135457 0.499682
2800 1 0.492588 0.12861 0.499668
152 1 0.148079 0.145114 0.499239
19 1 0.158658 0.150099 0.499814
91 1 0.159455 0.137074 0.499802
17 1 0.169097 0.14314 0.499459
2614 1 0.202927 0.138375 0.49856
13 1 0.191011 0.143753 0.499186
2476 1 0.220073 0.136712 0.497265
2758 1 0.224973 0.148141 0.49716
96 1 0.210993 0.145301 0.498135
93 1 0.215653 0.156962 0.49942
2546 1 0.234808 0.138269 0.494862
2693 1 0.246322 0.140524 0.495109
2553 1 0.238581 0.151487 0.496253
2622 1 0.249974 0.15139 0.493975
103 1 0.26046 0.156284 0.49465
108 1 0.268319 0.148009 0.492962
40 1 0.257882 0.143669 0.494361
2682 1 0.277611 0.137735 0.492397
2685 1 0.291947 0.140111 0.493258
2746 1 0.283121 0.14825 0.492994
107 1 0.295438 0.150973 0.494521
2755 1 0.27342 0.158984 0.494567
2757 1 0.313622 0.141745 0.495639
2552 1 0.307127 0.152898 0.494779
2689 1 0.303266 0.138659 0.494657
41 1 0.317867 0.151711 0.496961
2696 1 0.324186 0.142389 0.49645
114 1 0.336469 0.141371 0.49677
2616 1 0.33003 0.152989 0.496657
116 1 0.349434 0.14517 0.496004
258 1 0.362552 0.149524 0.497837
255 1 0.35416 0.157575 0.497105
186 1 0.342119 0.153889 0.496146
259 1 0.381405 0.139884 0.497662
329 1 0.368113 0.138519 0.496126
256 1 0.373767 0.149071 0.497404
254 1 0.386829 0.15043 0.497854
323 1 0.405743 0.144053 0.49897
326 1 0.399437 0.155032 0.499254
331 1 0.393901 0.142782 0.498701
57 1 0.429755 0.144855 0.499862
401 1 0.410857 0.156134 0.499786
412 1 0.417097 0.144082 0.499968
299 1 0.147154 0.169839 0.499663
2747 1 0.167264 0.170959 0.499797
2683 1 0.218196 0.16916 0.498248
2472 1 0.226105 0.160864 0.497606
2754 1 0.205978 0.164011 0.499057
24 1 0.244668 0.175487 0.496371
98 1 0.23029 0.172165 0.498426
2756 1 0.24022 0.162528 0.49749
31 1 0.252693 0.16508 0.49505
173 1 0.265591 0.168432 0.495041
112 1 0.25646 0.176198 0.494813
2612 1 0.27096 0.179357 0.495002
2690 1 0.284925 0.159845 0.494049
2759 1 0.289768 0.171317 0.495034
32 1 0.278084 0.170534 0.495298
185 1 0.282326 0.180066 0.495856
2617 1 0.298142 0.163076 0.494945
120 1 0.303227 0.174252 0.496871
2760 1 0.311103 0.164145 0.496416
177 1 0.31529 0.174765 0.495814
464 1 0.327099 0.175899 0.49684
104 1 0.334568 0.16539 0.496463
2762 1 0.323541 0.163092 0.495697
392 1 0.338977 0.178344 0.497132
33 1 0.358012 0.170576 0.498951
251 1 0.345852 0.167611 0.496005
324 1 0.352323 0.179397 0.497739
179 1 0.36692 0.162786 0.49754
252 1 0.379901 0.160845 0.498291
182 1 0.373055 0.171897 0.498885
181 1 0.385179 0.174174 0.499276
393 1 0.391694 0.163654 0.498154
332 1 0.439058 0.168457 0.499505
26 1 0.227706 0.184129 0.499977
25 1 0.231865 0.195531 0.499464
29 1 0.244398 0.198132 0.499733
167 1 0.239068 0.184706 0.498786
170 1 0.251163 0.185259 0.496963
320 1 0.268118 0.200903 0.497278
171 1 0.255962 0.200165 0.497418
28 1 0.264396 0.188618 0.496533
110 1 0.276342 0.192374 0.495808
253 1 0.288719 0.192836 0.496239
249 1 0.280001 0.203466 0.497046
34 1 0.294757 0.183665 0.495725
106 1 0.306768 0.185233 0.497201
100 1 0.300491 0.195338 0.496302
317 1 0.311524 0.195854 0.497979
250 1 0.324043 0.197168 0.495965
472 1 0.331804 0.187813 0.496561
176 1 0.319489 0.186538 0.496215
541 1 0.337223 0.198971 0.497005
395 1 0.344443 0.188163 0.495816
469 1 0.349741 0.199491 0.497599
318 1 0.356483 0.190127 0.498009
468 1 0.359966 0.201669 0.499452
184 1 0.36423 0.182396 0.499445
398 1 0.370224 0.193409 0.499003
471 1 0.37621 0.183564 0.499081
397 1 0.389302 0.184885 0.499425
517 1 0.159173 0.225553 0.499735
306 1 0.168737 0.219077 0.499475
305 1 0.179806 0.213354 0.499998
246 1 0.206078 0.211422 0.499746
174 1 0.237951 0.206407 0.499786
101 1 0.249297 0.209432 0.499002
180 1 0.24266 0.218447 0.499826
233 1 0.231013 0.217105 0.499436
247 1 0.261155 0.209439 0.499476
243 1 0.265895 0.222489 0.498419
175 1 0.255271 0.22083 0.499626
178 1 0.293036 0.204911 0.496868
237 1 0.273687 0.212095 0.49782
313 1 0.277783 0.221924 0.498028
321 1 0.286207 0.214867 0.496525
248 1 0.288998 0.2263 0.497429
245 1 0.304674 0.206252 0.497319
533 1 0.308164 0.217985 0.497194
319 1 0.297394 0.217128 0.497151
535 1 0.315763 0.206747 0.496862
530 1 0.328726 0.208689 0.497033
602 1 0.333509 0.221358 0.497067
467 1 0.320856 0.217471 0.497237
605 1 0.341486 0.209722 0.497796
601 1 0.353289 0.212441 0.497315
603 1 0.345936 0.221991 0.497409
537 1 0.357955 0.223708 0.499079
612 1 0.36635 0.213498 0.499009
235 1 0.203597 0.234894 0.499849
387 1 0.226249 0.239131 0.499749
314 1 0.204731 0.245918 0.499118
166 1 0.247032 0.230217 0.499826
390 1 0.263848 0.242313 0.499145
168 1 0.259307 0.232464 0.499261
385 1 0.27075 0.233996 0.498166
234 1 0.250707 0.242397 0.499621
394 1 0.276363 0.243943 0.496213
389 1 0.28202 0.234408 0.49776
386 1 0.288536 0.24686 0.497168
532 1 0.293755 0.237343 0.497668
462 1 0.302593 0.227965 0.497397
681 1 0.307238 0.238659 0.497533
466 1 0.314177 0.228247 0.497382
540 1 0.300548 0.248055 0.498176
679 1 0.312212 0.249617 0.497484
610 1 0.338588 0.23236 0.497189
598 1 0.319174 0.239784 0.49804
456 1 0.32578 0.231131 0.49781
460 1 0.331572 0.241804 0.496785
689 1 0.345103 0.242897 0.499979
683 1 0.351576 0.233404 0.49798
616 1 0.364384 0.23573 0.499906
529 1 0.223943 0.261552 0.498814
448 1 0.207802 0.258551 0.498541
459 1 0.243286 0.251254 0.49888
378 1 0.247893 0.261788 0.498635
379 1 0.228081 0.250594 0.499217
531 1 0.262036 0.263381 0.498024
384 1 0.269132 0.25426 0.498823
242 1 0.2566 0.252542 0.497823
450 1 0.273707 0.265938 0.497694
455 1 0.292991 0.257332 0.497916
461 1 0.28514 0.267673 0.496585
463 1 0.281295 0.254539 0.497677
673 1 0.308577 0.271012 0.498224
609 1 0.29648 0.27021 0.49781
382 1 0.304007 0.2595 0.49835
675 1 0.316428 0.260658 0.498687
539 1 0.340678 0.264846 0.499358
536 1 0.335553 0.254118 0.498481
677 1 0.328508 0.263209 0.498462
599 1 0.323536 0.250812 0.497554
672 1 0.351098 0.267643 0.499821
634 1 0.0143106 0.290886 0.499874
851 1 0.0242542 0.294663 0.499154
781 1 0.0355886 0.291131 0.498829
1063 1 0.0668901 0.295446 0.499587
856 1 0.0570601 0.287871 0.498886
927 1 0.0772595 0.276681 0.499994
725 1 0.131966 0.292188 0.499731
451 1 0.240961 0.273128 0.497913
527 1 0.244111 0.284427 0.498886
522 1 0.232033 0.283503 0.499071
661 1 0.236757 0.294398 0.499963
381 1 0.252893 0.272761 0.498304
453 1 0.257134 0.284351 0.497747
534 1 0.265651 0.275772 0.49757
383 1 0.269235 0.288049 0.498079
607 1 0.289477 0.280217 0.497612
682 1 0.277318 0.278452 0.49761
596 1 0.282114 0.288946 0.497398
528 1 0.292965 0.292167 0.49865
538 1 0.30009 0.282835 0.498911
608 1 0.311993 0.283229 0.498555
526 1 0.316515 0.295385 0.499998
594 1 0.304383 0.293554 0.497306
606 1 0.320004 0.273032 0.498275
744 1 0.324202 0.285295 0.49992
845 1 0.00208311 0.311214 0.499129
710 1 0.0147243 0.30366 0.4989
917 1 0.0251993 0.307695 0.498962
850 1 0.0450118 0.307213 0.499594
846 1 0.0358349 0.31388 0.499167
923 1 0.0549818 0.302512 0.499632
925 1 0.0570534 0.314457 0.49989
788 1 0.0658518 0.306637 0.498858
797 1 0.087428 0.296467 0.499273
861 1 0.0772787 0.302552 0.499486
852 1 0.0774068 0.314652 0.499691
662 1 0.248431 0.295527 0.497773
946 1 0.244259 0.316424 0.498935
807 1 0.240616 0.305556 0.499691
805 1 0.22905 0.303823 0.499862
866 1 0.263922 0.30964 0.498732
593 1 0.253172 0.306933 0.49859
808 1 0.261027 0.297458 0.498896
600 1 0.27238 0.299494 0.497663
880 1 0.277044 0.311118 0.497674
524 1 0.2847 0.302821 0.498053
806 1 0.289669 0.314416 0.497668
949 1 0.301783 0.315043 0.49995
669 1 0.310084 0.306582 0.499168
742 1 0.314467 0.317783 0.498734
523 1 0.295973 0.303628 0.498271
676 1 0.332621 0.307744 0.499714
674 1 0.34145 0.298856 0.499536
739 1 0.34448 0.310248 0.499413
743 1 0.363521 0.302967 0.499476
984 1 0.00672401 0.335543 0.499112
914 1 0.0265633 0.32134 0.498806
918 1 0.0260192 0.334656 0.499453
786 1 0.0467435 0.320895 0.498599
921 1 0.0586127 0.339708 0.499637
993 1 0.0460498 0.333903 0.4987
996 1 0.0564469 0.32662 0.499962
855 1 0.0905646 0.318802 0.499514
1001 1 0.145272 0.325529 0.499707
940 1 0.186026 0.335206 0.49998
1020 1 0.218551 0.333193 0.49967
1087 1 0.235544 0.325207 0.499321
1083 1 0.248478 0.327483 0.499262
1092 1 0.23981 0.336161 0.499744
1089 1 0.252157 0.339501 0.497084
1021 1 0.272504 0.331959 0.497958
1095 1 0.256603 0.318196 0.499004
1019 1 0.267468 0.321017 0.49878
737 1 0.260331 0.330404 0.498296
665 1 0.284617 0.334043 0.498161
738 1 0.280635 0.322962 0.498627
881 1 0.292114 0.32447 0.499101
595 1 0.304796 0.326816 0.499113
592 1 0.29663 0.337055 0.499133
1023 1 0.330561 0.330321 0.499679
740 1 0.337458 0.320196 0.499507
950 1 0.325911 0.318967 0.499045
812 1 0.318391 0.328781 0.499318
809 1 0.323693 0.339034 0.499028
958 1 0.354519 0.334136 0.499116
814 1 0.343708 0.331654 0.499486
819 1 0.349725 0.321706 0.499679
1057 1 0.0366334 0.341945 0.49998
1000 1 0.0916718 0.345532 0.499826
1233 1 0.203777 0.363038 0.499228
1086 1 0.214499 0.354847 0.499788
1093 1 0.234143 0.346664 0.499112
1088 1 0.250153 0.360306 0.49926
947 1 0.269051 0.353586 0.497117
951 1 0.257988 0.349294 0.49986
1022 1 0.264746 0.341532 0.497984
1090 1 0.262031 0.360617 0.499726
810 1 0.276055 0.343998 0.497993
1025 1 0.280881 0.355228 0.498872
955 1 0.292522 0.355663 0.498749
948 1 0.287978 0.345353 0.497468
953 1 0.305425 0.356854 0.497855
1164 1 0.315229 0.349652 0.499911
1376 1 0.318401 0.359839 0.498711
1236 1 0.330524 0.362283 0.49999
1162 1 0.326812 0.350324 0.49946
886 1 0.334249 0.341726 0.499365
1289 1 0.20665 0.376086 0.49965
1231 1 0.216132 0.366898 0.497695
1299 1 0.230718 0.366539 0.499047
1228 1 0.26603 0.373948 0.49972
1234 1 0.273479 0.364715 0.49998
1091 1 0.285578 0.365658 0.498936
1161 1 0.290282 0.377692 0.499257
1232 1 0.30978 0.370734 0.499134
1024 1 0.29863 0.365913 0.499586
1303 1 0.302089 0.380641 0.499888
1432 1 0.263009 0.395955 0.499799
1369 1 0.269673 0.386471 0.499986
1229 1 0.295167 0.390487 0.499521
1372 1 0.301612 0.400665 0.499774
1441 1 0.324846 0.403358 0.499848
1510 1 0.313473 0.434587 0.499121
1533 1 0.493921 0.468035 0.499792
1639 1 0.235022 0.477366 0.499955
1924 1 0.270135 0.483129 0.499547
1997 1 0.276264 0.496178 0.499806
1790 1 0.290399 0.495049 0.499589
1866 1 0.302803 0.495405 0.498966
1859 1 0.31091 0.485831 0.499318
2703 1 0.456595 0.0178135 0.500059
2647 1 0.4795 0.0218018 0.500956
55 1 0.491197 0.0222059 0.500335
2776 1 0.472374 0.0319404 0.50076
54 1 0.464693 0.0405886 0.500337
115 1 0.46026 0.0285179 0.500539
2781 1 0.489442 0.0432691 0.500492
2725 1 0.497626 0.0342911 0.500341
2788 1 0.47777 0.0416607 0.501285
37 1 0.368443 0.0634821 0.502461
2627 1 0.402384 0.0567585 0.500136
263 1 0.449648 0.0597854 0.500649
52 1 0.434475 0.0477418 0.500537
2784 1 0.446459 0.0483695 0.50044
262 1 0.469709 0.0521416 0.50071
124 1 0.457656 0.0499877 0.501133
2320 1 0.0945714 0.0870728 0.501787
2468 1 0.115286 0.0862459 0.502204
266 1 0.443406 0.0706362 0.501113
193 1 0.451461 0.0824588 0.500731
192 1 0.431951 0.069744 0.500441
2715 1 0.474155 0.0832775 0.500694
2717 1 0.462465 0.0840091 0.501158
2720 1 0.493638 0.0759872 0.501973
60 1 0.497065 0.0875701 0.500379
155 1 0.0586551 0.109682 0.501997
2613 1 0.080951 0.10642 0.500287
2537 1 0.0699819 0.103453 0.501024
18 1 0.101928 0.107754 0.500744
2678 1 0.113337 0.102406 0.501616
160 1 0.0919402 0.113232 0.501013
81 1 0.103849 0.0950306 0.502072
2467 1 0.125681 0.0961272 0.500853
2748 1 0.122988 0.110025 0.501585
2686 1 0.149919 0.108193 0.500023
126 1 0.423656 0.102398 0.500574
125 1 0.430334 0.0922585 0.500136
194 1 0.453208 0.0976949 0.501144
131 1 0.443335 0.0925746 0.500943
196 1 0.466749 0.0949584 0.500377
127 1 0.459665 0.107259 0.501504
70 1 0.483426 0.106335 0.500234
123 1 0.478437 0.0944673 0.500586
69 1 0.489788 0.0971341 0.501416
2730 1 0.49469 0.107952 0.500587
157 1 0.0398336 0.125651 0.501611
82 1 0.0290425 0.119876 0.50025
84 1 0.0504518 0.129939 0.501561
2606 1 0.0483241 0.117943 0.501422
366 1 0.0615978 0.134134 0.502203
230 1 0.0703202 0.12584 0.501911
86 1 0.0808814 0.133 0.501224
2545 1 0.0684173 0.114207 0.500595
2479 1 0.0814775 0.120547 0.501545
83 1 0.111971 0.114946 0.501575
158 1 0.0916675 0.128306 0.501
92 1 0.10362 0.134262 0.501138
2469 1 0.100697 0.120283 0.501704
87 1 0.112093 0.126827 0.500831
2751 1 0.122136 0.121656 0.500726
2677 1 0.13174 0.11588 0.501276
2611 1 0.123012 0.13465 0.502241
2544 1 0.156733 0.123176 0.500563
2745 1 0.146223 0.134083 0.500579
2676 1 0.142494 0.121352 0.500541
2615 1 0.169164 0.114144 0.500347
2551 1 0.192936 0.131182 0.50002
265 1 0.42359 0.134494 0.500486
399 1 0.42119 0.123317 0.501069
267 1 0.438403 0.115281 0.50061
413 1 0.450117 0.136123 0.501093
338 1 0.450724 0.11675 0.500762
337 1 0.443799 0.125555 0.500685
62 1 0.468708 0.128935 0.500647
129 1 0.456777 0.126075 0.501193
197 1 0.463593 0.117745 0.500706
133 1 0.476194 0.117882 0.500332
5461 1 0.499664 0.119303 0.500675
66 1 0.480977 0.128834 0.500059
64 1 0.488445 0.117919 0.500369
431 1 0.0196306 0.150425 0.500509
425 1 0.00882711 0.157918 0.500635
364 1 0.0087262 0.145871 0.501005
363 1 0.0186773 0.138342 0.500982
352 1 0.0277988 0.143298 0.500893
225 1 0.0388741 0.138233 0.501892
291 1 0.0294784 0.156362 0.501442
284 1 0.0402193 0.149635 0.503544
296 1 0.0523766 0.154735 0.501751
221 1 0.0506976 0.14228 0.501331
224 1 0.0620978 0.149265 0.501823
300 1 0.0725326 0.153539 0.501604
295 1 0.0714484 0.140745 0.50127
367 1 0.0823552 0.145717 0.501922
226 1 0.0928554 0.139771 0.5021
297 1 0.092597 0.15213 0.502409
231 1 0.102635 0.146656 0.502016
94 1 0.11312 0.151078 0.501064
2750 1 0.125417 0.158589 0.500785
2538 1 0.125367 0.14666 0.501026
88 1 0.11368 0.139529 0.500136
20 1 0.135604 0.140745 0.500532
161 1 0.148942 0.156304 0.500578
89 1 0.136384 0.151858 0.500168
2680 1 0.169853 0.155484 0.50022
2610 1 0.19138 0.158399 0.500145
2548 1 0.182017 0.150263 0.500547
2542 1 0.202928 0.152023 0.500065
341 1 0.423703 0.154665 0.501326
335 1 0.441522 0.147697 0.500258
549 1 0.445094 0.158211 0.501703
481 1 0.454362 0.149773 0.500815
475 1 0.434525 0.156136 0.500798
269 1 0.461622 0.137994 0.50081
342 1 0.466505 0.148463 0.502402
63 1 0.474909 0.138663 0.501448
411 1 0.472424 0.158937 0.502385
128 1 0.479866 0.149881 0.501427
61 1 0.491052 0.151559 0.50061
130 1 0.486792 0.139832 0.501214
136 1 0.498224 0.139788 0.500256
3220 1 0.0093057 0.169876 0.502758
358 1 0.0190735 0.163158 0.502319
3218 1 0.0192037 0.176073 0.502667
437 1 0.0417049 0.173401 0.504695
356 1 0.0298683 0.169585 0.502155
294 1 0.0408137 0.162159 0.501335
433 1 0.0315504 0.180442 0.503407
362 1 0.0620292 0.172956 0.503102
292 1 0.0512485 0.167481 0.502988
298 1 0.0628567 0.160851 0.501094
222 1 0.0514376 0.179974 0.503497
90 1 0.0843809 0.171612 0.501756
227 1 0.0832134 0.159974 0.501427
369 1 0.0717659 0.166684 0.503245
439 1 0.0739996 0.177829 0.501532
159 1 0.104497 0.15927 0.501661
509 1 0.0947754 0.176881 0.500964
232 1 0.0942985 0.164413 0.500455
368 1 0.105308 0.171076 0.500742
229 1 0.117899 0.176776 0.501893
304 1 0.126775 0.170353 0.500991
162 1 0.115619 0.162999 0.501644
163 1 0.138276 0.163825 0.501649
375 1 0.137271 0.177385 0.502234
370 1 0.157646 0.174916 0.501523
22 1 0.179589 0.162618 0.501466
2742 1 0.160002 0.162586 0.500807
27 1 0.178487 0.175212 0.500949
97 1 0.200134 0.175567 0.500155
303 1 0.188972 0.170116 0.500802
164 1 0.189091 0.181764 0.501951
2753 1 0.212595 0.177885 0.500384
322 1 0.396176 0.174907 0.500103
327 1 0.403386 0.166629 0.500264
476 1 0.415993 0.166155 0.502199
391 1 0.409773 0.176295 0.500362
272 1 0.426697 0.167504 0.500344
407 1 0.421537 0.17727 0.500472
402 1 0.43426 0.179169 0.501284
410 1 0.445974 0.177539 0.500552
409 1 0.453216 0.168784 0.502014
270 1 0.460856 0.159501 0.502113
486 1 0.470947 0.181256 0.503214
132 1 0.464319 0.170548 0.503131
487 1 0.457441 0.180955 0.501936
343 1 0.476277 0.170699 0.502213
348 1 0.489267 0.171689 0.502348
556 1 0.484581 0.160935 0.502737
195 1 0.496218 0.161904 0.501678
429 1 0.00931356 0.182197 0.502568
577 1 0.02078 0.188146 0.503667
499 1 0.00939982 0.194701 0.503096
427 1 0.0198893 0.200804 0.504236
436 1 0.0423334 0.19769 0.504202
502 1 0.0417001 0.18601 0.50291
641 1 0.0321452 0.191968 0.503337
508 1 0.051264 0.191582 0.502286
435 1 0.0619949 0.184662 0.502049
645 1 0.0628263 0.195957 0.501607
575 1 0.0514279 0.203059 0.502154
503 1 0.0846139 0.184208 0.502668
432 1 0.0736317 0.190308 0.501802
510 1 0.0849346 0.196693 0.502813
514 1 0.0740637 0.202681 0.503158
441 1 0.105508 0.194917 0.502942
511 1 0.094643 0.189753 0.502038
438 1 0.105955 0.182296 0.502671
585 1 0.0966066 0.201635 0.502459
506 1 0.126854 0.182145 0.50366
583 1 0.117262 0.200327 0.502975
372 1 0.115843 0.189446 0.502555
587 1 0.126533 0.193131 0.501748
443 1 0.148359 0.1828 0.50163
302 1 0.13809 0.188993 0.501064
365 1 0.137518 0.200165 0.500556
309 1 0.149015 0.195559 0.501423
95 1 0.158801 0.188068 0.500432
440 1 0.160763 0.201113 0.501656
228 1 0.169822 0.19433 0.500685
23 1 0.168966 0.182534 0.501507
301 1 0.179986 0.189018 0.50054
373 1 0.182311 0.201652 0.501049
307 1 0.202825 0.18704 0.501502
311 1 0.193261 0.192989 0.500791
239 1 0.204984 0.197555 0.50141
102 1 0.217214 0.189803 0.500407
30 1 0.215069 0.20255 0.500392
543 1 0.381542 0.192458 0.500557
478 1 0.374612 0.204503 0.501783
396 1 0.401302 0.185946 0.501087
473 1 0.405389 0.196549 0.501766
465 1 0.394273 0.196014 0.500735
336 1 0.418194 0.196439 0.501071
545 1 0.427242 0.187511 0.502038
328 1 0.412067 0.18686 0.501656
406 1 0.431914 0.19931 0.501816
414 1 0.444468 0.200237 0.502128
480 1 0.451828 0.190717 0.501486
483 1 0.440191 0.188869 0.500782
630 1 0.46813 0.202335 0.503301
558 1 0.476125 0.19287 0.503179
484 1 0.456775 0.201176 0.503293
560 1 0.464342 0.191324 0.501747
416 1 0.494392 0.183792 0.502358
417 1 0.480023 0.203846 0.502313
271 1 0.486892 0.193895 0.502636
420 1 0.498884 0.193817 0.50094
557 1 0.483576 0.182347 0.501888
415 1 0.492217 0.203804 0.502177
426 1 0.00803077 0.206769 0.502778
711 1 0.0102313 0.218534 0.503308
639 1 0.0200961 0.212168 0.505479
430 1 0.0218264 0.223519 0.503517
569 1 0.0294601 0.204831 0.50322
501 1 0.0317948 0.216778 0.505044
574 1 0.0402531 0.209112 0.503166
504 1 0.0432031 0.22134 0.503934
648 1 0.0531205 0.214343 0.502729
657 1 0.0646414 0.220367 0.50298
505 1 0.0639826 0.208259 0.501871
650 1 0.0546978 0.226735 0.502903
644 1 0.0860578 0.220587 0.503182
572 1 0.0749612 0.215516 0.503613
647 1 0.0847942 0.208729 0.503463
579 1 0.09644 0.214747 0.502281
719 1 0.107965 0.218375 0.502689
376 1 0.107318 0.207041 0.502298
512 1 0.098043 0.225794 0.503835
584 1 0.129287 0.216796 0.501827
442 1 0.127696 0.205493 0.501981
582 1 0.118262 0.211104 0.503273
652 1 0.119059 0.225025 0.50271
444 1 0.139971 0.212737 0.501121
308 1 0.149543 0.206052 0.501168
581 1 0.139092 0.224917 0.500548
516 1 0.149314 0.219167 0.500689
449 1 0.158355 0.212734 0.500232
371 1 0.169777 0.207139 0.500682
445 1 0.18062 0.224937 0.501345
240 1 0.201035 0.221393 0.501599
236 1 0.194687 0.207113 0.500697
165 1 0.190533 0.217803 0.501244
169 1 0.226005 0.205403 0.500746
241 1 0.211278 0.224853 0.500562
99 1 0.218619 0.2152 0.501596
474 1 0.377179 0.215921 0.500629
477 1 0.385839 0.20473 0.501252
404 1 0.371845 0.225529 0.50146
479 1 0.396981 0.208003 0.502925
268 1 0.403289 0.217975 0.503335
482 1 0.389184 0.217832 0.501355
611 1 0.423796 0.20847 0.502615
400 1 0.409875 0.20768 0.502092
615 1 0.428046 0.218827 0.501925
548 1 0.416108 0.21928 0.502717
554 1 0.438222 0.210171 0.501561
408 1 0.449462 0.211486 0.503048
553 1 0.440572 0.222601 0.502589
767 1 0.455039 0.223241 0.50116
628 1 0.474238 0.214237 0.503046
555 1 0.461558 0.213638 0.503157
629 1 0.467088 0.224137 0.501381
3431 1 0.479053 0.224419 0.502704
490 1 0.498453 0.215366 0.502403
559 1 0.486678 0.213897 0.501478
3361 1 0.491153 0.225978 0.502706
712 1 0.0123875 0.242841 0.502825
565 1 0.00176651 0.237457 0.503065
642 1 0.0114146 0.230921 0.502931
713 1 0.0226252 0.235607 0.503687
714 1 0.00287485 0.248855 0.502415
777 1 0.0231615 0.247558 0.503011
500 1 0.0321409 0.240413 0.5041
570 1 0.0325371 0.228993 0.503686
643 1 0.043205 0.245607 0.502491
573 1 0.0440402 0.233315 0.503857
571 1 0.0549128 0.238969 0.502543
723 1 0.0654237 0.24586 0.503147
729 1 0.0645668 0.233702 0.502954
726 1 0.0753242 0.228009 0.502174
728 1 0.0867302 0.231505 0.503299
646 1 0.0761967 0.23822 0.503623
654 1 0.0852778 0.246074 0.502044
586 1 0.105942 0.2445 0.503404
717 1 0.0962828 0.237995 0.503081
578 1 0.107902 0.231616 0.503038
722 1 0.127732 0.243619 0.501303
656 1 0.117647 0.236922 0.502876
515 1 0.129442 0.23126 0.502809
651 1 0.138446 0.237898 0.501626
454 1 0.148672 0.232167 0.50028
658 1 0.149284 0.24555 0.501084
374 1 0.159328 0.237729 0.500925
312 1 0.169173 0.2432 0.500274
513 1 0.17012 0.230718 0.500555
447 1 0.180914 0.236862 0.500548
590 1 0.161034 0.249081 0.50152
519 1 0.181708 0.248601 0.500177
457 1 0.19281 0.243632 0.500567
377 1 0.191581 0.230869 0.500144
244 1 0.215182 0.236693 0.500292
172 1 0.222127 0.227973 0.500729
310 1 0.234743 0.229381 0.500031
388 1 0.237675 0.240841 0.500764
753 1 0.357338 0.244761 0.500183
551 1 0.382999 0.227759 0.501661
546 1 0.375758 0.237159 0.500507
684 1 0.368743 0.246739 0.501075
687 1 0.380935 0.248829 0.50106
692 1 0.387895 0.239078 0.501815
620 1 0.40149 0.237559 0.502701
542 1 0.394682 0.227498 0.503489
622 1 0.406834 0.249696 0.502196
621 1 0.393356 0.249487 0.501572
547 1 0.409244 0.228872 0.502205
552 1 0.426008 0.241031 0.500963
619 1 0.422139 0.23003 0.502487
614 1 0.414265 0.239922 0.501768
3362 1 0.451008 0.245225 0.501752
544 1 0.446624 0.233033 0.50141
470 1 0.434414 0.232043 0.502189
550 1 0.439186 0.243169 0.501986
3574 1 0.471777 0.2361 0.502676
837 1 0.463144 0.248098 0.502429
700 1 0.459682 0.233957 0.502395
694 1 0.476013 0.246494 0.502756
696 1 0.484145 0.237242 0.501963
839 1 0.497378 0.236545 0.500835
3292 1 0.489731 0.247738 0.50192
709 1 0.0144791 0.254978 0.502054
635 1 0.0157173 0.267865 0.501666
563 1 0.00397829 0.260283 0.50184
775 1 0.0249209 0.260261 0.502463
787 1 0.0355064 0.253504 0.503003
707 1 0.0361013 0.265835 0.501737
779 1 0.025702 0.27189 0.500747
783 1 0.0462277 0.27215 0.502374
638 1 0.045853 0.259432 0.503382
580 1 0.055502 0.252229 0.502381
715 1 0.0555314 0.264797 0.501826
791 1 0.0656761 0.258274 0.502201
784 1 0.0668933 0.270572 0.500659
720 1 0.0867793 0.257537 0.50208
576 1 0.0752543 0.251151 0.502101
789 1 0.0885586 0.271815 0.50131
859 1 0.0770425 0.263433 0.501157
655 1 0.0962324 0.250959 0.502508
653 1 0.0968306 0.263179 0.502987
858 1 0.109671 0.268663 0.502976
792 1 0.108149 0.257167 0.503302
790 1 0.118727 0.252271 0.501231
724 1 0.129727 0.268865 0.501526
589 1 0.118666 0.263147 0.502448
733 1 0.129244 0.257149 0.502958
588 1 0.138619 0.251085 0.501771
796 1 0.150293 0.269435 0.50135
860 1 0.14058 0.263721 0.502394
525 1 0.150695 0.257442 0.501823
660 1 0.172491 0.267871 0.501965
801 1 0.17162 0.256341 0.501015
649 1 0.161697 0.262451 0.500942
380 1 0.182525 0.261477 0.500791
803 1 0.194013 0.254772 0.500416
518 1 0.193176 0.267802 0.501064
520 1 0.203559 0.269291 0.502095
238 1 0.216036 0.250472 0.500475
316 1 0.213465 0.26902 0.5003
452 1 0.227141 0.271628 0.500199
315 1 0.236847 0.26179 0.500813
685 1 0.34685 0.255322 0.500682
680 1 0.359658 0.25801 0.501032
617 1 0.363971 0.269503 0.501835
627 1 0.371363 0.259251 0.501556
761 1 0.383922 0.261331 0.501515
691 1 0.378763 0.271386 0.500784
763 1 0.397966 0.261578 0.501121
690 1 0.405107 0.271097 0.502174
686 1 0.389938 0.272439 0.50076
697 1 0.412867 0.261584 0.501738
625 1 0.422882 0.262442 0.50346
699 1 0.430763 0.253027 0.501898
613 1 0.419562 0.251326 0.502327
3435 1 0.443498 0.25533 0.502496
695 1 0.435264 0.263723 0.502233
618 1 0.449073 0.265547 0.503049
769 1 0.461714 0.26648 0.503054
3433 1 0.46913 0.256659 0.502468
823 1 0.473484 0.267121 0.502097
626 1 0.456524 0.257055 0.502619
766 1 0.480683 0.256981 0.502295
3503 1 0.492237 0.258467 0.502328
830 1 0.48514 0.269625 0.502775
838 1 0.497155 0.269284 0.503292
774 1 0.005139 0.274195 0.501267
778 1 0.0150513 0.279361 0.500734
848 1 0.00460533 0.285413 0.500488
708 1 0.0262149 0.28455 0.501194
785 1 0.0357538 0.278741 0.500679
857 1 0.0466226 0.284025 0.500068
849 1 0.0456114 0.295433 0.500906
716 1 0.0665803 0.284556 0.500631
721 1 0.0563213 0.27676 0.500802
853 1 0.077701 0.289422 0.500086
999 1 0.0874244 0.284306 0.500691
862 1 0.0988367 0.288275 0.500138
718 1 0.109961 0.281273 0.501634
933 1 0.100244 0.276833 0.501062
793 1 0.110467 0.294424 0.500435
795 1 0.129249 0.281197 0.502482
730 1 0.12032 0.275229 0.501994
732 1 0.120353 0.288042 0.501686
802 1 0.152261 0.293901 0.501702
731 1 0.139289 0.276142 0.500339
867 1 0.141802 0.287646 0.502375
659 1 0.151733 0.280898 0.501392
735 1 0.16316 0.287574 0.501718
727 1 0.162272 0.275197 0.501162
878 1 0.171955 0.281081 0.501916
666 1 0.17466 0.293478 0.501056
736 1 0.194331 0.292085 0.502022
458 1 0.183047 0.274225 0.501426
664 1 0.183201 0.286511 0.502285
591 1 0.19422 0.279469 0.502058
597 1 0.218713 0.28055 0.500103
446 1 0.206363 0.28138 0.500222
877 1 0.211291 0.290003 0.500428
521 1 0.224137 0.292094 0.500313
813 1 0.336351 0.285963 0.500481
671 1 0.331504 0.27402 0.500602
757 1 0.356093 0.279938 0.501302
749 1 0.359501 0.291271 0.500492
670 1 0.343781 0.277099 0.500859
750 1 0.348851 0.289534 0.500926
678 1 0.368252 0.281995 0.500058
817 1 0.371623 0.293819 0.500212
746 1 0.380823 0.283213 0.501185
762 1 0.401893 0.291842 0.501757
751 1 0.399474 0.280772 0.500833
759 1 0.390504 0.288076 0.500674
623 1 0.417815 0.273116 0.503659
624 1 0.421618 0.283857 0.502333
688 1 0.415711 0.293798 0.501868
693 1 0.410859 0.283766 0.50126
884 1 0.429579 0.273856 0.502262
829 1 0.427341 0.294017 0.502259
832 1 0.447099 0.287262 0.503093
760 1 0.44295 0.275741 0.502645
899 1 0.434872 0.284869 0.502277
698 1 0.455048 0.277479 0.503263
756 1 0.460114 0.287936 0.503354
764 1 0.471348 0.28913 0.502864
3502 1 0.46645 0.276358 0.503639
3573 1 0.477506 0.279041 0.502968
768 1 0.482463 0.289935 0.503378
969 1 0.490289 0.28149 0.502351
907 1 0.495168 0.292129 0.503922
776 1 0.00378581 0.297393 0.500797
782 1 0.0149635 0.315124 0.50027
922 1 0.0346161 0.301425 0.500504
935 1 0.0892424 0.307479 0.501074
799 1 0.0984765 0.300888 0.500357
798 1 0.110533 0.305249 0.500679
937 1 0.100801 0.313227 0.500275
945 1 0.122184 0.312539 0.501682
804 1 0.131539 0.305789 0.501666
794 1 0.120408 0.300691 0.502088
938 1 0.143624 0.312623 0.501022
865 1 0.141979 0.300281 0.500898
1014 1 0.154118 0.30591 0.501569
1002 1 0.154263 0.31751 0.500527
1018 1 0.175159 0.317008 0.501745
869 1 0.175001 0.305643 0.503207
875 1 0.163611 0.299448 0.501873
939 1 0.164748 0.311767 0.501413
944 1 0.196988 0.316122 0.500752
874 1 0.185913 0.310205 0.501104
879 1 0.195597 0.304862 0.500646
734 1 0.184492 0.297718 0.501323
667 1 0.218321 0.301021 0.502165
871 1 0.206883 0.299485 0.502083
663 1 0.208274 0.310776 0.501343
952 1 0.221163 0.312844 0.501471
873 1 0.232823 0.314036 0.500234
604 1 0.328663 0.296175 0.50131
668 1 0.321089 0.306488 0.500227
747 1 0.352399 0.302538 0.501213
883 1 0.357155 0.312845 0.501155
752 1 0.384762 0.296684 0.501826
765 1 0.375003 0.30517 0.502437
885 1 0.369035 0.314938 0.501977
822 1 0.387448 0.308095 0.502982
831 1 0.396657 0.302031 0.50113
825 1 0.398838 0.313853 0.502199
902 1 0.407394 0.302424 0.502386
964 1 0.42037 0.303195 0.502432
828 1 0.42368 0.314762 0.503177
821 1 0.411634 0.313569 0.503
835 1 0.431546 0.306056 0.502348
754 1 0.439977 0.296757 0.501784
898 1 0.451058 0.298037 0.501626
827 1 0.444445 0.307292 0.502836
758 1 0.436342 0.316349 0.502414
833 1 0.455703 0.308508 0.502095
836 1 0.463604 0.298492 0.502127
972 1 0.467686 0.309607 0.502086
973 1 0.476697 0.299124 0.502024
903 1 0.48728 0.301664 0.502981
826 1 0.47959 0.311095 0.503232
979 1 0.492503 0.311101 0.504108
919 1 0.01627 0.326529 0.500519
912 1 0.00531284 0.323155 0.500218
1062 1 0.0370923 0.325673 0.500787
928 1 0.0680575 0.321259 0.500094
994 1 0.0803612 0.326926 0.501081
926 1 0.0696307 0.333333 0.500957
995 1 0.0830559 0.338879 0.50076
854 1 0.0914279 0.331762 0.500974
924 1 0.101614 0.325849 0.500359
1071 1 0.100599 0.338622 0.500717
997 1 0.112303 0.332301 0.500897
863 1 0.110925 0.319151 0.500227
1077 1 0.123374 0.337869 0.500871
800 1 0.133547 0.320899 0.500892
930 1 0.122153 0.32605 0.500183
1003 1 0.13483 0.33273 0.500927
1131 1 0.144941 0.337225 0.50089
942 1 0.155438 0.330377 0.50113
936 1 0.166181 0.33617 0.501745
941 1 0.165344 0.323345 0.501402
1153 1 0.176606 0.328783 0.501989
868 1 0.186419 0.322217 0.501441
870 1 0.198592 0.340238 0.500197
1221 1 0.195016 0.328386 0.501596
1016 1 0.225433 0.323704 0.500552
876 1 0.212337 0.321642 0.500394
1017 1 0.206819 0.330854 0.501757
1152 1 0.228416 0.33591 0.500312
741 1 0.311233 0.337084 0.500026
954 1 0.36193 0.325283 0.500768
811 1 0.379886 0.319333 0.502003
962 1 0.377405 0.339664 0.500406
745 1 0.373911 0.328915 0.50188
888 1 0.365943 0.337279 0.500819
901 1 0.385162 0.331936 0.50291
957 1 0.397124 0.333283 0.502406
748 1 0.404403 0.325058 0.503385
755 1 0.392162 0.322808 0.502058
887 1 0.408792 0.335645 0.503009
1029 1 0.419949 0.336761 0.504435
818 1 0.415873 0.325352 0.50327
896 1 0.428862 0.325623 0.504196
971 1 0.448385 0.319184 0.502624
820 1 0.432737 0.336936 0.503579
893 1 0.440719 0.327642 0.503117
894 1 0.452051 0.330167 0.50291
960 1 0.444964 0.33982 0.504229
1041 1 0.472666 0.320999 0.502712
1038 1 0.460842 0.319636 0.502517
895 1 0.464267 0.330534 0.504001
891 1 0.45578 0.34066 0.504061
1110 1 0.477618 0.330946 0.504348
1178 1 0.497422 0.324785 0.503825
897 1 0.485685 0.321355 0.503966
1181 1 0.488827 0.33304 0.503617
989 1 0.00613881 0.349279 0.501016
1056 1 0.00685908 0.361001 0.502913
990 1 0.0168156 0.341499 0.500617
916 1 0.0172987 0.353705 0.500082
1129 1 0.0359649 0.353254 0.502063
1055 1 0.0271454 0.360197 0.501344
920 1 0.0264654 0.347555 0.500427
1067 1 0.0471166 0.357563 0.501459
988 1 0.0471306 0.346966 0.500473
992 1 0.0579745 0.352424 0.500823
1061 1 0.0708898 0.345167 0.501029
986 1 0.0819137 0.351223 0.501463
1066 1 0.0702008 0.357207 0.501076
1145 1 0.0934832 0.358144 0.501158
1004 1 0.103405 0.350741 0.500236
934 1 0.111746 0.343807 0.501081
1073 1 0.113593 0.357633 0.50069
1006 1 0.133355 0.345474 0.50044
998 1 0.13539 0.357019 0.501396
1074 1 0.123441 0.363566 0.500355
1076 1 0.123244 0.350824 0.500616
1005 1 0.146796 0.349987 0.501148
932 1 0.157253 0.34261 0.500963
1009 1 0.157726 0.354812 0.501985
1008 1 0.148218 0.361639 0.500699
1149 1 0.176936 0.342292 0.50189
1011 1 0.169 0.349609 0.501539
872 1 0.170615 0.36183 0.501689
1157 1 0.179845 0.353415 0.500007
1293 1 0.19238 0.358914 0.500083
1081 1 0.201976 0.351461 0.500282
1085 1 0.18877 0.345757 0.500731
1084 1 0.209999 0.342974 0.500194
1288 1 0.225581 0.356751 0.500335
1013 1 0.222535 0.34562 0.500213
1160 1 0.245541 0.349134 0.500143
1015 1 0.238476 0.358327 0.500536
882 1 0.303164 0.346115 0.500053
1163 1 0.337816 0.354529 0.500751
1166 1 0.357906 0.346228 0.500322
1100 1 0.350538 0.356467 0.500727
1239 1 0.361058 0.357941 0.501835
1167 1 0.346128 0.343783 0.500669
1103 1 0.369148 0.347982 0.500995
1097 1 0.381647 0.351352 0.502002
1098 1 0.373745 0.359803 0.501164
1165 1 0.385564 0.362355 0.502561
816 1 0.388258 0.34227 0.503157
815 1 0.400253 0.344921 0.50422
963 1 0.393317 0.353073 0.503622
1026 1 0.404812 0.355029 0.502759
889 1 0.413013 0.346425 0.504199
1031 1 0.424917 0.346805 0.504642
1101 1 0.418255 0.357523 0.504745
1310 1 0.428922 0.360289 0.505362
1027 1 0.437004 0.348091 0.505001
1030 1 0.449765 0.353447 0.503585
1028 1 0.44092 0.359389 0.505031
959 1 0.454413 0.363145 0.505672
1037 1 0.460929 0.351617 0.505942
892 1 0.469037 0.341649 0.50591
890 1 0.473886 0.353728 0.505113
1039 1 0.497811 0.3582 0.504916
824 1 0.480355 0.34298 0.505535
970 1 0.485225 0.35635 0.504766
900 1 0.494217 0.345623 0.506264
1136 1 0.0196005 0.379482 0.502035
1130 1 0.0170842 0.366493 0.501628
1124 1 0.00863108 0.373332 0.502188
1052 1 0.0379307 0.365789 0.501782
1133 1 0.027662 0.372587 0.502775
1068 1 0.0391008 0.37729 0.50166
1132 1 0.0304771 0.386051 0.502348
1065 1 0.0600234 0.365041 0.501238
1060 1 0.0503311 0.37025 0.501258
1135 1 0.0618565 0.376986 0.502161
1207 1 0.0504698 0.383475 0.502183
1140 1 0.0717393 0.384495 0.501701
1144 1 0.0818572 0.377273 0.502559
1220 1 0.0721581 0.370147 0.501145
1215 1 0.0828694 0.364288 0.501337
1141 1 0.0944394 0.381938 0.502126
1351 1 0.105167 0.37645 0.502364
1064 1 0.0926328 0.370285 0.502278
1072 1 0.10326 0.363837 0.501516
1075 1 0.126901 0.375659 0.502241
1219 1 0.114649 0.382585 0.502103
1218 1 0.115796 0.371013 0.502501
1147 1 0.135948 0.368762 0.500944
929 1 0.138655 0.380695 0.501775
1079 1 0.147172 0.373015 0.501473
1150 1 0.158786 0.378557 0.501921
1151 1 0.149441 0.385377 0.502158
931 1 0.159706 0.366575 0.501385
864 1 0.171328 0.371906 0.50157
1080 1 0.170522 0.383215 0.502012
1082 1 0.182048 0.366104 0.501733
1291 1 0.184311 0.377473 0.501907
1363 1 0.195567 0.384145 0.501616
1156 1 0.195041 0.371321 0.500499
1158 1 0.222048 0.37651 0.500712
1364 1 0.248037 0.379999 0.500323
1435 1 0.242153 0.369113 0.501014
1012 1 0.233699 0.378556 0.500958
1155 1 0.258559 0.383998 0.501157
1159 1 0.254724 0.371135 0.500015
1096 1 0.278538 0.376411 0.500116
1226 1 0.315696 0.380561 0.500043
1240 1 0.334918 0.373254 0.500867
1304 1 0.339159 0.383925 0.501444
1305 1 0.326787 0.383209 0.500875
1235 1 0.322457 0.370012 0.500239
1308 1 0.342534 0.364462 0.502272
956 1 0.358819 0.379578 0.501021
1306 1 0.354202 0.367601 0.50084
1237 1 0.348378 0.376109 0.502786
1169 1 0.366009 0.369145 0.501539
1373 1 0.369862 0.379489 0.502167
1099 1 0.377518 0.371127 0.50204
1380 1 0.383804 0.384418 0.502131
1315 1 0.397621 0.36371 0.504925
1170 1 0.395254 0.385023 0.501605
1238 1 0.389872 0.374319 0.502708
1168 1 0.401788 0.375493 0.504432
1382 1 0.409378 0.366334 0.503346
1456 1 0.414369 0.378031 0.505419
1172 1 0.425183 0.379731 0.504857
1105 1 0.42102 0.369235 0.50561
1314 1 0.439206 0.380845 0.50506
1174 1 0.433947 0.370646 0.505649
1106 1 0.446181 0.370722 0.504664
1171 1 0.45061 0.383218 0.504308
961 1 0.466184 0.363665 0.504534
1379 1 0.457915 0.373735 0.503745
968 1 0.471252 0.374779 0.504802
1034 1 0.463064 0.385249 0.503545
1033 1 0.478196 0.364967 0.506183
1035 1 0.483467 0.376993 0.505203
965 1 0.4946 0.378618 0.505353
967 1 0.492275 0.367413 0.507178
3985 1 0.00898921 0.387326 0.502799
3918 1 0.0185355 0.391572 0.503111
1337 1 0.0207527 0.404447 0.502686
1198 1 0.00973245 0.400192 0.502543
1058 1 0.0298258 0.397076 0.501838
1211 1 0.0400302 0.403265 0.502195
1139 1 0.0407013 0.390643 0.500773
1138 1 0.0622749 0.401023 0.502623
1203 1 0.0504619 0.397397 0.502053
1137 1 0.0595228 0.389306 0.500797
1273 1 0.050826 0.408794 0.501381
1070 1 0.0829189 0.388647 0.50174
1485 1 0.0853573 0.40163 0.501263
1069 1 0.0738414 0.396296 0.502591
1285 1 0.0742524 0.408669 0.501674
1212 1 0.105039 0.389229 0.502856
1214 1 0.0942391 0.394141 0.502095
1352 1 0.0966156 0.407545 0.502547
1282 1 0.105919 0.401092 0.501934
1010 1 0.127565 0.387058 0.501806
1414 1 0.11722 0.407332 0.503006
1143 1 0.1171 0.39603 0.502258
1007 1 0.128015 0.400171 0.502263
1142 1 0.139064 0.392608 0.502105
1078 1 0.150143 0.398349 0.503622
1281 1 0.138802 0.405825 0.502439
1354 1 0.159267 0.389745 0.502291
1287 1 0.170406 0.396639 0.502415
1419 1 0.160138 0.403329 0.503199
943 1 0.180068 0.389237 0.501347
1148 1 0.180551 0.403072 0.502043
1362 1 0.189592 0.394374 0.502678
1222 1 0.194556 0.403747 0.50407
1425 1 0.202446 0.394398 0.501346
1094 1 0.211815 0.387706 0.500976
1225 1 0.207362 0.405079 0.502717
1154 1 0.21766 0.398938 0.502852
1223 1 0.224059 0.389303 0.500542
1368 1 0.241048 0.399956 0.501415
1356 1 0.230047 0.39909 0.501411
1224 1 0.23857 0.388642 0.501707
1431 1 0.250001 0.392992 0.50032
1296 1 0.254084 0.404593 0.501462
1292 1 0.269144 0.407233 0.500811
1506 1 0.281017 0.408612 0.500325
1439 1 0.275076 0.39696 0.501737
1297 1 0.28219 0.387212 0.500089
1298 1 0.287692 0.399507 0.50068
1578 1 0.312685 0.402753 0.501141
1227 1 0.307138 0.390729 0.500844
1294 1 0.319495 0.392386 0.501257
1365 1 0.331429 0.394016 0.501019
1446 1 0.33529 0.405732 0.501554
1301 1 0.350121 0.387918 0.501571
1300 1 0.342966 0.396093 0.501242
1230 1 0.355117 0.397444 0.501373
1447 1 0.346523 0.407208 0.501123
1377 1 0.364369 0.390707 0.501102
1509 1 0.375904 0.393148 0.502191
1374 1 0.369668 0.401712 0.502501
1302 1 0.380772 0.405385 0.502085
1381 1 0.405994 0.386376 0.503031
1521 1 0.387343 0.395862 0.50118
1451 1 0.400095 0.395881 0.503318
1378 1 0.393388 0.404695 0.503176
1307 1 0.405028 0.40822 0.502979
1383 1 0.411391 0.398216 0.50283
1453 1 0.417451 0.388673 0.504304
1312 1 0.423694 0.399232 0.503632
1525 1 0.431708 0.390055 0.505597
1523 1 0.416018 0.409071 0.502956
1458 1 0.446864 0.404888 0.50445
1241 1 0.434739 0.401949 0.504984
1242 1 0.44323 0.39324 0.503804
1317 1 0.456585 0.393489 0.504179
1245 1 0.475497 0.388378 0.504356
1102 1 0.466884 0.399671 0.503045
1384 1 0.47965 0.40037 0.503405
1032 1 0.488231 0.388104 0.504907
1309 1 0.491198 0.400528 0.503787
1269 1 0.00949623 0.412019 0.502386
1340 1 0.0107451 0.423182 0.502082
1134 1 0.0205478 0.415628 0.503388
1413 1 0.000189752 0.429533 0.503657
1274 1 0.0209324 0.427888 0.504052
1054 1 0.0312891 0.410613 0.503914
1272 1 0.0315549 0.423099 0.50255
1279 1 0.0423003 0.416514 0.504074
1205 1 0.0421359 0.428059 0.502205
1213 1 0.0628789 0.41299 0.501998
1204 1 0.0543428 0.421257 0.502866
1343 1 0.0649441 0.425797 0.502468
1345 1 0.0868458 0.426786 0.503106
1416 1 0.0863472 0.413781 0.503663
1209 1 0.077768 0.420943 0.502381
1338 1 0.0972007 0.421797 0.502735
1346 1 0.10678 0.414695 0.502822
1344 1 0.106781 0.42674 0.50337
1348 1 0.128025 0.413349 0.502966
1484 1 0.11724 0.419787 0.503975
1490 1 0.119132 0.431713 0.50367
1555 1 0.128652 0.425044 0.504524
1350 1 0.14941 0.409688 0.502227
1486 1 0.14001 0.418576 0.503196
1487 1 0.140419 0.430123 0.502983
1418 1 0.151492 0.42178 0.503727
1284 1 0.170389 0.410274 0.503535
1423 1 0.161264 0.4158 0.502717
1426 1 0.161683 0.42846 0.503112
1217 1 0.171775 0.421703 0.502741
1146 1 0.182248 0.424575 0.503621
1353 1 0.186125 0.414156 0.503085
1433 1 0.193708 0.423707 0.502714
1367 1 0.200925 0.41498 0.502855
1437 1 0.22121 0.410562 0.502152
1295 1 0.212856 0.419002 0.502663
1286 1 0.225033 0.421692 0.502089
1361 1 0.217375 0.431179 0.502833
1216 1 0.205147 0.427597 0.502561
1370 1 0.236838 0.422949 0.502023
1290 1 0.245292 0.412812 0.501713
1428 1 0.234448 0.410348 0.501473
1569 1 0.251355 0.424719 0.500977
1507 1 0.272358 0.418365 0.501095
1503 1 0.264178 0.429144 0.501449
1358 1 0.260127 0.41576 0.501569
1501 1 0.277058 0.429476 0.501097
1436 1 0.292771 0.409275 0.500715
1371 1 0.285312 0.419887 0.500429
1576 1 0.288853 0.430143 0.501147
1508 1 0.297088 0.420198 0.501552
1440 1 0.305146 0.412411 0.500885
1511 1 0.316722 0.412448 0.500356
1579 1 0.308292 0.4231 0.501
1514 1 0.319431 0.424004 0.500348
1512 1 0.327978 0.41525 0.502243
1581 1 0.332164 0.42557 0.500762
1583 1 0.340685 0.417483 0.500924
1445 1 0.35289 0.418625 0.501671
1448 1 0.359333 0.409267 0.502674
1442 1 0.344468 0.428475 0.501314
1516 1 0.356979 0.430632 0.502102
1444 1 0.364557 0.421653 0.503773
1449 1 0.385228 0.415505 0.504224
1455 1 0.376241 0.42457 0.502489
1375 1 0.371403 0.41296 0.503233
1517 1 0.388291 0.426616 0.502831
1450 1 0.397855 0.416846 0.501633
1591 1 0.400113 0.42872 0.503347
1386 1 0.409556 0.419466 0.502102
1526 1 0.420683 0.420419 0.502368
1530 1 0.426825 0.410868 0.503835
1585 1 0.411927 0.430468 0.503087
1522 1 0.430877 0.425682 0.504205
1385 1 0.443143 0.426414 0.503426
1454 1 0.449491 0.417133 0.504594
1602 1 0.43735 0.41441 0.502786
1316 1 0.459832 0.40921 0.502896
1311 1 0.471653 0.410402 0.503551
1459 1 0.454788 0.429054 0.50329
1392 1 0.463164 0.420515 0.504047
1243 1 0.474767 0.421785 0.502663
1252 1 0.467991 0.431586 0.502594
1391 1 0.499312 0.423652 0.502616
1248 1 0.494779 0.412133 0.503859
1394 1 0.486377 0.423883 0.50236
1319 1 0.483114 0.410967 0.503585
1335 1 0.000624195 0.441617 0.504052
1403 1 0.0131585 0.447826 0.504322
1342 1 0.0114589 0.435572 0.50371
1263 1 0.00299445 0.454243 0.503943
1271 1 0.0223534 0.441724 0.503367
1410 1 0.0346145 0.447054 0.503942
1339 1 0.0329549 0.435553 0.503239
1206 1 0.0438799 0.439511 0.503849
1278 1 0.0444038 0.452649 0.503677
1334 1 0.0246024 0.453355 0.503376
1210 1 0.054021 0.433851 0.503622
1407 1 0.0555135 0.446932 0.502441
1280 1 0.0653932 0.439771 0.503262
1415 1 0.0656128 0.452092 0.50304
1347 1 0.0749217 0.432779 0.503773
1270 1 0.0766121 0.446498 0.502391
1349 1 0.0894524 0.452067 0.502692
1276 1 0.0877137 0.439414 0.503272
1208 1 0.0974503 0.433826 0.502732
1480 1 0.110064 0.438578 0.50439
1483 1 0.111471 0.45181 0.50285
1412 1 0.0992713 0.444616 0.504641
1552 1 0.121339 0.443296 0.503076
1632 1 0.131551 0.449287 0.505437
1566 1 0.130312 0.436987 0.504321
1421 1 0.150504 0.435721 0.503632
1572 1 0.14237 0.442241 0.504531
1631 1 0.152323 0.448983 0.503855
1283 1 0.171939 0.43394 0.503872
1427 1 0.162318 0.440995 0.503041
1422 1 0.163236 0.452649 0.503258
1355 1 0.173393 0.445773 0.503678
1420 1 0.196519 0.436357 0.502801
1359 1 0.190386 0.447094 0.503557
1430 1 0.200742 0.448394 0.501453
1357 1 0.184771 0.435809 0.501776
1429 1 0.210213 0.44024 0.501224
1366 1 0.223967 0.444358 0.50206
1495 1 0.213834 0.452072 0.503264
1360 1 0.231082 0.432468 0.503563
1491 1 0.247108 0.445708 0.501559
1434 1 0.242937 0.432224 0.501859
1505 1 0.235938 0.44332 0.501526
1575 1 0.267691 0.43992 0.50194
1570 1 0.272047 0.449619 0.500989
1499 1 0.254903 0.437061 0.501558
1565 1 0.258894 0.447802 0.501685
1718 1 0.281027 0.440191 0.50126
1504 1 0.293974 0.443095 0.500509
1502 1 0.28378 0.451934 0.501079
1438 1 0.300563 0.432571 0.500289
1647 1 0.317655 0.445922 0.500054
1580 1 0.305087 0.445643 0.500802
1649 1 0.336538 0.437677 0.501757
1789 1 0.329532 0.446636 0.501695
1577 1 0.325574 0.435294 0.50031
1648 1 0.340717 0.449321 0.501992
1654 1 0.349672 0.440047 0.502539
1593 1 0.36112 0.442767 0.502972
1586 1 0.353409 0.45098 0.502768
1592 1 0.373417 0.444066 0.503323
1587 1 0.368986 0.433214 0.503671
1443 1 0.383663 0.448115 0.502976
1452 1 0.382017 0.435836 0.50299
1726 1 0.365437 0.45287 0.502923
1513 1 0.393278 0.439879 0.502616
1590 1 0.397368 0.449845 0.502444
1529 1 0.406751 0.440862 0.502755
1663 1 0.408676 0.452217 0.502173
1537 1 0.42876 0.445244 0.503181
1460 1 0.423316 0.434709 0.502321
1595 1 0.417314 0.444088 0.505044
1599 1 0.420105 0.454375 0.503281
1390 1 0.440644 0.448823 0.503185
1464 1 0.448263 0.439557 0.503119
1535 1 0.437852 0.436752 0.50321
1527 1 0.454309 0.44975 0.504285
1457 1 0.472787 0.442013 0.502308
1313 1 0.465351 0.453616 0.502352
1467 1 0.461377 0.440926 0.501097
1387 1 0.477209 0.453464 0.501554
1466 1 0.480335 0.43278 0.501648
1400 1 0.484308 0.444287 0.501903
1399 1 0.496026 0.4461 0.501168
1244 1 0.49216 0.435667 0.501878
1411 1 0.0138623 0.473356 0.503334
1405 1 0.0135405 0.461326 0.504457
1267 1 0.00335164 0.466153 0.503726
1406 1 0.025341 0.465189 0.503656
1623 1 0.0351065 0.470662 0.503663
1277 1 0.035522 0.459763 0.503647
1194 1 0.0456195 0.465672 0.50312
1417 1 0.0551764 0.459048 0.503589
1841 1 0.0555412 0.470915 0.502884
1693 1 0.0673883 0.465158 0.502514
1628 1 0.0677555 0.475923 0.503176
1626 1 0.0766109 0.458429 0.502747
1701 1 0.0781006 0.470427 0.502705
1558 1 0.0884373 0.462886 0.501719
1629 1 0.0889935 0.474608 0.502353
1557 1 0.100402 0.456287 0.502431
1553 1 0.0999795 0.468065 0.502808
1695 1 0.11126 0.476193 0.50376
1702 1 0.111043 0.463647 0.503377
1634 1 0.121869 0.456356 0.504143
1481 1 0.123207 0.468354 0.504515
1573 1 0.1329 0.463535 0.50452
1776 1 0.132497 0.474827 0.504621
1625 1 0.141224 0.455209 0.504002
1627 1 0.15548 0.473349 0.504469
1771 1 0.14396 0.468754 0.503889
1561 1 0.152131 0.461652 0.50318
1488 1 0.173462 0.458328 0.502849
1635 1 0.163363 0.464741 0.503006
1567 1 0.175148 0.470847 0.502453
1564 1 0.198826 0.472299 0.502769
1424 1 0.183747 0.455972 0.502102
1633 1 0.19557 0.459016 0.503202
1559 1 0.186716 0.468696 0.50109
1497 1 0.225981 0.45589 0.500103
1498 1 0.205496 0.462086 0.502382
1494 1 0.224322 0.474323 0.503281
1562 1 0.210234 0.472872 0.501394
1493 1 0.218072 0.463843 0.502131
1637 1 0.243006 0.466203 0.500851
1563 1 0.231261 0.465239 0.500774
1492 1 0.238589 0.455427 0.501758
1489 1 0.252016 0.457281 0.500638
1645 1 0.25517 0.468585 0.50016
1568 1 0.263405 0.459208 0.500977
1715 1 0.267969 0.470457 0.50121
1642 1 0.274457 0.46149 0.500982
1860 1 0.288083 0.463192 0.500871
1574 1 0.279411 0.474224 0.500703
1857 1 0.291559 0.474891 0.500545
1713 1 0.296231 0.454734 0.500785
1787 1 0.30795 0.455755 0.501096
1717 1 0.314351 0.464782 0.500836
1785 1 0.300373 0.465519 0.501602
1788 1 0.305859 0.47537 0.500048
1794 1 0.318558 0.477038 0.500873
1716 1 0.320784 0.456384 0.500732
1653 1 0.337641 0.468715 0.500615
1651 1 0.333272 0.458147 0.501731
1720 1 0.325916 0.467047 0.501575
1724 1 0.360127 0.475386 0.502759
1652 1 0.348969 0.472175 0.502716
1519 1 0.358016 0.462429 0.502699
1655 1 0.345624 0.460006 0.502824
1798 1 0.372944 0.4763 0.502687
1656 1 0.38091 0.467647 0.502316
1588 1 0.369877 0.464459 0.503153
1661 1 0.376974 0.457163 0.503632
1666 1 0.404525 0.473804 0.502366
1520 1 0.393659 0.469651 0.503056
1531 1 0.401895 0.461181 0.502416
1515 1 0.38944 0.4583 0.502695
1524 1 0.417059 0.475403 0.503196
1596 1 0.412741 0.465438 0.503323
1671 1 0.425297 0.466044 0.50327
1528 1 0.433458 0.45815 0.503876
1468 1 0.446883 0.459314 0.502848
1601 1 0.451056 0.471304 0.502699
1608 1 0.438107 0.469084 0.502568
1673 1 0.473718 0.476768 0.501387
1532 1 0.456992 0.46241 0.502254
1665 1 0.469217 0.466074 0.501209
1539 1 0.461967 0.476405 0.502757
1600 1 0.481598 0.466664 0.500582
1462 1 0.489555 0.455781 0.501782
1475 1 0.0160151 0.496798 0.502532
1408 1 0.00437247 0.480704 0.503788
1545 1 0.0157005 0.485434 0.504293
1409 1 0.00484675 0.492418 0.503678
1630 1 0.0449199 0.478067 0.502837
1698 1 0.0381914 0.496199 0.503392
1619 1 0.0362702 0.484447 0.502961
1624 1 0.025609 0.477368 0.503275
1547 1 0.0259278 0.490642 0.50344
1842 1 0.0677553 0.488311 0.501941
1404 1 0.0464533 0.489344 0.503627
1554 1 0.0587156 0.494453 0.502305
1556 1 0.0576391 0.48241 0.502694
1697 1 0.089585 0.487252 0.503654
1769 1 0.079049 0.482432 0.5022
1907 1 0.0798811 0.493804 0.502628
1548 1 0.112065 0.48957 0.503382
1849 1 0.100693 0.494044 0.503372
1551 1 0.100492 0.480315 0.503185
1708 1 0.135216 0.499451 0.502391
1560 1 0.134413 0.486298 0.502666
1704 1 0.123773 0.492696 0.503565
1700 1 0.121573 0.479719 0.50356
1641 1 0.144363 0.492151 0.503654
1780 1 0.155589 0.485392 0.503668
1571 1 0.144734 0.480183 0.503034
1775 1 0.155219 0.497171 0.502373
1916 1 0.172442 0.498776 0.502071
1638 1 0.166043 0.47823 0.502482
1783 1 0.166714 0.489167 0.501947
1706 1 0.178972 0.480485 0.501918
1640 1 0.202249 0.483977 0.501296
1980 1 0.196444 0.496522 0.502701
1709 1 0.190981 0.482929 0.502377
1705 1 0.182322 0.491557 0.501544
1643 1 0.22079 0.49601 0.501163
1500 1 0.216092 0.482582 0.502079
1712 1 0.209715 0.49246 0.502776
1496 1 0.239607 0.488031 0.501226
1646 1 0.227964 0.486827 0.502429
1858 1 0.232886 0.497626 0.502279
1707 1 0.246676 0.478201 0.501433
1636 1 0.251496 0.489817 0.500329
1711 1 0.258189 0.479486 0.501273
1786 1 0.263552 0.492758 0.500689
1644 1 0.281366 0.485612 0.500324
1856 1 0.298564 0.485044 0.500425
1933 1 0.313219 0.496923 0.500658
1723 1 0.340657 0.480206 0.50176
1791 1 0.32936 0.479117 0.501603
1793 1 0.333524 0.490928 0.50017
1725 1 0.322944 0.489605 0.501389
1582 1 0.356924 0.496989 0.502116
1721 1 0.344852 0.493626 0.502357
1650 1 0.352122 0.484748 0.502911
1518 1 0.368317 0.498685 0.503171
1589 1 0.384197 0.478359 0.503217
1664 1 0.375864 0.489239 0.504219
1657 1 0.36441 0.48638 0.502679
1659 1 0.399288 0.492056 0.503158
1584 1 0.396856 0.481006 0.503539
1662 1 0.388203 0.489993 0.503267
1594 1 0.408788 0.484384 0.503886
1668 1 0.429476 0.477638 0.504407
1598 1 0.421237 0.486706 0.504022
1667 1 0.412056 0.494123 0.503254
1670 1 0.424282 0.49686 0.502733
1534 1 0.452272 0.484667 0.502129
1672 1 0.447198 0.494846 0.501984
1669 1 0.442196 0.480356 0.503827
1677 1 0.433404 0.488465 0.503351
1741 1 0.458618 0.496138 0.502514
1603 1 0.465714 0.487519 0.502499
1604 1 0.497516 0.482032 0.501176
4411 1 0.477279 0.488883 0.501804
1538 1 0.486138 0.477364 0.500726
1609 1 0.489939 0.49067 0.500179
2126 1 0.271638 0.517489 0.499101
1927 1 0.283953 0.517882 0.498836
1928 1 0.29153 0.507054 0.498844
1930 1 0.278686 0.506841 0.498534
1922 1 0.295792 0.518171 0.499386
1852 1 0.309252 0.520117 0.498964
1995 1 0.315373 0.509876 0.499162
1796 1 0.303934 0.506673 0.498704
2077 1 0.323247 0.500921 0.498959
1931 1 0.330031 0.512592 0.498966
1676 1 0.492929 0.522524 0.49929
1674 1 0.479974 0.522423 0.5
2123 1 0.0898347 0.54307 0.498304
2331 1 0.0707806 0.540544 0.498836
1774 1 0.127219 0.527609 0.499886
1851 1 0.139528 0.53713 0.49939
1986 1 0.1475 0.527639 0.499934
1913 1 0.238786 0.542595 0.499916
1985 1 0.26312 0.525965 0.499607
2131 1 0.280727 0.542228 0.499184
1782 1 0.289696 0.529069 0.497847
1988 1 0.278596 0.528964 0.499613
1918 1 0.300599 0.529069 0.49944
2125 1 0.316541 0.542537 0.498219
2056 1 0.304244 0.541513 0.498274
1921 1 0.324304 0.533961 0.499623
4552 1 0.489675 0.543952 0.499729
1979 1 0.0397055 0.545506 0.499637
1977 1 0.0475964 0.555766 0.499984
1703 1 0.058777 0.546863 0.498118
2265 1 0.0768164 0.552302 0.49805
2202 1 0.249743 0.557591 0.497984
1981 1 0.259216 0.547058 0.49926
2127 1 0.270295 0.553155 0.499845
2135 1 0.287657 0.552257 0.499429
1920 1 0.299778 0.561 0.49975
2132 1 0.321004 0.553471 0.498895
1745 1 0.495251 0.555579 0.499852
1906 1 0.0206777 0.581605 0.499811
1831 1 0.0356434 0.582132 0.497267
1903 1 0.0346028 0.56819 0.499723
2194 1 0.0204355 0.594117 0.499747
2060 1 0.341858 0.606588 0.499209
1993 1 0.353697 0.605997 0.499917
2200 1 0.365634 0.605376 0.499949
2068 1 0.353551 0.620794 0.499497
2337 1 0.368833 0.616861 0.499329
2407 1 0.386696 0.632583 0.499999
2201 1 0.399054 0.634219 0.499334
2342 1 0.418221 0.624124 0.499881
2341 1 0.411231 0.634922 0.499368
2137 1 0.443124 0.629416 0.499325
2217 1 0.492636 0.634479 0.498911
2224 1 0.486308 0.622368 0.499897
2214 1 0.482174 0.632711 0.499759
2280 1 0.380958 0.643618 0.49991
2431 1 0.371489 0.656515 0.499121
2207 1 0.392525 0.64482 0.498741
2269 1 0.415308 0.648018 0.498865
2276 1 0.428563 0.649267 0.499774
2415 1 0.436141 0.639275 0.499839
2213 1 0.454443 0.649873 0.499879
2139 1 0.461197 0.641205 0.49965
2209 1 0.474793 0.643387 0.499276
2089 1 0.489237 0.656383 0.498334
2218 1 0.478724 0.654925 0.499724
2215 1 0.486253 0.644441 0.499684
2159 1 0.498279 0.645814 0.498827
2204 1 0.393012 0.6603 0.498432
2208 1 0.420321 0.659565 0.499972
2349 1 0.438601 0.671363 0.499168
2212 1 0.45834 0.661861 0.499948
2211 1 0.462996 0.674398 0.499572
2335 1 0.41037 0.686493 0.499897
2634 1 0.491678 0.851704 0.499533
2330 1 0.480166 0.850951 0.497972
2489 1 0.498414 0.860954 0.498838
2630 1 0.473282 0.885408 0.496661
2357 1 0.485037 0.86785 0.498004
2470 1 0.486803 0.884173 0.499752
2417 1 0.494984 0.874082 0.499633
2420 1 0.460083 0.899298 0.496895
2541 1 0.474016 0.903797 0.498854
2639 1 0.493403 0.894243 0.498752
2369 1 0.487974 0.905364 0.498396
2471 1 0.48213 0.895758 0.496535
2563 1 0.498812 0.905443 0.497441
2492 1 0.464356 0.911616 0.497263
2495 1 0.471074 0.923488 0.497004
2641 1 0.456636 0.921398 0.497545
2707 1 0.492101 0.915779 0.497453
2569 1 0.483857 0.925037 0.498013
2507 1 0.496469 0.926133 0.498221
2483 1 0.478984 0.913631 0.497737
2345 1 0.431628 0.948445 0.49701
2481 1 0.441647 0.934266 0.497605
2497 1 0.445971 0.951413 0.499613
2571 1 0.476132 0.933985 0.498115
2704 1 0.455303 0.943119 0.499306
2484 1 0.462804 0.934921 0.497449
2424 1 0.471044 0.945013 0.498405
2766 1 0.463576 0.952539 0.498589
2500 1 0.496785 0.947323 0.497572
2574 1 0.48456 0.945875 0.497992
2565 1 0.490329 0.935603 0.498766
2490 1 0.427437 0.961682 0.49915
2554 1 0.453861 0.960211 0.499461
2485 1 0.440603 0.963026 0.499754
2480 1 0.448086 0.971366 0.499857
2419 1 0.432144 0.973303 0.499616
2642 1 0.476662 0.954735 0.498333
2636 1 0.466387 0.964083 0.499703
2632 1 0.460007 0.973665 0.499465
2510 1 0.499628 0.959045 0.498831
2575 1 0.489051 0.956928 0.499932
2572 1 0.493585 0.968077 0.498755
2570 1 0.485434 0.97726 0.499479
2487 1 0.40438 0.991376 0.497237
2705 1 0.431149 0.988579 0.49925
2491 1 0.419228 0.992084 0.498129
2706 1 0.416625 0.979306 0.497932
2697 1 0.453775 0.984331 0.498721
2702 1 0.4456 0.994892 0.499598
49 1 0.46966 0.998583 0.499551
2631 1 0.458373 0.995712 0.499741
2775 1 0.477734 0.986997 0.499082
2777 1 0.490349 0.990124 0.498995
2710 1 0.496546 0.978855 0.499084
1692 1 0.0179021 0.509442 0.503818
1550 1 0.00651875 0.515698 0.505381
1482 1 0.00585033 0.504611 0.503303
1768 1 0.0176435 0.520752 0.502951
1759 1 0.0293895 0.513626 0.501635
1833 1 0.0399137 0.507821 0.502555
1835 1 0.0282273 0.502356 0.50383
1830 1 0.0389064 0.521057 0.502947
1834 1 0.0613657 0.506377 0.502224
1905 1 0.0512576 0.515074 0.501781
1845 1 0.0624555 0.520597 0.502106
1843 1 0.0499193 0.501665 0.501752
1839 1 0.0726581 0.512536 0.50218
2119 1 0.0822171 0.506162 0.501904
2053 1 0.0830579 0.52028 0.500946
1772 1 0.0700735 0.500277 0.502094
1773 1 0.0920918 0.500891 0.503228
1983 1 0.0929569 0.514169 0.502711
1838 1 0.103707 0.50717 0.502396
1840 1 0.104789 0.519612 0.502669
1622 1 0.115411 0.501363 0.502326
1847 1 0.11581 0.520272 0.501153
2333 1 0.126371 0.506794 0.501665
1778 1 0.138409 0.517874 0.501552
1848 1 0.145139 0.506437 0.500509
1912 1 0.158468 0.508249 0.501391
2193 1 0.159046 0.52167 0.501139
2268 1 0.17085 0.512748 0.501306
2267 1 0.178481 0.522307 0.500272
2334 1 0.189632 0.514395 0.501536
1779 1 0.200484 0.506585 0.502229
2046 1 0.200644 0.520549 0.502973
1710 1 0.185973 0.504416 0.5032
1917 1 0.211613 0.503592 0.502437
1850 1 0.223566 0.507271 0.501793
2196 1 0.225531 0.519936 0.502437
1987 1 0.213393 0.516569 0.503251
1923 1 0.235628 0.509714 0.50101
2067 1 0.244979 0.500112 0.501319
1926 1 0.247065 0.512651 0.501067
1861 1 0.256947 0.501305 0.501024
1929 1 0.267804 0.504495 0.500332
1781 1 0.259515 0.514089 0.500685
1865 1 0.334522 0.501678 0.501162
1862 1 0.319988 0.522094 0.500063
1934 1 0.341166 0.514244 0.50088
1863 1 0.347363 0.505397 0.500773
1719 1 0.360589 0.508731 0.501759
1936 1 0.35265 0.516758 0.500665
1727 1 0.379932 0.500744 0.502197
1792 1 0.36454 0.520693 0.501063
1658 1 0.383534 0.5119 0.500906
1722 1 0.372236 0.509939 0.502086
1795 1 0.37564 0.522526 0.500182
1730 1 0.395225 0.513003 0.501784
1797 1 0.392367 0.501937 0.502067
1803 1 0.404804 0.503539 0.501596
1737 1 0.407096 0.516083 0.501485
1867 1 0.427311 0.508566 0.502044
1807 1 0.420265 0.517506 0.500903
1660 1 0.416492 0.505521 0.50312
1729 1 0.431752 0.520209 0.501881
1731 1 0.436929 0.500275 0.502819
1747 1 0.439489 0.511114 0.501917
1805 1 0.451124 0.507167 0.501049
1799 1 0.444659 0.520301 0.502357
1536 1 0.470375 0.501312 0.500958
1735 1 0.456239 0.521083 0.501929
1606 1 0.473275 0.511822 0.501238
1597 1 0.461729 0.508854 0.502838
1806 1 0.467773 0.521026 0.501726
1678 1 0.483068 0.500435 0.500867
4202 1 0.4999 0.51347 0.50006
4343 1 0.494335 0.502825 0.500558
4276 1 0.486543 0.512598 0.500213
4690 1 0.0192338 0.532974 0.503294
1765 1 0.00806677 0.528711 0.504434
1696 1 0.00965622 0.541448 0.505085
1984 1 0.040493 0.5332 0.500187
2045 1 0.0294027 0.539394 0.502082
1836 1 0.0288384 0.525527 0.502761
1844 1 0.0499794 0.526088 0.500973
1914 1 0.0617764 0.533672 0.500456
1904 1 0.0507042 0.539236 0.500849
1908 1 0.0730362 0.527106 0.501428
1911 1 0.0842223 0.533462 0.500923
2121 1 0.105813 0.531763 0.500293
2198 1 0.0941715 0.526413 0.501317
1909 1 0.155512 0.54193 0.500725
1919 1 0.169438 0.532755 0.500494
1915 1 0.18992 0.532763 0.501187
1714 1 0.205818 0.532418 0.502743
2408 1 0.218732 0.540311 0.503459
2197 1 0.218145 0.528333 0.50466
1777 1 0.237138 0.522866 0.500972
2263 1 0.231767 0.533682 0.501322
1925 1 0.249672 0.525217 0.500809
1982 1 0.250968 0.537173 0.500164
2124 1 0.269585 0.537314 0.500426
2057 1 0.293006 0.540991 0.500579
1853 1 0.312745 0.532093 0.500397
1854 1 0.336651 0.535935 0.500515
1784 1 0.329378 0.544961 0.500178
1864 1 0.331678 0.523893 0.501089
2010 1 0.356389 0.528491 0.501736
2005 1 0.344112 0.525614 0.50059
2069 1 0.351272 0.537688 0.500813
1855 1 0.342035 0.544847 0.500496
1998 1 0.363271 0.541118 0.501953
1940 1 0.385849 0.544283 0.501135
1938 1 0.369881 0.531642 0.502085
2004 1 0.374854 0.54302 0.501754
1800 1 0.381602 0.533074 0.501964
1935 1 0.388672 0.522895 0.502117
1801 1 0.39922 0.524843 0.501478
1868 1 0.405266 0.537311 0.502835
1937 1 0.394638 0.534902 0.500667
1870 1 0.417144 0.538888 0.502933
1802 1 0.41185 0.528239 0.502516
1732 1 0.424077 0.528263 0.503211
1871 1 0.428849 0.538254 0.502044
1804 1 0.447343 0.532622 0.502894
1734 1 0.435473 0.530374 0.502944
2152 1 0.439499 0.541075 0.502386
1874 1 0.45186 0.543796 0.501833
1733 1 0.458748 0.534047 0.501524
1739 1 0.472626 0.532462 0.500458
1746 1 0.466247 0.542431 0.50146
1680 1 0.477914 0.543572 0.50196
4414 1 0.495107 0.533689 0.50009
1607 1 0.48441 0.532331 0.501329
1762 1 0.0183423 0.545866 0.501959
1825 1 0.00661812 0.552902 0.503418
1846 1 0.0199708 0.556208 0.503321
1973 1 0.0107977 0.564659 0.501875
2187 1 0.0318494 0.555593 0.50139
2058 1 0.309136 0.553343 0.500456
1989 1 0.336768 0.566315 0.501785
1991 1 0.333844 0.555072 0.501758
2061 1 0.325463 0.564475 0.500798
1990 1 0.34551 0.557083 0.501507
1996 1 0.353101 0.549583 0.501307
2065 1 0.357694 0.560579 0.500224
2006 1 0.376854 0.554286 0.500671
2003 1 0.364248 0.551644 0.500872
2082 1 0.383992 0.564462 0.501254
2001 1 0.370863 0.563536 0.500107
1728 1 0.397656 0.545876 0.501929
1932 1 0.402345 0.557098 0.502992
2008 1 0.390463 0.554799 0.500196
2081 1 0.3958 0.567658 0.500387
2012 1 0.414295 0.559098 0.502799
1869 1 0.409955 0.547339 0.502889
1943 1 0.42253 0.549787 0.503174
1945 1 0.426412 0.562009 0.503248
1942 1 0.434385 0.550954 0.502358
2011 1 0.445423 0.553838 0.503653
1873 1 0.45221 0.562006 0.502515
2083 1 0.438376 0.562823 0.501775
2157 1 0.462411 0.563042 0.502825
4481 1 0.471779 0.553658 0.501021
1939 1 0.458909 0.551778 0.502444
1808 1 0.474337 0.565251 0.501703
1738 1 0.499427 0.568037 0.500102
1811 1 0.486465 0.566084 0.500137
1743 1 0.484256 0.554677 0.502248
2055 1 0.00328846 0.583417 0.502908
1832 1 0.0115573 0.575709 0.502933
2192 1 0.0230999 0.569441 0.501411
2130 1 0.316026 0.569433 0.500286
2195 1 0.331331 0.578624 0.501308
2264 1 0.319584 0.584154 0.501699
2000 1 0.348583 0.570117 0.500668
2205 1 0.361135 0.572209 0.50124
1994 1 0.344463 0.581467 0.50063
2002 1 0.356901 0.582296 0.500739
2129 1 0.368525 0.583775 0.500137
2138 1 0.376293 0.575083 0.501078
2339 1 0.380221 0.586348 0.500531
2071 1 0.388664 0.5779 0.500199
1999 1 0.398971 0.579611 0.500885
2079 1 0.407102 0.568714 0.503032
2078 1 0.392428 0.589801 0.501705
1944 1 0.411467 0.581644 0.501827
2014 1 0.418633 0.571551 0.502841
2072 1 0.423777 0.582567 0.502561
2007 1 0.431649 0.572252 0.502475
2151 1 0.444778 0.573559 0.50255
2084 1 0.44775 0.585246 0.501323
2142 1 0.437165 0.584199 0.502937
2147 1 0.455884 0.574503 0.501905
2158 1 0.472524 0.586074 0.502171
2149 1 0.466511 0.57532 0.501371
2222 1 0.459604 0.586773 0.501319
1875 1 0.491808 0.576902 0.501136
1740 1 0.478598 0.5763 0.500807
1872 1 0.484725 0.587126 0.501168
1812 1 0.496798 0.588789 0.501079
1975 1 0.000466096 0.602273 0.504075
2048 1 0.0073436 0.594053 0.501285
2261 1 0.010259 0.608954 0.502118
2266 1 0.329374 0.597956 0.501164
2199 1 0.361332 0.594712 0.500833
2064 1 0.347371 0.594056 0.501613
2338 1 0.385385 0.59822 0.501083
2059 1 0.377285 0.60768 0.500238
2343 1 0.373162 0.596318 0.501462
2066 1 0.404386 0.591444 0.501916
2128 1 0.39747 0.602587 0.500658
2085 1 0.408295 0.601673 0.502053
2133 1 0.389029 0.611382 0.501403
2070 1 0.401578 0.613184 0.500042
2076 1 0.428955 0.594455 0.5027
1992 1 0.416306 0.592166 0.501286
2073 1 0.420605 0.604628 0.502367
2143 1 0.434128 0.605859 0.503022
2221 1 0.441019 0.596208 0.50136
2150 1 0.446896 0.606485 0.502671
2225 1 0.453459 0.595608 0.501734
2074 1 0.457871 0.606614 0.503078
2148 1 0.466025 0.597089 0.502535
2146 1 0.47118 0.608017 0.500738
2154 1 0.493649 0.611541 0.500554
1877 1 0.488903 0.598912 0.501009
2013 1 0.478202 0.596962 0.502286
2219 1 0.482061 0.611291 0.501673
2063 1 0.374706 0.627525 0.50049
2134 1 0.382053 0.61846 0.500614
2273 1 0.393055 0.623373 0.500226
2062 1 0.405586 0.62436 0.500382
2274 1 0.430111 0.626755 0.500817
2075 1 0.425942 0.615773 0.50169
2140 1 0.41345 0.613958 0.501403
2144 1 0.450433 0.61733 0.502164
2216 1 0.438316 0.617754 0.501001
2145 1 0.474672 0.620787 0.500921
2155 1 0.462655 0.617125 0.501095
2141 1 0.457839 0.628429 0.500565
2009 1 0.470426 0.631946 0.501038
2153 1 0.498996 0.623587 0.500536
2203 1 0.365517 0.636514 0.500415
2275 1 0.403535 0.648582 0.50021
2271 1 0.422045 0.637142 0.500076
2278 1 0.441242 0.649123 0.500175
2279 1 0.44939 0.638897 0.501121
2289 1 0.467318 0.655128 0.500157
2136 1 0.407937 0.660374 0.500436
2348 1 0.403417 0.671195 0.50029
2281 1 0.427844 0.671565 0.500458
2402 1 0.417301 0.677361 0.500077
2344 1 0.45202 0.67257 0.500775
2277 1 0.433626 0.659704 0.501181
2206 1 0.445432 0.659974 0.501078
2283 1 0.471961 0.666643 0.500691
2282 1 0.47734 0.677076 0.501037
2080 1 0.488342 0.677932 0.500111
2287 1 0.483138 0.667437 0.500385
2230 1 0.495268 0.667892 0.500309
2350 1 0.422677 0.690886 0.500128
2270 1 0.426288 0.703838 0.502213
2336 1 0.434013 0.682285 0.500328
2347 1 0.450288 0.696487 0.501819
2352 1 0.438514 0.693987 0.501196
2403 1 0.445137 0.682456 0.500788
2285 1 0.461716 0.696692 0.500681
2291 1 0.467274 0.685042 0.500847
2346 1 0.456374 0.685409 0.500322
2290 1 0.473483 0.694997 0.501668
2367 1 0.499108 0.700034 0.501032
2220 1 0.493472 0.688262 0.50136
2226 1 0.487846 0.698598 0.500565
2227 1 0.480781 0.687743 0.500878
2340 1 0.427525 0.723405 0.505624
2363 1 0.447575 0.716643 0.503877
2297 1 0.436385 0.715256 0.503596
2210 1 0.442982 0.704684 0.502781
2423 1 0.454391 0.725997 0.503459
2286 1 0.45668 0.707842 0.501707
2368 1 0.475433 0.717208 0.502124
2437 1 0.461984 0.717071 0.502255
2353 1 0.469073 0.706542 0.500987
2233 1 0.49859 0.720641 0.501911
2293 1 0.493132 0.708774 0.501649
2438 1 0.486386 0.718372 0.500627
2294 1 0.480612 0.706756 0.502213
2421 1 0.450518 0.74933 0.503933
2351 1 0.432125 0.738885 0.50618
2429 1 0.441883 0.727802 0.50579
2477 1 0.447607 0.738372 0.503556
2292 1 0.471207 0.738463 0.5035
2298 1 0.464881 0.728402 0.503183
2354 1 0.458289 0.740373 0.502453
2236 1 0.483017 0.740047 0.502024
2232 1 0.491095 0.730559 0.502656
2305 1 0.494976 0.74296 0.502413
2356 1 0.478601 0.727935 0.502933
2426 1 0.454019 0.767072 0.504935
2355 1 0.438795 0.752366 0.503764
2373 1 0.474778 0.750719 0.503064
2295 1 0.468901 0.764695 0.503752
2473 1 0.462159 0.752077 0.502771
2302 1 0.489038 0.751651 0.502971
2284 1 0.480821 0.761337 0.503246
2360 1 0.492974 0.764275 0.503563
2422 1 0.469854 0.793693 0.504975
2406 1 0.460757 0.780219 0.504353
2364 1 0.475717 0.774964 0.503646
2296 1 0.479068 0.786897 0.505672
2304 1 0.499419 0.775376 0.503437
2425 1 0.491951 0.787062 0.503128
2414 1 0.486433 0.775263 0.504266
2288 1 0.465487 0.80846 0.505136
2413 1 0.492333 0.809233 0.505567
2411 1 0.499361 0.79749 0.505049
2499 1 0.486109 0.797937 0.505411
2416 1 0.48011 0.807222 0.505041
2377 1 0.476068 0.821116 0.503997
5330 1 0.487118 0.818475 0.504437
2436 1 0.490139 0.837039 0.502134
2376 1 0.495663 0.826344 0.50265
2410 1 0.479067 0.835636 0.501339
2643 1 0.4725 0.975588 0.500471
2579 1 0.479452 0.965789 0.500538
2699 1 0.442816 0.983395 0.501313
47 1 0.465414 0.985486 0.500532
2573 1 0.480984 0.997969 0.50028
2518 1 0.51126 0.0136032 0.49878
2509 1 0.517896 0.00380134 0.498751
2778 1 0.505155 0.00345008 0.498704
2655 1 0.531481 0.00667196 0.499526
2654 1 0.543722 0.0062947 0.498016
2650 1 0.536069 0.0170897 0.498459
2656 1 0.524643 0.0152372 0.498673
5403 1 0.556522 0.00954584 0.498209
2588 1 0.560762 0.0205791 0.497992
2719 1 0.548101 0.0167105 0.49715
5263 1 0.563742 0.000531406 0.497879
2516 1 0.568616 0.0101089 0.497784
5339 1 0.579748 0.0108374 0.497327
5397 1 0.574538 0.0206015 0.4966
5404 1 0.585644 0.0211611 0.497382
5405 1 0.592103 0.0105575 0.496272
5340 1 0.599434 0.000867038 0.494247
5542 1 0.605228 0.0120305 0.494588
5406 1 0.61097 0.00271091 0.495756
2814 1 0.617592 0.0149751 0.495822
5477 1 0.623838 0.00421629 0.495445
2816 1 0.629431 0.0154613 0.495054
2815 1 0.635486 0.00391926 0.49519
2889 1 0.640562 0.0151181 0.494494
5545 1 0.646023 0.00597372 0.494315
5551 1 0.652136 0.0173523 0.495027
5552 1 0.657807 0.00801679 0.494478
2826 1 0.66605 0.0201907 0.49418
5560 1 0.67845 0.0219302 0.492674
2824 1 0.6713 0.00940918 0.49313
5559 1 0.664965 0.000220994 0.492858
2891 1 0.682984 0.0114868 0.492633
2827 1 0.693867 0.0115181 0.493332
2830 1 0.702645 0.00218324 0.494175
5564 1 0.69009 0.0226389 0.493579
2828 1 0.700796 0.0220045 0.494802
5562 1 0.69011 0.000323952 0.493316
2905 1 0.719318 0.0150875 0.49376
2901 1 0.706568 0.0124292 0.49351
5566 1 0.715126 0.00367555 0.49479
5498 1 0.728061 0.00479557 0.493268
2838 1 0.732178 0.0155987 0.495224
5571 1 0.738986 0.0042561 0.496044
2834 1 0.743808 0.0159405 0.494304
2847 1 0.766459 0.0194239 0.496728
2841 1 0.750395 0.0054901 0.494688
5577 1 0.754851 0.0159474 0.495489
5508 1 0.762505 0.00718962 0.496106
2990 1 0.786986 0.0124842 0.497662
5358 1 0.774582 0.00937901 0.496982
2921 1 0.778569 0.0193178 0.497034
2850 1 0.794733 0.000549689 0.496474
2915 1 0.809213 0.0128434 0.497157
2920 1 0.798148 0.01219 0.497697
2852 1 0.806971 0.00125324 0.497167
2855 1 0.818776 0.00256074 0.496684
2932 1 0.823314 0.0139506 0.496939
2927 1 0.835025 0.0144973 0.496794
2865 1 0.830466 0.00303614 0.495774
5600 1 0.860306 0.0181714 0.498092
5250 1 0.855054 0.00660951 0.498717
5582 1 0.847559 0.0167474 0.498792
5583 1 0.842763 0.00575472 0.497679
2522 1 0.879738 0.00885088 0.498953
2453 1 0.873787 0.0198888 0.49897
2733 1 0.867208 0.00759817 0.497522
2591 1 0.886365 0.0193045 0.499941
5316 1 0.901364 0.000945577 0.497729
5246 1 0.904889 0.0130685 0.498947
2390 1 0.893494 0.0103306 0.49775
2383 1 0.914445 0.00275727 0.497636
2384 1 0.919243 0.0146426 0.49668
2398 1 0.926623 0.00315998 0.496424
2393 1 0.932972 0.0125949 0.496556
2463 1 0.946006 0.0145381 0.496359
2462 1 0.940109 0.00305648 0.497037
2454 1 0.951913 0.00309002 0.496134
2397 1 0.964264 0.00318193 0.494809
2388 1 0.962383 0.0163016 0.494506
2535 1 0.993679 0.0225841 0.493795
2459 1 0.980108 0.0112787 0.494183
2712 1 0.520662 0.0355306 0.498809
2709 1 0.516734 0.0253189 0.498946
2721 1 0.504253 0.0240666 0.498868
2646 1 0.529669 0.0275971 0.499343
2728 1 0.534496 0.0388651 0.498629
2713 1 0.541848 0.0288574 0.499088
2651 1 0.55252 0.0285771 0.497693
2727 1 0.567779 0.032206 0.498273
5467 1 0.558373 0.0393734 0.497978
2724 1 0.546493 0.0392712 0.496917
5333 1 0.579708 0.0332575 0.498874
5393 1 0.585125 0.0427347 0.497927
5324 1 0.571591 0.0427493 0.499093
5470 1 0.59191 0.0334328 0.498411
5468 1 0.597244 0.0239524 0.496112
5543 1 0.610391 0.0236625 0.494716
5475 1 0.596264 0.0445413 0.497562
5469 1 0.603523 0.0336901 0.497108
2886 1 0.616135 0.035493 0.494817
5408 1 0.623572 0.0256063 0.49448
2820 1 0.628233 0.03677 0.49598
2819 1 0.634558 0.0272654 0.495947
3031 1 0.639411 0.039267 0.496036
3028 1 0.6514 0.0390431 0.495002
5556 1 0.645638 0.0276246 0.494568
2960 1 0.656856 0.0284239 0.495354
2821 1 0.662755 0.0409849 0.495485
2896 1 0.674643 0.042423 0.49418
2890 1 0.66872 0.0313626 0.493038
2893 1 0.682935 0.0319377 0.493851
2973 1 0.686498 0.0427403 0.493961
2892 1 0.699359 0.0433928 0.493225
2829 1 0.694292 0.0330223 0.493224
2831 1 0.707108 0.0346355 0.493605
2835 1 0.712701 0.0241953 0.494595
2899 1 0.71835 0.0344886 0.493663
2843 1 0.725163 0.024103 0.495164
2840 1 0.742026 0.0376013 0.495091
2907 1 0.730052 0.0360651 0.493457
2903 1 0.73683 0.0271887 0.495868
5575 1 0.748903 0.0279625 0.495433
2844 1 0.765178 0.0389119 0.495084
2906 1 0.75382 0.0406272 0.494958
5502 1 0.760132 0.0274714 0.494726
2993 1 0.791543 0.0231455 0.496598
5572 1 0.773431 0.030871 0.496255
5578 1 0.791566 0.0445225 0.49566
5576 1 0.777092 0.0436258 0.496245
2848 1 0.784773 0.0335826 0.497023
5510 1 0.803577 0.0238046 0.496854
2862 1 0.815972 0.0231587 0.496667
2996 1 0.808475 0.0335131 0.496096
2991 1 0.796449 0.0338836 0.496507
2918 1 0.802822 0.0435477 0.497461
2930 1 0.815411 0.0449837 0.496833
2995 1 0.829318 0.0240082 0.497193
3001 1 0.82047 0.0343812 0.49713
3004 1 0.83325 0.0354984 0.497064
2858 1 0.825699 0.0449351 0.498473
5592 1 0.84104 0.0255714 0.497996
2935 1 0.857336 0.0398353 0.499053
2734 1 0.853207 0.0293799 0.499026
2933 1 0.845859 0.0381573 0.499608
1 1 0.865668 0.0276886 0.499172
5599 1 0.880139 0.0300733 0.499068
76 1 0.869953 0.0391114 0.499535
6 1 0.880744 0.0424714 0.49851
2527 1 0.899581 0.0229301 0.499726
2455 1 0.890623 0.0320876 0.49999
5460 1 0.903634 0.0351948 0.498231
2594 1 0.893745 0.0435637 0.499533
2661 1 0.911288 0.0239118 0.499007
5459 1 0.909678 0.0450365 0.49922
2321 1 0.924989 0.0273577 0.497592
2526 1 0.930906 0.0378076 0.496831
2387 1 0.937223 0.0228086 0.496179
2593 1 0.952503 0.024277 0.495712
2532 1 0.941773 0.0319701 0.4975
2533 1 0.95292 0.0384032 0.495939
2599 1 0.941553 0.04276 0.497333
2461 1 0.963519 0.0320369 0.49586
2386 1 0.965176 0.043729 0.494583
2465 1 0.974781 0.0369131 0.495826
2392 1 0.970881 0.0233481 0.49492
2460 1 0.993231 0.0379738 0.493175
2540 1 0.983133 0.0277948 0.494751
2590 1 0.520297 0.0580649 0.499298
2796 1 0.513701 0.0663807 0.499431
5535 1 0.544217 0.0611955 0.499065
2726 1 0.527295 0.0481964 0.499818
5325 1 0.531997 0.0590259 0.498892
2657 1 0.550643 0.0501689 0.498127
2660 1 0.563069 0.0498731 0.498582
5322 1 0.557375 0.0594653 0.498935
5394 1 0.588636 0.0545092 0.499193
5391 1 0.581449 0.0649411 0.499717
5474 1 0.576858 0.0526488 0.498956
2884 1 0.608488 0.0465516 0.49764
5472 1 0.602115 0.056362 0.498117
2813 1 0.605862 0.0674045 0.497882
2818 1 0.614572 0.0555495 0.497551
2887 1 0.622258 0.0457079 0.49648
5548 1 0.633266 0.0474754 0.495965
2888 1 0.626254 0.0583005 0.496774
2882 1 0.618601 0.0679673 0.49677
3025 1 0.637362 0.0601662 0.496022
3029 1 0.64918 0.0610184 0.494429
3027 1 0.644112 0.0498044 0.49479
3105 1 0.65547 0.0520045 0.495275
3030 1 0.660777 0.0627383 0.49703
2898 1 0.679517 0.0533693 0.495355
2962 1 0.668446 0.0537459 0.495408
2894 1 0.67341 0.0640971 0.495935
3176 1 0.696147 0.0661617 0.493516
2961 1 0.691312 0.0536339 0.494656
2895 1 0.685844 0.0644664 0.4957
2832 1 0.702548 0.0569859 0.493841
2964 1 0.711539 0.0471319 0.493911
2977 1 0.722618 0.0456546 0.493592
3035 1 0.707792 0.0654222 0.496473
3040 1 0.71582 0.0591917 0.492734
2971 1 0.72123 0.0672727 0.495846
2967 1 0.736115 0.0478743 0.493537
2900 1 0.727582 0.0578561 0.495594
2978 1 0.746966 0.0502041 0.495533
2917 1 0.740004 0.0587398 0.493539
2972 1 0.733024 0.0679471 0.494998
2911 1 0.762775 0.0626308 0.494383
2908 1 0.75855 0.0511644 0.494757
2910 1 0.750715 0.0598942 0.493407
2842 1 0.770155 0.0521002 0.495049
2914 1 0.782392 0.0539046 0.495661
2916 1 0.787374 0.063839 0.497201
2845 1 0.774276 0.0633683 0.49472
3059 1 0.79458 0.0550742 0.496907
2931 1 0.808353 0.0550056 0.495603
3005 1 0.814402 0.0671869 0.495413
2919 1 0.801974 0.0649288 0.496619
2867 1 0.820947 0.0569287 0.497227
2859 1 0.831615 0.05755 0.496501
2997 1 0.837682 0.0465711 0.497486
2666 1 0.85054 0.0497208 0.498852
2937 1 0.843832 0.0592608 0.49738
2860 1 0.855473 0.0602374 0.497402
75 1 0.862668 0.0497954 0.498283
2857 1 0.868018 0.0620992 0.498059
5597 1 0.880784 0.0634004 0.499285
2663 1 0.873575 0.0521565 0.498407
2451 1 0.885936 0.052796 0.499362
2731 1 0.900109 0.0546309 0.499884
2595 1 0.905341 0.0648495 0.498227
5386 1 0.922027 0.0469089 0.498982
2457 1 0.924683 0.0591205 0.498802
2665 1 0.916227 0.0680385 0.498437
2523 1 0.914649 0.0556078 0.499272
2524 1 0.93306 0.0515927 0.496535
2528 1 0.937318 0.0636213 0.496671
2529 1 0.944569 0.0556938 0.496287
2530 1 0.951381 0.0679421 0.495755
2674 1 0.95479 0.0512825 0.495028
2608 1 0.974525 0.0530919 0.494828
2600 1 0.96322 0.0594284 0.495375
2603 1 0.97333 0.0656342 0.495933
2399 1 0.983086 0.0462814 0.493881
2671 1 0.985275 0.058048 0.494718
2328 1 0.996018 0.0522275 0.493907
2394 1 0.994607 0.0644305 0.49605
5533 1 0.521967 0.089099 0.499416
5392 1 0.530018 0.0807664 0.499823
5395 1 0.535346 0.06983 0.499559
2802 1 0.533901 0.0907396 0.499046
5462 1 0.52505 0.0695031 0.498886
5464 1 0.540815 0.0805332 0.499211
5402 1 0.56276 0.0714378 0.4985
2801 1 0.553277 0.0822578 0.499366
2805 1 0.566259 0.0833942 0.499522
5540 1 0.573844 0.0746569 0.499951
2806 1 0.580044 0.085543 0.498223
5536 1 0.585641 0.0756271 0.499643
2808 1 0.591193 0.08767 0.499711
2883 1 0.598082 0.0767409 0.498532
2811 1 0.602571 0.0878423 0.498256
2957 1 0.610624 0.0786755 0.498481
2812 1 0.616197 0.0896904 0.498514
2885 1 0.629552 0.0697059 0.497215
2956 1 0.633601 0.0799711 0.497674
2954 1 0.622974 0.0795374 0.497892
3106 1 0.642784 0.0698781 0.49617
2963 1 0.654141 0.0737903 0.495993
3094 1 0.644778 0.0821243 0.495979
3103 1 0.657183 0.083449 0.494058
3038 1 0.6697 0.0843982 0.49556
2966 1 0.678744 0.0746383 0.496047
3037 1 0.666382 0.073304 0.495581
3179 1 0.68216 0.0854568 0.494638
3033 1 0.693915 0.0866482 0.496292
3032 1 0.701612 0.0753515 0.495746
2909 1 0.690495 0.0748078 0.494791
3107 1 0.705912 0.0873083 0.495716
2968 1 0.713364 0.0777 0.494326
3034 1 0.717766 0.0886495 0.495868
2970 1 0.725496 0.0784692 0.496255
2976 1 0.74411 0.0689106 0.495866
2974 1 0.736214 0.0798167 0.495464
2904 1 0.748317 0.0802555 0.495596
3115 1 0.728437 0.0902296 0.496131
3039 1 0.74035 0.0897445 0.495478
3043 1 0.7562 0.0717345 0.494554
2913 1 0.767479 0.0736617 0.495297
2979 1 0.760667 0.0832818 0.493573
3053 1 0.793874 0.0742554 0.496349
2981 1 0.773352 0.0829569 0.495561
2912 1 0.787854 0.084125 0.495864
2924 1 0.780933 0.0735086 0.496161
3061 1 0.798041 0.0861613 0.497463
3063 1 0.810527 0.087233 0.49655
2987 1 0.805905 0.0766277 0.495469
2992 1 0.824929 0.0687994 0.49679
3065 1 0.819227 0.0785324 0.494726
2998 1 0.835537 0.0686277 0.497717
3002 1 0.828892 0.0794325 0.497697
3052 1 0.823677 0.0904194 0.496252
3006 1 0.861091 0.0717856 0.497445
3000 1 0.847361 0.0696649 0.497746
2934 1 0.853497 0.0801668 0.496401
3078 1 0.841132 0.0798578 0.496936
5598 1 0.86622 0.0814022 0.498334
2664 1 0.884319 0.0737291 0.499268
2866 1 0.873411 0.0725159 0.499958
3009 1 0.878051 0.084009 0.497338
2737 1 0.897732 0.090467 0.49833
2735 1 0.908799 0.0809431 0.498365
2668 1 0.898765 0.0746135 0.499179
73 1 0.889886 0.0828883 0.499426
2597 1 0.927562 0.0708552 0.497671
2456 1 0.919146 0.0788329 0.497506
2738 1 0.922248 0.0897354 0.496346
151 1 0.930481 0.081531 0.495469
2531 1 0.951756 0.079354 0.496302
2741 1 0.939969 0.075326 0.496679
2667 1 0.941556 0.0859327 0.496569
288 1 0.96271 0.0724018 0.494523
2669 1 0.973901 0.0782021 0.496398
149 1 0.964498 0.0845727 0.495854
80 1 0.975299 0.0893892 0.495253
2602 1 0.983953 0.0714336 0.495378
2672 1 0.994888 0.076348 0.496016
148 1 0.984934 0.0819482 0.496293
9 1 0.996236 0.0893752 0.496866
2729 1 0.507015 0.110337 0.498903
5463 1 0.519557 0.110432 0.498432
2658 1 0.516264 0.0988397 0.498859
2799 1 0.540036 0.102469 0.498684
201 1 0.530952 0.113556 0.498243
137 1 0.528752 0.101387 0.499836
2804 1 0.562963 0.10422 0.498616
2807 1 0.551712 0.104048 0.499591
2797 1 0.546652 0.0926271 0.499189
5534 1 0.558612 0.0919247 0.499414
2878 1 0.57497 0.105831 0.499022
3016 1 0.587814 0.106392 0.496911
2880 1 0.582513 0.09672 0.499127
5539 1 0.570868 0.0946267 0.498672
5541 1 0.597122 0.0980094 0.498448
2881 1 0.600215 0.108702 0.497971
2958 1 0.609536 0.0985483 0.497783
3023 1 0.611317 0.11121 0.496934
2953 1 0.627664 0.0914517 0.497575
2876 1 0.632983 0.102465 0.497569
3024 1 0.619632 0.101607 0.497319
2949 1 0.623695 0.112539 0.496701
3026 1 0.639263 0.0916389 0.495713
2959 1 0.651987 0.0935008 0.494715
3157 1 0.644976 0.103695 0.494775
3095 1 0.658548 0.104376 0.4954
3163 1 0.637362 0.112946 0.495281
3101 1 0.676268 0.0943924 0.495877
3088 1 0.670454 0.105278 0.494223
3096 1 0.664569 0.0945078 0.494044
3098 1 0.680487 0.105423 0.497226
3109 1 0.688716 0.0966009 0.495262
3036 1 0.700339 0.0968366 0.496144
3172 1 0.692706 0.107256 0.496503
2965 1 0.704705 0.108557 0.496886
3118 1 0.722551 0.100337 0.496872
3253 1 0.716494 0.110246 0.496227
3110 1 0.711104 0.0986787 0.497283
3117 1 0.729798 0.111294 0.495874
3046 1 0.746375 0.100831 0.49621
3042 1 0.734489 0.101404 0.495514
3045 1 0.741255 0.111988 0.49542
2975 1 0.75284 0.0926422 0.494905
3050 1 0.76005 0.104107 0.495643
2980 1 0.765512 0.0933758 0.495351
2982 1 0.771914 0.103189 0.495497
3049 1 0.752372 0.113506 0.495871
2985 1 0.779917 0.0937434 0.495862
3057 1 0.784436 0.105669 0.497669
2994 1 0.791485 0.0958132 0.496663
3071 1 0.798139 0.108367 0.497752
2999 1 0.80873 0.110428 0.497322
2988 1 0.80317 0.0975911 0.496977
2984 1 0.814761 0.100562 0.49623
3069 1 0.834995 0.0911847 0.497552
3070 1 0.828169 0.101703 0.496171
3075 1 0.821942 0.112173 0.496145
3147 1 0.839649 0.1038 0.496058
2868 1 0.858029 0.0913786 0.497181
2936 1 0.845943 0.0914991 0.498106
72 1 0.851294 0.102264 0.497845
3145 1 0.863597 0.103233 0.497227
2928 1 0.858075 0.112796 0.498365
3008 1 0.874821 0.103085 0.496822
3077 1 0.869382 0.0926855 0.496727
4 1 0.882995 0.094964 0.498731
2870 1 0.899494 0.103061 0.497827
2940 1 0.886588 0.104451 0.496787
2525 1 0.910437 0.0930711 0.497397
77 1 0.921577 0.102198 0.496312
2598 1 0.910685 0.106213 0.49664
3148 1 0.921681 0.112567 0.497559
141 1 0.932735 0.0951424 0.495889
211 1 0.943684 0.0980438 0.496508
213 1 0.93364 0.107037 0.496169
8 1 0.953509 0.0910424 0.495688
147 1 0.945162 0.110303 0.49709
74 1 0.955752 0.102998 0.496525
79 1 0.965843 0.097266 0.496584
289 1 0.965638 0.109483 0.497276
146 1 0.976532 0.103527 0.496932
153 1 0.985789 0.0955057 0.496125
10 1 0.996744 0.101453 0.497229
287 1 0.986174 0.10907 0.497023
220 1 0.997861 0.113583 0.495936
2941 1 0.517323 0.133338 0.498998
2803 1 0.512558 0.121483 0.49972
198 1 0.50571 0.130755 0.499375
68 1 0.543791 0.135914 0.4978
5531 1 0.543531 0.114045 0.499971
207 1 0.524329 0.123743 0.498042
67 1 0.535546 0.126078 0.498766
2875 1 0.527843 0.134782 0.497606
2871 1 0.561457 0.1265 0.498229
2809 1 0.548984 0.125136 0.498518
5532 1 0.55658 0.115451 0.498181
2873 1 0.568094 0.115332 0.498544
2948 1 0.580971 0.117688 0.49868
2872 1 0.584633 0.128663 0.497444
2879 1 0.573423 0.127297 0.497904
2877 1 0.592651 0.117778 0.497344
2951 1 0.609068 0.132163 0.497351
2810 1 0.604415 0.120603 0.497039
2947 1 0.597306 0.129525 0.496101
2955 1 0.616467 0.12229 0.497017
2952 1 0.62916 0.122467 0.496586
3083 1 0.621002 0.133788 0.496422
3313 1 0.633881 0.132878 0.495664
3085 1 0.650331 0.114017 0.494926
3020 1 0.641035 0.123449 0.494548
2950 1 0.653563 0.124815 0.495428
3019 1 0.645621 0.133263 0.495453
3090 1 0.662224 0.116896 0.494464
3164 1 0.66734 0.128106 0.494937
3022 1 0.678011 0.129335 0.496125
3093 1 0.673356 0.116748 0.495864
3167 1 0.690085 0.128192 0.495913
3180 1 0.70114 0.130804 0.496047
3099 1 0.685473 0.116741 0.494574
3243 1 0.696065 0.118456 0.497057
3041 1 0.708171 0.120828 0.49743
3114 1 0.713924 0.131802 0.496427
3108 1 0.720591 0.121527 0.496447
3188 1 0.725211 0.131737 0.497711
2902 1 0.73413 0.124304 0.496248
3256 1 0.745973 0.123638 0.496513
3184 1 0.740516 0.135113 0.497615
2983 1 0.764238 0.116218 0.496422
3120 1 0.757529 0.126723 0.495192
3122 1 0.769604 0.126437 0.495653
3257 1 0.751488 0.134342 0.497471
3056 1 0.775462 0.114074 0.496828
2986 1 0.781795 0.12477 0.497213
3054 1 0.789388 0.116166 0.497756
3128 1 0.793663 0.128821 0.496148
3051 1 0.775973 0.135353 0.497871
3062 1 0.807087 0.132017 0.49716
3055 1 0.800907 0.120224 0.497552
3066 1 0.814023 0.121498 0.49701
3131 1 0.817939 0.131602 0.497465
3067 1 0.833438 0.113729 0.497917
3133 1 0.830881 0.133539 0.498374
3204 1 0.82669 0.122767 0.496791
3130 1 0.839278 0.12352 0.497252
3003 1 0.845769 0.114475 0.497158
3074 1 0.850774 0.124736 0.498243
3138 1 0.844708 0.135261 0.497995
3073 1 0.86241 0.123613 0.496853
2939 1 0.88148 0.116045 0.496569
3149 1 0.869952 0.131884 0.498093
3206 1 0.880859 0.127541 0.497131
3010 1 0.870973 0.115276 0.496457
2596 1 0.903001 0.114593 0.49795
2736 1 0.903779 0.125442 0.496405
216 1 0.891769 0.133446 0.496731
3068 1 0.891648 0.120929 0.496382
2869 1 0.914133 0.132252 0.495656
143 1 0.924034 0.126155 0.49523
71 1 0.913977 0.119553 0.494937
285 1 0.945337 0.122823 0.496737
215 1 0.934674 0.131016 0.496324
142 1 0.934165 0.119347 0.496159
3208 1 0.945496 0.136088 0.497554
145 1 0.95655 0.115895 0.497415
217 1 0.97593 0.115261 0.497833
144 1 0.966392 0.122772 0.497052
282 1 0.955864 0.128682 0.497958
293 1 0.967197 0.133503 0.497422
219 1 0.977892 0.127118 0.497027
360 1 0.987194 0.120597 0.49704
223 1 0.997873 0.127173 0.496365
290 1 0.98739 0.133523 0.498498
134 1 0.514384 0.153998 0.499538
208 1 0.522152 0.144369 0.498913
344 1 0.509762 0.14206 0.499038
135 1 0.534113 0.144198 0.497789
206 1 0.54053 0.157637 0.497967
138 1 0.526822 0.154659 0.497381
210 1 0.555401 0.137017 0.497805
2942 1 0.567145 0.137962 0.498185
209 1 0.552846 0.158467 0.497388
205 1 0.546681 0.146928 0.496755
2944 1 0.559451 0.148349 0.495916
3084 1 0.577677 0.140304 0.496771
3017 1 0.571876 0.150841 0.496818
2945 1 0.583762 0.151779 0.497083
3018 1 0.58943 0.139477 0.496622
3156 1 0.606697 0.153035 0.495505
3015 1 0.60068 0.141224 0.496442
3011 1 0.594974 0.150933 0.495837
3170 1 0.613449 0.14308 0.497083
3238 1 0.632871 0.154554 0.496083
3162 1 0.618852 0.154884 0.49724
3169 1 0.626049 0.144971 0.497437
3168 1 0.656312 0.15716 0.495246
3173 1 0.650896 0.145631 0.495169
3240 1 0.639032 0.144079 0.495888
3086 1 0.644651 0.155727 0.496054
3091 1 0.659109 0.136645 0.495113
3247 1 0.671039 0.139266 0.49479
3312 1 0.663822 0.148797 0.496081
3174 1 0.675262 0.149706 0.495789
3166 1 0.68234 0.139528 0.49572
3111 1 0.687497 0.150327 0.496533
3104 1 0.699283 0.152 0.496347
3097 1 0.694835 0.14094 0.496849
3182 1 0.711861 0.153432 0.495979
3177 1 0.724992 0.153586 0.495599
3175 1 0.706149 0.14204 0.495576
3183 1 0.718742 0.142605 0.496422
3181 1 0.732425 0.143614 0.49706
3398 1 0.74483 0.146156 0.496529
3112 1 0.737541 0.155972 0.497176
3113 1 0.748683 0.156753 0.498491
3178 1 0.762343 0.136557 0.496779
3044 1 0.756862 0.147489 0.4983
3047 1 0.769294 0.145987 0.498606
2969 1 0.762852 0.156662 0.49732
3195 1 0.780767 0.148061 0.498445
3119 1 0.788683 0.13901 0.497704
3196 1 0.773183 0.15827 0.499674
3121 1 0.792781 0.151924 0.498501
3125 1 0.804772 0.152897 0.498097
3197 1 0.811719 0.141537 0.497855
3265 1 0.816854 0.153108 0.49903
3060 1 0.798966 0.142581 0.495883
3139 1 0.835486 0.145315 0.497829
3127 1 0.824235 0.144392 0.498962
3273 1 0.839714 0.15664 0.499154
3058 1 0.827766 0.156937 0.499161
3203 1 0.859413 0.150655 0.498625
3142 1 0.857004 0.137679 0.49772
3064 1 0.847825 0.148493 0.497472
3143 1 0.870129 0.143281 0.49856
2938 1 0.882316 0.139168 0.497643
3140 1 0.872104 0.154568 0.498479
3216 1 0.883152 0.15048 0.497532
2 1 0.893517 0.145203 0.496249
3007 1 0.903866 0.151807 0.495426
212 1 0.903159 0.138 0.496417
214 1 0.893301 0.157335 0.496884
359 1 0.924072 0.138906 0.496293
354 1 0.925033 0.15215 0.496165
3079 1 0.913673 0.14366 0.496441
3211 1 0.914075 0.155704 0.496812
3072 1 0.945067 0.149297 0.497893
3150 1 0.934829 0.143123 0.497079
3144 1 0.933706 0.156096 0.498732
3215 1 0.956175 0.142554 0.498603
218 1 0.975952 0.140088 0.499286
3080 1 0.966713 0.147 0.499928
3355 1 0.956323 0.153869 0.497869
281 1 0.978385 0.152242 0.499919
353 1 0.988338 0.14494 0.498812
361 1 0.99984 0.138518 0.498951
3213 1 0.998821 0.150719 0.49984
283 1 0.990085 0.157723 0.499881
203 1 0.508791 0.16335 0.499742
3366 1 0.536354 0.176953 0.498062
204 1 0.533046 0.165861 0.498867
346 1 0.544231 0.167972 0.497969
202 1 0.565123 0.159978 0.497139
418 1 0.549202 0.179006 0.498825
274 1 0.55673 0.169759 0.497595
485 1 0.562123 0.17999 0.49869
419 1 0.569439 0.171698 0.497676
3081 1 0.589125 0.162337 0.496392
2946 1 0.577811 0.162507 0.497723
489 1 0.582255 0.172729 0.496609
279 1 0.57587 0.181214 0.499082
3222 1 0.59989 0.161523 0.49716
276 1 0.595196 0.172845 0.496387
3089 1 0.606096 0.173519 0.495838
3021 1 0.6114 0.162812 0.496423
3161 1 0.630455 0.17701 0.495823
3171 1 0.624458 0.16543 0.496278
3155 1 0.61723 0.174667 0.496631
3092 1 0.638461 0.165899 0.497613
3311 1 0.650132 0.167148 0.496176
3244 1 0.654593 0.179923 0.497209
3242 1 0.642601 0.177684 0.496914
3317 1 0.668895 0.159743 0.495902
3241 1 0.673301 0.17042 0.495901
3250 1 0.661893 0.169617 0.495671
3102 1 0.680168 0.159507 0.496153
3381 1 0.66696 0.180834 0.497429
3316 1 0.685114 0.172397 0.496374
3165 1 0.697519 0.173665 0.496562
3246 1 0.692026 0.162651 0.496327
3248 1 0.703372 0.164225 0.496608
3249 1 0.721198 0.175269 0.49729
3392 1 0.716979 0.163953 0.49745
3255 1 0.709172 0.172818 0.497262
3186 1 0.739909 0.167428 0.498659
3332 1 0.746654 0.178012 0.498699
3251 1 0.733675 0.17701 0.498054
3254 1 0.729152 0.165465 0.497803
3406 1 0.765689 0.169903 0.499365
3326 1 0.753966 0.168834 0.498632
3258 1 0.75985 0.181173 0.498604
3185 1 0.771376 0.179792 0.498828
3191 1 0.784442 0.160981 0.499299
3048 1 0.777152 0.169841 0.499394
3329 1 0.789017 0.171334 0.49902
3192 1 0.797635 0.162093 0.498853
3334 1 0.809278 0.16442 0.499862
3336 1 0.802214 0.171928 0.499443
3414 1 0.815245 0.173731 0.499523
3129 1 0.834271 0.166671 0.499491
3275 1 0.826348 0.176563 0.499069
3124 1 0.820932 0.164547 0.499248
3134 1 0.849747 0.164089 0.498772
3205 1 0.8588 0.176587 0.499549
3076 1 0.860963 0.164144 0.497411
3271 1 0.845426 0.174007 0.498116
3279 1 0.870431 0.17154 0.498305
3135 1 0.881004 0.164144 0.498603
3347 1 0.879649 0.177298 0.49922
351 1 0.90229 0.163588 0.498474
3284 1 0.901266 0.175596 0.49811
3281 1 0.890769 0.17 0.497403
3349 1 0.912308 0.168602 0.498019
3146 1 0.922504 0.16276 0.496694
3346 1 0.91371 0.181045 0.497789
3348 1 0.924155 0.172586 0.499371
3359 1 0.934831 0.166752 0.497037
3209 1 0.945628 0.160442 0.499525
3141 1 0.946254 0.172828 0.498098
3286 1 0.935896 0.177513 0.498864
3210 1 0.956509 0.165716 0.499832
3212 1 0.966071 0.159895 0.499343
3217 1 0.987328 0.169576 0.499808
3365 1 0.542714 0.188852 0.49874
3151 1 0.522768 0.197023 0.499124
3507 1 0.530801 0.187216 0.499712
3225 1 0.568148 0.191223 0.498552
350 1 0.554616 0.190789 0.498447
275 1 0.548435 0.200145 0.499623
273 1 0.589209 0.182711 0.496702
3297 1 0.585002 0.203913 0.498545
3299 1 0.580872 0.191634 0.499088
3224 1 0.574573 0.201825 0.498947
3082 1 0.592152 0.194498 0.497667
277 1 0.604766 0.196084 0.497913
2943 1 0.599286 0.185112 0.497196
3013 1 0.61091 0.184512 0.497046
3087 1 0.6278 0.19656 0.497741
3233 1 0.623848 0.185665 0.496855
3159 1 0.635546 0.187474 0.497047
3291 1 0.616551 0.196952 0.497864
3319 1 0.652328 0.200978 0.49886
3315 1 0.649141 0.189433 0.497638
3158 1 0.640766 0.19735 0.498801
3309 1 0.660489 0.191182 0.497606
3252 1 0.678849 0.182522 0.49662
3380 1 0.672747 0.191803 0.497819
3318 1 0.664856 0.202566 0.49795
3384 1 0.677592 0.203233 0.499493
3100 1 0.69074 0.182888 0.497566
3391 1 0.684652 0.194347 0.497883
3325 1 0.703431 0.183957 0.495932
3385 1 0.697081 0.19532 0.49719
3320 1 0.708755 0.194948 0.498399
3245 1 0.71418 0.184871 0.497474
3395 1 0.720609 0.195543 0.496439
3321 1 0.727321 0.186231 0.49864
3323 1 0.74548 0.200689 0.497847
3461 1 0.732562 0.197872 0.499338
3331 1 0.739084 0.187684 0.49776
3259 1 0.765297 0.191062 0.499302
3324 1 0.768944 0.201934 0.498751
3476 1 0.756621 0.201497 0.498792
3327 1 0.751551 0.189535 0.497011
3190 1 0.77736 0.190782 0.499931
3194 1 0.800225 0.191323 0.499401
3126 1 0.836231 0.181822 0.499039
3274 1 0.847944 0.185973 0.498298
3415 1 0.858431 0.190205 0.498728
3202 1 0.850054 0.199089 0.49979
3357 1 0.880796 0.188707 0.498654
3200 1 0.869918 0.196304 0.499621
3272 1 0.881033 0.200003 0.499113
3413 1 0.868926 0.183201 0.497791
3277 1 0.891168 0.182299 0.498188
3136 1 0.901785 0.198942 0.498104
3132 1 0.902553 0.18593 0.498987
3429 1 0.892202 0.193719 0.499716
562 1 0.912696 0.191821 0.49879
3137 1 0.925279 0.198611 0.499075
3282 1 0.924467 0.18497 0.499625
3350 1 0.934971 0.203725 0.499617
3288 1 0.943513 0.185779 0.499193
3152 1 0.541864 0.209728 0.499948
3305 1 0.590528 0.215199 0.498082
3014 1 0.583992 0.224062 0.499833
3223 1 0.570506 0.222868 0.499831
3226 1 0.597101 0.205419 0.499317
3509 1 0.59528 0.226726 0.498806
3239 1 0.609514 0.206246 0.497386
3308 1 0.601701 0.215679 0.499136
3234 1 0.608109 0.226441 0.497716
3237 1 0.614691 0.216024 0.497942
3230 1 0.627467 0.217835 0.499186
3227 1 0.633805 0.206807 0.49855
3301 1 0.621803 0.207101 0.49826
3231 1 0.638498 0.219363 0.499639
3229 1 0.644754 0.209877 0.499305
3388 1 0.656943 0.211462 0.498454
3585 1 0.649202 0.221122 0.498496
3445 1 0.670926 0.213012 0.499143
3376 1 0.661351 0.224284 0.499836
3382 1 0.681729 0.2144 0.499438
3387 1 0.689601 0.206129 0.497858
3390 1 0.701406 0.20656 0.498571
3389 1 0.69356 0.216603 0.499658
3452 1 0.707002 0.217121 0.499366
3397 1 0.712615 0.205332 0.499476
3386 1 0.717248 0.217125 0.498518
3399 1 0.724385 0.207237 0.499909
3465 1 0.743531 0.220123 0.499004
3463 1 0.729252 0.218617 0.499131
3467 1 0.749908 0.21147 0.498048
3459 1 0.736666 0.20898 0.49838
3469 1 0.766187 0.223907 0.498381
3330 1 0.755093 0.222531 0.498001
3401 1 0.761624 0.212002 0.498794
3189 1 0.773871 0.213719 0.499874
3260 1 0.794469 0.205492 0.499872
3472 1 0.776751 0.225397 0.498922
3475 1 0.786101 0.214204 0.498895
3466 1 0.788991 0.226627 0.498915
3261 1 0.797176 0.218249 0.499788
3473 1 0.807773 0.225468 0.499152
3405 1 0.817719 0.204635 0.499716
3412 1 0.86101 0.217239 0.499367
3344 1 0.849742 0.224231 0.499768
3337 1 0.871774 0.220232 0.499848
3268 1 0.882656 0.211801 0.49966
3276 1 0.891635 0.205223 0.498601
3345 1 0.903978 0.222697 0.499469
3423 1 0.89311 0.216596 0.49913
3496 1 0.925418 0.22108 0.499789
3356 1 0.91372 0.205319 0.499118
3354 1 0.914403 0.216898 0.498533
3343 1 0.924744 0.210678 0.499978
496 1 0.958281 0.226337 0.499921
3369 1 0.600108 0.236771 0.498631
3228 1 0.603165 0.247788 0.499836
3310 1 0.618948 0.227711 0.49724
3012 1 0.623429 0.241019 0.498948
3375 1 0.634198 0.242185 0.499809
3370 1 0.630467 0.229447 0.497351
3517 1 0.64227 0.232306 0.498069
3449 1 0.647738 0.243618 0.49966
3235 1 0.653793 0.23161 0.499663
3588 1 0.65977 0.243763 0.499622
3374 1 0.678744 0.23497 0.499863
3593 1 0.715161 0.240368 0.497854
3526 1 0.708139 0.248825 0.498561
3458 1 0.725942 0.241339 0.499867
3474 1 0.745667 0.23188 0.498959
3322 1 0.737768 0.2425 0.499628
3393 1 0.734436 0.229163 0.499396
3537 1 0.750284 0.242452 0.499237
3477 1 0.758162 0.233343 0.498967
3400 1 0.761451 0.244576 0.499082
3328 1 0.770121 0.2344 0.499029
3403 1 0.77559 0.244642 0.498719
3479 1 0.785218 0.238029 0.498395
3464 1 0.799516 0.231087 0.498185
3342 1 0.798088 0.244113 0.49861
3333 1 0.818847 0.242856 0.499619
3491 1 0.839538 0.24014 0.498847
3338 1 0.860641 0.228992 0.499922
3563 1 0.862242 0.239337 0.49917
3629 1 0.884519 0.249174 0.499142
3494 1 0.87334 0.243802 0.499335
3565 1 0.91479 0.228139 0.499887
564 1 0.928408 0.247857 0.499902
3424 1 0.916181 0.241801 0.499717
3430 1 0.937386 0.239966 0.498603
3236 1 0.595633 0.2575 0.499456
3511 1 0.614635 0.250484 0.49905
3379 1 0.654043 0.254491 0.499776
3160 1 0.646127 0.264304 0.499623
3378 1 0.64023 0.25223 0.498534
3450 1 0.668998 0.266575 0.499082
3448 1 0.676735 0.25685 0.498783
3737 1 0.682802 0.267199 0.499148
3516 1 0.688099 0.25532 0.498181
3670 1 0.694435 0.268781 0.497341
3590 1 0.71951 0.250997 0.498628
3594 1 0.725595 0.262297 0.499762
3453 1 0.71311 0.261176 0.498457
3592 1 0.705083 0.272224 0.498838
3396 1 0.73149 0.252147 0.498856
3661 1 0.748241 0.265153 0.498669
3394 1 0.736551 0.265395 0.497952
3522 1 0.742983 0.252064 0.499596
3545 1 0.766086 0.255772 0.498936
3597 1 0.754693 0.25365 0.498521
3527 1 0.761355 0.267586 0.499132
3407 1 0.78681 0.251046 0.498792
3532 1 0.774163 0.269664 0.498246
3617 1 0.777864 0.257526 0.499233
3541 1 0.78783 0.264215 0.497913
3486 1 0.809168 0.25066 0.499781
3549 1 0.797637 0.257365 0.499045
3535 1 0.797805 0.268904 0.499736
3558 1 0.820228 0.254975 0.498375
3546 1 0.831621 0.260833 0.499357
3421 1 0.8398 0.252142 0.499946
3341 1 0.832919 0.27234 0.498756
3624 1 0.861263 0.264736 0.499277
3685 1 0.851864 0.271798 0.498908
3488 1 0.841609 0.266502 0.49964
3420 1 0.861603 0.252278 0.499857
3694 1 0.874397 0.269452 0.498271
3487 1 0.885443 0.262836 0.499668
3564 1 0.896389 0.267597 0.498982
3638 1 0.907858 0.272013 0.499029
704 1 0.919201 0.255115 0.499945
3693 1 0.91825 0.266477 0.499237
3569 1 0.92883 0.261672 0.499774
3498 1 0.939238 0.254962 0.499421
3500 1 0.939332 0.266679 0.499239
632 1 0.951129 0.258379 0.498953
771 1 0.961201 0.262513 0.499948
3377 1 0.612217 0.273677 0.499647
3646 1 0.616544 0.28539 0.499825
3584 1 0.653958 0.286101 0.499106
3652 1 0.642976 0.284466 0.49999
3521 1 0.677288 0.289048 0.497352
3519 1 0.661215 0.276737 0.498592
3663 1 0.666699 0.288069 0.499979
3596 1 0.67418 0.276454 0.499598
3457 1 0.699088 0.281223 0.497528
3805 1 0.686837 0.278925 0.498674
3667 1 0.689777 0.291712 0.497965
3742 1 0.701941 0.293401 0.498003
3444 1 0.716837 0.272897 0.498016
3600 1 0.711216 0.283226 0.498025
3524 1 0.723802 0.282999 0.498757
3673 1 0.714854 0.29342 0.497831
3598 1 0.727468 0.29407 0.497809
3589 1 0.729378 0.273738 0.499089
3528 1 0.735679 0.28544 0.497055
3533 1 0.74195 0.275891 0.497152
3613 1 0.747862 0.288156 0.496705
3602 1 0.755482 0.277117 0.497174
3554 1 0.760445 0.288479 0.495391
3402 1 0.767223 0.28011 0.497471
3536 1 0.772131 0.290657 0.496711
3478 1 0.789679 0.276108 0.497576
3530 1 0.779658 0.281205 0.497641
3552 1 0.792414 0.287468 0.49733
3619 1 0.782961 0.294612 0.496471
3529 1 0.811336 0.274451 0.499931
3340 1 0.813329 0.287126 0.499683
3543 1 0.803236 0.292893 0.497496
3470 1 0.801861 0.282493 0.499729
3698 1 0.833642 0.285499 0.498807
3559 1 0.823391 0.290448 0.498139
3560 1 0.822288 0.27978 0.499351
3765 1 0.855064 0.283429 0.498165
3768 1 0.854875 0.294965 0.49941
3490 1 0.877038 0.28119 0.498648
3692 1 0.866574 0.288563 0.498403
3759 1 0.877289 0.29346 0.498344
3484 1 0.865184 0.277052 0.498433
3492 1 0.886386 0.275393 0.498971
3684 1 0.8882 0.286445 0.498464
3623 1 0.898197 0.27908 0.499938
3630 1 0.908738 0.284546 0.49944
3634 1 0.927375 0.273533 0.499834
3774 1 0.918725 0.292191 0.499452
3636 1 0.939359 0.290335 0.499815
842 1 0.961671 0.288476 0.499178
3635 1 0.972405 0.280399 0.499515
3587 1 0.67657 0.31031 0.497968
3662 1 0.672195 0.29902 0.49961
3812 1 0.683823 0.301861 0.498762
3666 1 0.688204 0.31263 0.499356
3671 1 0.699346 0.313983 0.496982
3660 1 0.695329 0.303037 0.498222
3665 1 0.707991 0.30543 0.499872
3814 1 0.720461 0.303467 0.497609
3668 1 0.712092 0.316782 0.497873
3595 1 0.738906 0.295733 0.496393
3531 1 0.732672 0.305214 0.497541
3607 1 0.746661 0.306744 0.496402
3743 1 0.727478 0.315399 0.497505
3454 1 0.73798 0.316653 0.497272
3599 1 0.754741 0.298603 0.495586
3687 1 0.769322 0.303173 0.497066
3468 1 0.759753 0.3101 0.496734
3544 1 0.772039 0.313759 0.494319
3538 1 0.792524 0.301027 0.498018
3539 1 0.782712 0.306864 0.496141
3618 1 0.794156 0.311275 0.495699
3622 1 0.812906 0.29778 0.499249
3553 1 0.815203 0.311788 0.497312
3615 1 0.804685 0.304951 0.49769
3620 1 0.835057 0.298282 0.497346
3481 1 0.835793 0.309445 0.498138
3557 1 0.824272 0.302837 0.497975
3408 1 0.825311 0.315209 0.497407
3689 1 0.846235 0.303366 0.499232
3688 1 0.857077 0.30849 0.49858
3695 1 0.84729 0.315555 0.49824
3561 1 0.877303 0.305432 0.498858
3766 1 0.866741 0.31347 0.499121
3556 1 0.866542 0.300397 0.49856
3983 1 0.878265 0.318017 0.498816
3771 1 0.907807 0.298964 0.498988
3628 1 0.887485 0.29727 0.498945
3773 1 0.898136 0.304085 0.498041
3912 1 0.888254 0.310699 0.499112
3913 1 0.923773 0.315565 0.499376
3770 1 0.919016 0.303987 0.498837
3697 1 0.912223 0.313071 0.498882
3841 1 0.932746 0.310797 0.499809
3707 1 0.952502 0.308317 0.49971
3704 1 0.9407 0.303769 0.499383
3705 1 0.960964 0.301408 0.499554
847 1 0.972808 0.305483 0.499585
844 1 0.983292 0.298431 0.499909
3869 1 0.64621 0.327488 0.499338
3800 1 0.638255 0.337898 0.499876
3659 1 0.680408 0.322709 0.497959
3658 1 0.672766 0.332001 0.499387
3734 1 0.685231 0.334195 0.498459
3873 1 0.699256 0.33611 0.4984
3881 1 0.692415 0.324335 0.498768
3804 1 0.704908 0.326113 0.498471
3738 1 0.718425 0.325923 0.497908
3882 1 0.712291 0.337103 0.498196
3740 1 0.723421 0.336496 0.498014
3669 1 0.730601 0.327185 0.496259
3739 1 0.741671 0.330501 0.497774
3601 1 0.748318 0.339473 0.496555
3525 1 0.750654 0.318807 0.498303
3747 1 0.753794 0.32873 0.496851
3534 1 0.763897 0.321174 0.496529
3745 1 0.764353 0.332532 0.495411
3610 1 0.775177 0.326195 0.49552
3621 1 0.783826 0.319228 0.496616
3825 1 0.776123 0.337725 0.494611
3614 1 0.785614 0.332621 0.495487
3681 1 0.793966 0.324052 0.494316
3752 1 0.804411 0.318494 0.496292
3603 1 0.796848 0.337153 0.495428
3833 1 0.818083 0.335556 0.496056
3482 1 0.815758 0.323357 0.496618
3611 1 0.805359 0.329613 0.495162
3555 1 0.836532 0.321438 0.497447
3832 1 0.827458 0.328766 0.497353
3836 1 0.8379 0.335052 0.496732
3758 1 0.827081 0.340819 0.497598
3542 1 0.85866 0.321659 0.499419
3691 1 0.858884 0.33276 0.497981
3764 1 0.847545 0.328205 0.498141
3690 1 0.848637 0.339958 0.497976
3696 1 0.870327 0.326457 0.499928
3699 1 0.869803 0.337638 0.499334
3701 1 0.88094 0.330496 0.499816
3920 1 0.902125 0.318646 0.497779
3702 1 0.901305 0.329976 0.49934
3843 1 0.891497 0.336423 0.498155
3834 1 0.889892 0.322017 0.498534
3842 1 0.912613 0.324492 0.498838
4054 1 0.912027 0.335481 0.49986
3708 1 0.932762 0.323427 0.499955
3706 1 0.953785 0.319813 0.499575
3849 1 0.965277 0.326103 0.498837
3709 1 0.975246 0.33227 0.499599
3850 1 0.996101 0.330689 0.499416
913 1 0.986741 0.336833 0.499977
3780 1 0.984777 0.324622 0.497924
3863 1 0.636185 0.358285 0.499072
3941 1 0.649732 0.361772 0.497805
3877 1 0.655975 0.349281 0.499492
3801 1 0.677198 0.34309 0.497366
3809 1 0.666894 0.35095 0.498924
3807 1 0.660718 0.362988 0.499354
3731 1 0.679419 0.354044 0.499861
3796 1 0.690417 0.345128 0.498673
3808 1 0.703504 0.346902 0.498579
3811 1 0.689773 0.355504 0.496595
3815 1 0.706091 0.357683 0.497811
3880 1 0.717981 0.359743 0.498135
3746 1 0.716014 0.34864 0.499115
3606 1 0.73491 0.340957 0.497597
3749 1 0.728101 0.351569 0.496595
3604 1 0.741643 0.350905 0.496384
3678 1 0.729545 0.363 0.49545
3540 1 0.753973 0.349924 0.49513
3753 1 0.765998 0.356266 0.49385
3608 1 0.763799 0.343775 0.494349
3741 1 0.753923 0.362722 0.495029
3612 1 0.775573 0.34977 0.493997
3682 1 0.776373 0.362466 0.493683
3751 1 0.786331 0.345113 0.495383
3827 1 0.787628 0.356605 0.495026
3754 1 0.79621 0.349323 0.494354
3821 1 0.799027 0.361328 0.49394
3548 1 0.807395 0.341052 0.495864
3755 1 0.806977 0.353389 0.494679
3683 1 0.817822 0.348097 0.495626
3829 1 0.817501 0.35929 0.494451
3897 1 0.828142 0.352873 0.496013
3700 1 0.837979 0.347028 0.495628
3762 1 0.838985 0.361045 0.496035
3609 1 0.859436 0.345088 0.498725
3686 1 0.859261 0.358838 0.497823
3760 1 0.848869 0.353979 0.496976
3626 1 0.880678 0.342001 0.498658
3772 1 0.879673 0.355101 0.497951
3838 1 0.869436 0.351216 0.499794
3908 1 0.902085 0.341761 0.498744
3906 1 0.891105 0.348644 0.499673
3899 1 0.902013 0.355241 0.499376
3902 1 0.891553 0.360152 0.499249
3777 1 0.996717 0.34326 0.499415
3935 1 0.652527 0.374382 0.49952
3948 1 0.665415 0.374635 0.498582
3929 1 0.677162 0.37618 0.498205
3806 1 0.674058 0.36496 0.498814
4028 1 0.668261 0.385587 0.497188
3883 1 0.696884 0.365936 0.497693
3885 1 0.690443 0.37745 0.498516
3879 1 0.684896 0.366329 0.498866
3963 1 0.703463 0.380261 0.49847
3810 1 0.707682 0.370574 0.496977
3748 1 0.719475 0.370478 0.496314
3893 1 0.714761 0.381387 0.496936
3677 1 0.732876 0.374404 0.496722
3674 1 0.74331 0.38073 0.494448
3813 1 0.741213 0.366801 0.495844
3891 1 0.729505 0.384796 0.49583
3675 1 0.766288 0.368349 0.493882
3672 1 0.754761 0.375899 0.494437
3744 1 0.765906 0.380968 0.493331
3605 1 0.77776 0.37548 0.49421
3822 1 0.788351 0.368348 0.495109
3616 1 0.788128 0.380248 0.49391
3888 1 0.777338 0.3862 0.49347
3679 1 0.798625 0.373722 0.493658
3892 1 0.809195 0.367369 0.494131
3826 1 0.809443 0.379985 0.495819
3965 1 0.818562 0.373974 0.494872
3901 1 0.826896 0.365461 0.495617
3967 1 0.829277 0.378132 0.49538
3898 1 0.839466 0.372309 0.496381
3968 1 0.838552 0.385501 0.497057
3761 1 0.84981 0.366341 0.497947
3757 1 0.860116 0.372217 0.498078
3972 1 0.849892 0.378554 0.49765
3905 1 0.861624 0.384199 0.497812
3911 1 0.870437 0.363707 0.499053
3896 1 0.881489 0.36816 0.498849
3835 1 0.870959 0.374223 0.499494
3828 1 0.880239 0.380856 0.497754
3904 1 0.891942 0.373822 0.498805
3971 1 0.900848 0.380429 0.49921
3955 1 0.665519 0.407704 0.49793
3878 1 0.65989 0.396412 0.499352
3949 1 0.671843 0.397287 0.498779
3886 1 0.679598 0.387672 0.497259
3818 1 0.690678 0.38869 0.498712
3817 1 0.69572 0.400305 0.498146
3816 1 0.683857 0.40054 0.499179
3884 1 0.705179 0.391212 0.497704
4029 1 0.720526 0.392329 0.497297
3820 1 0.709919 0.400707 0.498237
3960 1 0.72225 0.404253 0.49599
3890 1 0.733096 0.396135 0.496115
3750 1 0.743773 0.392132 0.494956
3676 1 0.745563 0.40465 0.495233
4033 1 0.754618 0.387169 0.495715
3823 1 0.76647 0.392437 0.494824
3889 1 0.765717 0.40493 0.494498
3680 1 0.755171 0.398114 0.494599
4111 1 0.787181 0.404141 0.494085
3819 1 0.776738 0.397666 0.49512
3958 1 0.788498 0.392365 0.494016
3824 1 0.797755 0.386974 0.496013
3830 1 0.809114 0.392647 0.495039
4105 1 0.809163 0.40565 0.495341
4036 1 0.798288 0.399124 0.494264
3831 1 0.820178 0.386629 0.494533
4031 1 0.8192 0.398786 0.496312
3895 1 0.830521 0.392271 0.49638
4039 1 0.828984 0.404109 0.495308
4040 1 0.839945 0.398063 0.497157
4115 1 0.840553 0.40896 0.497259
3975 1 0.850034 0.391852 0.497961
4045 1 0.851776 0.404073 0.497935
4108 1 0.862763 0.395844 0.498216
3977 1 0.874346 0.400052 0.497989
3970 1 0.882865 0.39379 0.49809
3976 1 0.864036 0.408472 0.498279
3978 1 0.871305 0.389083 0.499535
3840 1 0.883621 0.406268 0.499979
3973 1 0.893166 0.398919 0.498951
4049 1 0.901917 0.39175 0.499275
4023 1 0.657519 0.417371 0.498255
3953 1 0.677787 0.409984 0.497585
4165 1 0.673559 0.429752 0.498953
3952 1 0.669716 0.417363 0.499963
4024 1 0.661613 0.427463 0.499404
4168 1 0.681606 0.42154 0.499408
4096 1 0.702814 0.411088 0.498464
4021 1 0.692935 0.422992 0.499661
4167 1 0.704287 0.423191 0.498751
4087 1 0.689701 0.410998 0.497697
4098 1 0.715866 0.425005 0.499256
3887 1 0.714127 0.412844 0.498273
4099 1 0.725551 0.417712 0.498172
4163 1 0.726249 0.43023 0.49991
4027 1 0.747188 0.430743 0.496728
3961 1 0.734685 0.409671 0.496267
4097 1 0.736975 0.424008 0.498085
4026 1 0.745386 0.41673 0.497282
4035 1 0.768012 0.428476 0.493838
3956 1 0.756033 0.41267 0.495382
3959 1 0.755995 0.424773 0.494108
4107 1 0.767881 0.41685 0.494588
3894 1 0.77822 0.410202 0.495031
4187 1 0.788674 0.429731 0.495074
4034 1 0.789136 0.41661 0.496244
4106 1 0.778989 0.422754 0.49474
4177 1 0.797274 0.409671 0.495178
3957 1 0.809044 0.417334 0.495312
3964 1 0.811472 0.428941 0.49433
3966 1 0.799068 0.422969 0.495155
3756 1 0.820119 0.411324 0.495339
4037 1 0.831354 0.416542 0.49587
4042 1 0.832073 0.428837 0.497235
3962 1 0.822777 0.423086 0.495053
3974 1 0.841795 0.420813 0.496284
4043 1 0.852247 0.415617 0.497357
4114 1 0.852843 0.427695 0.49838
4120 1 0.863408 0.420428 0.498334
3982 1 0.873808 0.413303 0.49943
3909 1 0.885078 0.418801 0.498584
3996 1 0.540066 0.443003 0.499546
3872 1 0.657573 0.44669 0.498316
3951 1 0.653954 0.436657 0.499437
3868 1 0.646023 0.446315 0.499261
4094 1 0.678568 0.440364 0.498137
4018 1 0.670147 0.448426 0.499941
4093 1 0.666672 0.438012 0.498632
3954 1 0.685928 0.432165 0.498427
4154 1 0.68243 0.451154 0.498772
4091 1 0.699019 0.434623 0.49815
4022 1 0.692194 0.443205 0.499372
4086 1 0.722948 0.44018 0.499786
4095 1 0.711929 0.43517 0.499648
4159 1 0.705313 0.444669 0.498613
4092 1 0.748245 0.454027 0.497934
4025 1 0.737807 0.449806 0.498971
4162 1 0.736537 0.437777 0.498298
4101 1 0.747299 0.443586 0.496461
4231 1 0.727423 0.454357 0.499785
4241 1 0.769039 0.44272 0.495549
4300 1 0.75811 0.437769 0.496467
4102 1 0.758684 0.447921 0.495911
4243 1 0.789891 0.453155 0.495807
4164 1 0.77984 0.434863 0.494867
4032 1 0.789343 0.44186 0.494901
4038 1 0.778726 0.448465 0.494523
4104 1 0.800972 0.447389 0.495922
4174 1 0.811735 0.440771 0.496216
4181 1 0.799764 0.435461 0.494963
4235 1 0.810761 0.4531 0.496238
4255 1 0.821112 0.434589 0.496932
4182 1 0.831316 0.440148 0.497069
4254 1 0.831795 0.45339 0.497295
4103 1 0.822519 0.447497 0.497228
4257 1 0.854635 0.43862 0.497899
4110 1 0.842586 0.444465 0.498257
4109 1 0.854938 0.451478 0.497489
4113 1 0.841646 0.433011 0.49802
4041 1 0.865745 0.446083 0.497756
4044 1 0.86707 0.433005 0.498232
4189 1 0.875715 0.440046 0.498467
1393 1 0.500735 0.458186 0.499218
4074 1 0.624172 0.474635 0.499884
4221 1 0.632047 0.466051 0.499903
3947 1 0.627919 0.455853 0.499567
4076 1 0.618495 0.464868 0.499768
4083 1 0.639693 0.456217 0.498807
4009 1 0.650551 0.458016 0.497869
4075 1 0.64285 0.46759 0.498924
3936 1 0.655427 0.469375 0.49822
3942 1 0.673763 0.460424 0.499638
4153 1 0.67978 0.473482 0.499244
4017 1 0.661104 0.458374 0.49883
4228 1 0.667361 0.47039 0.499871
4020 1 0.686434 0.461766 0.498911
4224 1 0.690409 0.474719 0.499739
3876 1 0.698077 0.466038 0.499574
4100 1 0.736575 0.462253 0.498979
4237 1 0.747857 0.466533 0.498306
4155 1 0.737048 0.473465 0.499505
4030 1 0.759521 0.471691 0.497957
4171 1 0.769635 0.466075 0.496914
4232 1 0.757895 0.459947 0.497306
4172 1 0.769235 0.454713 0.496858
4170 1 0.791609 0.467554 0.496421
4236 1 0.780018 0.470619 0.496866
4169 1 0.780353 0.459965 0.49636
4184 1 0.813027 0.476395 0.498721
4180 1 0.802003 0.472283 0.496401
4326 1 0.811873 0.464388 0.497911
4173 1 0.799622 0.459272 0.496752
4321 1 0.823451 0.458639 0.497647
4258 1 0.833438 0.466334 0.496874
4185 1 0.822907 0.470654 0.49879
4251 1 0.843246 0.457559 0.497368
4046 1 0.855612 0.462426 0.499646
4395 1 0.846599 0.469736 0.499139
4118 1 0.867531 0.468755 0.499874
4259 1 0.867559 0.457555 0.499413
4329 1 0.888713 0.456527 0.499881
4403 1 0.899651 0.463359 0.499952
4194 1 0.88903 0.470612 0.499867
1470 1 0.509425 0.482986 0.498827
4273 1 0.522135 0.483854 0.499673
4134 1 0.538883 0.497326 0.499826
1540 1 0.533137 0.486195 0.499466
4064 1 0.56469 0.499737 0.499101
4081 1 0.582163 0.490838 0.499693
4211 1 0.60814 0.495168 0.499625
4281 1 0.595699 0.494771 0.499901
3946 1 0.636248 0.477799 0.499857
4286 1 0.619451 0.497074 0.499807
4005 1 0.614942 0.484755 0.498987
3937 1 0.648918 0.480008 0.499627
4293 1 0.678659 0.497523 0.498726
4082 1 0.663042 0.493104 0.499597
4288 1 0.672423 0.483269 0.499108
4225 1 0.660817 0.481259 0.498718
4361 1 0.684191 0.485453 0.49855
4289 1 0.69082 0.499204 0.499501
4368 1 0.702662 0.477754 0.499885
4226 1 0.695891 0.487763 0.499197
4375 1 0.702833 0.496106 0.498634
4299 1 0.726208 0.492055 0.499477
4298 1 0.709386 0.487827 0.499932
4304 1 0.749341 0.478059 0.498165
4230 1 0.738837 0.485888 0.498461
4229 1 0.728254 0.48057 0.49967
4310 1 0.770141 0.491538 0.498293
4377 1 0.760306 0.496811 0.499137
4371 1 0.770212 0.479893 0.498123
4233 1 0.759918 0.484863 0.497579
4306 1 0.750442 0.492015 0.499019
4249 1 0.781044 0.496859 0.499292
4238 1 0.780516 0.484345 0.497
4179 1 0.79114 0.479156 0.497197
4319 1 0.792547 0.490501 0.498328
4461 1 0.804076 0.496096 0.499563
4526 1 0.813141 0.488977 0.498637
4183 1 0.802417 0.483916 0.497722
4253 1 0.83442 0.478148 0.498841
4458 1 0.823369 0.481985 0.498524
2659 1 0.508826 0.0359747 0.501093
5 1 0.915895 0.0351843 0.500168
2652 1 0.506785 0.0575374 0.501093
65 1 0.501574 0.045677 0.500116
2576 1 0.515287 0.0465932 0.500137
2782 1 0.500716 0.0676445 0.500228
2723 1 0.539912 0.0509329 0.50004
5466 1 0.569129 0.0632685 0.500281
5538 1 0.593786 0.0660239 0.500103
2592 1 0.893326 0.0632313 0.500108
2795 1 0.506748 0.0779186 0.500704
2874 1 0.50854 0.089565 0.500261
2798 1 0.518322 0.0781527 0.500071
5537 1 0.55034 0.0712602 0.500055
2794 1 0.502265 0.09963 0.500007
199 1 0.503514 0.15157 0.500529
200 1 0.501246 0.171467 0.500489
139 1 0.513676 0.173522 0.50045
140 1 0.520988 0.164518 0.500345
488 1 0.524659 0.17603 0.500725
3335 1 0.781435 0.179445 0.501108
3264 1 0.806769 0.181703 0.500533
3351 1 0.956305 0.179085 0.500056
3219 1 0.966311 0.171797 0.500584
3290 1 0.978518 0.175976 0.502356
355 1 0.999721 0.175866 0.501867
357 1 0.99846 0.163921 0.500412
434 1 0.989416 0.181411 0.502523
3283 1 0.977472 0.163611 0.501379
347 1 0.505587 0.182973 0.501119
345 1 0.510971 0.194313 0.500392
349 1 0.517914 0.185323 0.500758
3367 1 0.534632 0.197767 0.500022
278 1 0.561179 0.199828 0.500836
3193 1 0.790136 0.194552 0.501128
3116 1 0.781134 0.202556 0.500347
3187 1 0.79365 0.182446 0.500498
3263 1 0.814798 0.191161 0.500309
3123 1 0.806932 0.201093 0.500124
3199 1 0.840112 0.194357 0.500085
3411 1 0.828396 0.200219 0.501446
3198 1 0.827064 0.187684 0.500106
3266 1 0.859999 0.204017 0.500169
3353 1 0.934228 0.190652 0.50073
3280 1 0.94459 0.197032 0.500408
3360 1 0.966883 0.183241 0.500073
3287 1 0.967467 0.195331 0.501249
424 1 0.954893 0.19066 0.500905
3207 1 0.956639 0.202131 0.500846
498 1 0.997929 0.200476 0.503919
507 1 0.999242 0.188256 0.503163
421 1 0.978612 0.18915 0.501931
3285 1 0.987629 0.193588 0.503692
428 1 0.978383 0.201413 0.5021
3436 1 0.504088 0.204574 0.502397
3296 1 0.515967 0.207231 0.500424
3643 1 0.50982 0.215272 0.502824
3294 1 0.504199 0.225933 0.501958
3504 1 0.515659 0.225569 0.501928
3363 1 0.523206 0.217928 0.502243
3434 1 0.534108 0.220055 0.501322
3300 1 0.528317 0.207418 0.500533
3221 1 0.546075 0.220791 0.502046
3439 1 0.553555 0.210263 0.501137
3364 1 0.558275 0.220078 0.502435
3298 1 0.566794 0.2114 0.500011
3153 1 0.578925 0.213718 0.500008
3455 1 0.672766 0.224022 0.500287
3591 1 0.686273 0.225287 0.500059
3520 1 0.698183 0.226515 0.500571
3262 1 0.808098 0.21368 0.50051
3410 1 0.828243 0.224368 0.500724
3409 1 0.818773 0.218372 0.500758
3417 1 0.839788 0.217328 0.50061
3483 1 0.829181 0.211739 0.501478
3485 1 0.839604 0.205917 0.50141
3267 1 0.850839 0.210991 0.501393
3419 1 0.884138 0.22488 0.50032
3269 1 0.870938 0.20861 0.50022
3201 1 0.90355 0.210685 0.500451
3278 1 0.945808 0.208379 0.500203
568 1 0.946707 0.222279 0.50048
3426 1 0.936476 0.216446 0.50026
3289 1 0.96812 0.206036 0.501087
423 1 0.95623 0.213924 0.500591
494 1 0.967605 0.218637 0.501264
493 1 0.977099 0.214224 0.502698
567 1 0.999633 0.213489 0.503237
640 1 0.999616 0.225865 0.502631
497 1 0.987985 0.20648 0.502778
705 1 0.988995 0.218309 0.503233
566 1 0.980208 0.22504 0.502663
3644 1 0.500821 0.248495 0.501719
3501 1 0.508323 0.237583 0.5022
3576 1 0.51886 0.238957 0.502021
3505 1 0.512548 0.249454 0.503265
3368 1 0.526428 0.230148 0.502229
3571 1 0.539525 0.231263 0.501074
3579 1 0.531885 0.241025 0.502589
3302 1 0.544498 0.242428 0.503329
3506 1 0.551117 0.231414 0.501253
3293 1 0.562254 0.232175 0.501293
3295 1 0.556833 0.242625 0.502253
3442 1 0.568241 0.242371 0.501658
3373 1 0.575664 0.234031 0.501519
3154 1 0.578245 0.245563 0.500413
3303 1 0.590745 0.246654 0.500767
280 1 0.587395 0.235066 0.500339
3232 1 0.611072 0.239078 0.500165
3451 1 0.667225 0.23439 0.500403
3518 1 0.671504 0.246265 0.500534
3446 1 0.689899 0.236025 0.501156
3523 1 0.682788 0.246347 0.501128
3314 1 0.702512 0.238143 0.500703
3456 1 0.696323 0.247236 0.500589
3460 1 0.710225 0.230463 0.500026
3462 1 0.72167 0.230149 0.500752
3418 1 0.817966 0.230953 0.500331
3404 1 0.808385 0.237576 0.500495
3550 1 0.829748 0.237047 0.501896
3551 1 0.839846 0.228969 0.501501
3339 1 0.829192 0.249103 0.501301
3416 1 0.850495 0.246907 0.500311
3425 1 0.850955 0.235878 0.500859
3497 1 0.885431 0.23663 0.500194
3422 1 0.872588 0.232336 0.500053
3499 1 0.908211 0.2487 0.500052
3562 1 0.896362 0.242495 0.500377
3493 1 0.905859 0.235911 0.500886
3567 1 0.896011 0.230079 0.500556
3495 1 0.926032 0.23324 0.500272
3358 1 0.93628 0.227308 0.501579
3427 1 0.948011 0.233731 0.500414
631 1 0.948014 0.246721 0.500177
495 1 0.958932 0.238365 0.500468
422 1 0.970406 0.231889 0.502298
561 1 0.969282 0.243958 0.500811
492 1 0.990749 0.244143 0.502205
3352 1 0.980858 0.23763 0.502629
491 1 0.991192 0.232008 0.503719
3575 1 0.517854 0.261451 0.502181
3572 1 0.50465 0.26076 0.501648
3512 1 0.509741 0.271198 0.503563
3440 1 0.536875 0.251496 0.503481
3714 1 0.540508 0.262846 0.5042
3642 1 0.524685 0.251501 0.502596
3651 1 0.528891 0.263788 0.502999
3583 1 0.547972 0.252653 0.503698
3432 1 0.559938 0.253343 0.503308
3437 1 0.553302 0.263447 0.50473
3649 1 0.564514 0.263796 0.503714
3438 1 0.576946 0.265393 0.501803
3508 1 0.57244 0.253723 0.503277
3510 1 0.584019 0.25649 0.500845
3441 1 0.589126 0.266762 0.501152
3715 1 0.600457 0.270241 0.500736
3306 1 0.607292 0.261322 0.500652
1049 1 0.618353 0.26312 0.500855
3307 1 0.625793 0.253221 0.500536
3443 1 0.635085 0.262371 0.500833
3586 1 0.6575 0.265692 0.501164
3383 1 0.664764 0.257091 0.500866
3515 1 0.700628 0.25891 0.500269
3471 1 0.809882 0.263037 0.500177
3547 1 0.821703 0.267525 0.500355
3480 1 0.85116 0.259139 0.500929
3270 1 0.873099 0.256621 0.500127
3627 1 0.896225 0.254439 0.501064
3633 1 0.907741 0.260006 0.500427
841 1 0.950314 0.269346 0.500432
706 1 0.969095 0.268719 0.501726
703 1 0.97184 0.256838 0.500795
3428 1 0.959388 0.250342 0.500394
702 1 0.981509 0.250334 0.503248
637 1 0.98271 0.262934 0.501929
633 1 0.991901 0.255309 0.501961
772 1 0.995516 0.266959 0.50194
770 1 0.520869 0.272849 0.503553
3641 1 0.516136 0.283135 0.502689
840 1 0.503012 0.280399 0.503982
1045 1 0.50782 0.292457 0.502721
906 1 0.527887 0.284575 0.502769
910 1 0.5386 0.285843 0.503787
3647 1 0.532971 0.27412 0.503855
3581 1 0.544407 0.274913 0.505237
3577 1 0.556195 0.274454 0.504044
3580 1 0.550994 0.285113 0.503825
3648 1 0.563343 0.284164 0.502624
975 1 0.557906 0.293494 0.505381
3718 1 0.571095 0.275078 0.502704
3713 1 0.57471 0.285889 0.502218
3513 1 0.58243 0.276652 0.501652
3372 1 0.587089 0.287808 0.503098
3786 1 0.605576 0.28163 0.502177
3717 1 0.59424 0.279751 0.501588
977 1 0.598031 0.290301 0.502289
3655 1 0.609848 0.293487 0.501788
3853 1 0.635902 0.29273 0.502028
3788 1 0.623912 0.29456 0.501123
3582 1 0.629048 0.283172 0.500076
3721 1 0.624061 0.273235 0.501334
3578 1 0.65016 0.275318 0.500818
3447 1 0.637784 0.273442 0.500493
3489 1 0.843525 0.27803 0.500778
3763 1 0.843817 0.290729 0.500171
3625 1 0.898809 0.292899 0.500577
701 1 0.917857 0.278571 0.500313
3632 1 0.928818 0.285532 0.500086
3568 1 0.940189 0.277739 0.500596
3566 1 0.951096 0.284048 0.500178
3570 1 0.960734 0.276346 0.50067
3847 1 0.972619 0.292435 0.500119
843 1 0.993594 0.291722 0.500767
773 1 0.99477 0.278961 0.500268
3640 1 0.982904 0.285206 0.500286
3639 1 0.980821 0.274317 0.500745
834 1 0.501026 0.302412 0.503978
3645 1 0.520979 0.295755 0.502334
978 1 0.51207 0.304801 0.502836
976 1 0.504403 0.313662 0.504485
905 1 0.516703 0.315242 0.504009
1189 1 0.540076 0.30729 0.503985
3785 1 0.532425 0.296516 0.503054
974 1 0.525747 0.306729 0.50432
3783 1 0.544079 0.296125 0.504749
1180 1 0.530129 0.317923 0.504443
3304 1 0.567453 0.29656 0.502758
1047 1 0.557215 0.304187 0.504284
1042 1 0.550013 0.312856 0.504812
1253 1 0.563559 0.315857 0.505063
3371 1 0.570686 0.306833 0.504273
3711 1 0.579075 0.297089 0.503114
1050 1 0.582329 0.310087 0.502346
3787 1 0.590088 0.299171 0.501352
3514 1 0.594057 0.310358 0.503311
3716 1 0.603047 0.302485 0.502308
3789 1 0.605733 0.313688 0.502019
3732 1 0.614222 0.305399 0.501915
3725 1 0.61886 0.315367 0.503325
3729 1 0.626048 0.305136 0.501396
3875 1 0.631081 0.315199 0.501571
3784 1 0.651405 0.306293 0.50123
3719 1 0.647674 0.295639 0.501001
3654 1 0.637991 0.304694 0.50182
3656 1 0.643574 0.3162 0.501647
3653 1 0.659811 0.297215 0.50063
3664 1 0.665575 0.308832 0.500053
3631 1 0.929906 0.299085 0.500142
3703 1 0.943178 0.315679 0.500672
3637 1 0.949998 0.297183 0.500212
3710 1 0.963185 0.313664 0.500254
780 1 0.993861 0.318125 0.500422
915 1 0.982078 0.312404 0.500613
636 1 0.993344 0.303643 0.500829
909 1 0.508523 0.325824 0.503647
1107 1 0.500688 0.336693 0.504379
1111 1 0.512743 0.33777 0.505186
904 1 0.522302 0.328527 0.504852
1179 1 0.541247 0.320798 0.505845
908 1 0.533405 0.330547 0.505137
1036 1 0.524265 0.340143 0.505819
1175 1 0.544386 0.334213 0.506439
1183 1 0.553153 0.325612 0.506488
1251 1 0.558194 0.335812 0.504732
3782 1 0.566609 0.328811 0.505082
980 1 0.574676 0.319711 0.503751
3712 1 0.586459 0.320309 0.503016
3852 1 0.579006 0.329829 0.504355
3923 1 0.570918 0.339433 0.505948
3781 1 0.590636 0.332124 0.503733
3720 1 0.599294 0.323532 0.50322
3727 1 0.603767 0.333539 0.504043
3803 1 0.61129 0.323431 0.502197
3874 1 0.614778 0.33398 0.502739
3865 1 0.623502 0.325367 0.501855
3871 1 0.627388 0.336244 0.501837
3728 1 0.635359 0.326933 0.502072
3723 1 0.656357 0.318931 0.500047
3736 1 0.651366 0.337941 0.50069
3657 1 0.664343 0.340135 0.500501
3650 1 0.661652 0.328901 0.50016
3735 1 0.669686 0.319591 0.500181
3775 1 0.923415 0.330238 0.500296
3779 1 0.944086 0.328631 0.500333
3769 1 0.934878 0.335422 0.501107
3845 1 0.966434 0.338873 0.500387
1051 1 0.955153 0.332861 0.50054
911 1 0.974442 0.320138 0.500194
1108 1 0.517129 0.349785 0.505498
1043 1 0.505473 0.347714 0.506852
1109 1 0.510369 0.35944 0.504865
1113 1 0.521802 0.36208 0.505546
1112 1 0.537037 0.34312 0.5059
1182 1 0.529818 0.352224 0.504989
1185 1 0.543422 0.355167 0.504781
1046 1 0.55094 0.34535 0.50559
1115 1 0.555744 0.357583 0.504567
1044 1 0.562368 0.348693 0.504023
1117 1 0.566824 0.358732 0.505647
3858 1 0.582733 0.341388 0.504405
1188 1 0.574667 0.350498 0.504016
3866 1 0.58688 0.352794 0.504301
3851 1 0.579334 0.361774 0.504957
3726 1 0.61234 0.355086 0.503605
3733 1 0.599738 0.354913 0.50282
3730 1 0.594886 0.343085 0.50396
3799 1 0.608423 0.344536 0.504876
3939 1 0.632059 0.348156 0.500946
3798 1 0.624342 0.356828 0.502272
3864 1 0.619817 0.345465 0.502067
3793 1 0.644367 0.349081 0.500504
3839 1 0.922081 0.35425 0.501282
3987 1 0.923556 0.342358 0.500783
3900 1 0.911298 0.347578 0.5007
3767 1 0.911931 0.361793 0.50041
3910 1 0.943255 0.353633 0.501938
3914 1 0.933478 0.347689 0.502306
3846 1 0.945833 0.341 0.501043
3837 1 0.933224 0.359814 0.501368
3916 1 0.954044 0.357229 0.501081
3917 1 0.955027 0.345201 0.501622
1127 1 0.965842 0.362873 0.501064
3848 1 0.965432 0.351052 0.500299
981 1 0.976548 0.358325 0.500736
3778 1 0.975966 0.345726 0.500143
1059 1 0.996769 0.357575 0.500543
3844 1 0.985412 0.351376 0.50007
985 1 0.986378 0.363361 0.502256
1254 1 0.502558 0.368666 0.504127
1258 1 0.514234 0.371425 0.505194
966 1 0.507829 0.381615 0.504189
1177 1 0.520969 0.384285 0.504678
3997 1 0.527425 0.373049 0.504226
1119 1 0.534409 0.364188 0.504519
3926 1 0.539804 0.377003 0.504657
1040 1 0.548715 0.367308 0.504693
3921 1 0.560396 0.368463 0.505377
1326 1 0.562641 0.381652 0.504307
1118 1 0.552159 0.378985 0.504247
3925 1 0.571712 0.370561 0.503829
3855 1 0.583456 0.372937 0.502912
3854 1 0.57509 0.382775 0.503928
1048 1 0.58552 0.384844 0.503174
1120 1 0.59125 0.363857 0.504142
3930 1 0.607561 0.377297 0.502341
3722 1 0.595365 0.374368 0.502753
3933 1 0.603506 0.365787 0.503175
3861 1 0.59698 0.385868 0.501804
3795 1 0.631752 0.382464 0.502268
3859 1 0.628348 0.369257 0.502731
3857 1 0.615554 0.367402 0.501674
3802 1 0.619537 0.377896 0.50174
3927 1 0.645614 0.381654 0.50113
3950 1 0.65697 0.384864 0.500027
3862 1 0.639081 0.370428 0.500828
3969 1 0.901578 0.36775 0.501144
3986 1 0.922729 0.365954 0.501508
1053 1 0.923931 0.379692 0.500192
3903 1 0.91237 0.374465 0.501048
987 1 0.942522 0.378942 0.501905
3984 1 0.943863 0.366208 0.501538
3776 1 0.934609 0.371769 0.501036
982 1 0.95442 0.370108 0.501574
991 1 0.976883 0.370738 0.500287
1193 1 0.966821 0.374596 0.502622
3919 1 0.957012 0.382175 0.502516
1122 1 0.998652 0.368922 0.500853
1126 1 0.97871 0.383293 0.502539
983 1 0.988769 0.375552 0.502472
1201 1 0.999225 0.380913 0.501379
1173 1 0.500027 0.389502 0.505322
1246 1 0.516303 0.405396 0.502264
1247 1 0.511987 0.393943 0.503929
1104 1 0.502307 0.402152 0.503824
1321 1 0.531209 0.386954 0.503159
1323 1 0.522861 0.396289 0.504372
1176 1 0.536102 0.397821 0.502772
1249 1 0.529332 0.407827 0.50154
1114 1 0.543042 0.388092 0.502823
3924 1 0.547943 0.402065 0.502837
3995 1 0.555799 0.391976 0.503872
1325 1 0.560604 0.404456 0.502663
3928 1 0.567286 0.392846 0.502669
1259 1 0.572524 0.403967 0.502814
1190 1 0.579581 0.394871 0.50374
1257 1 0.583199 0.406583 0.502523
3856 1 0.591124 0.394823 0.502775
3797 1 0.603872 0.396983 0.502167
4073 1 0.59506 0.406872 0.50237
1186 1 0.608045 0.408624 0.501238
4078 1 0.6109 0.387775 0.50166
4001 1 0.616118 0.400562 0.50097
3792 1 0.626585 0.402267 0.500863
3724 1 0.623731 0.391094 0.501194
3790 1 0.636346 0.393106 0.50035
3867 1 0.653876 0.406295 0.500232
3860 1 0.647462 0.394951 0.500227
3945 1 0.638341 0.403924 0.501067
4055 1 0.903653 0.403897 0.500208
3980 1 0.890553 0.386481 0.500787
4122 1 0.912371 0.38641 0.500639
4059 1 0.91418 0.399832 0.501025
3990 1 0.923512 0.39306 0.500097
4047 1 0.924878 0.406742 0.502079
4051 1 0.934237 0.387031 0.500432
3989 1 0.945206 0.391373 0.501957
4192 1 0.93544 0.398482 0.501001
3915 1 0.946638 0.403204 0.501376
1196 1 0.957697 0.407496 0.502234
4052 1 0.967996 0.399857 0.503038
1123 1 0.968028 0.388292 0.501476
1202 1 0.956489 0.395374 0.502616
4121 1 0.998673 0.392369 0.502603
1268 1 0.999099 0.404827 0.502767
4053 1 0.98797 0.387677 0.501719
1200 1 0.978249 0.407026 0.503455
3988 1 0.978212 0.394734 0.503066
1128 1 0.989115 0.399658 0.503196
1320 1 0.511533 0.425071 0.501032
1250 1 0.505539 0.412935 0.502631
4065 1 0.519783 0.417384 0.502142
4131 1 0.522628 0.429078 0.502226
1260 1 0.541067 0.412181 0.502516
1256 1 0.53364 0.419975 0.502759
1324 1 0.545442 0.424494 0.502625
1396 1 0.552814 0.413821 0.502738
1184 1 0.564696 0.414969 0.502495
1116 1 0.556779 0.424264 0.501128
3992 1 0.569682 0.427651 0.502426
1187 1 0.575493 0.416288 0.501322
3932 1 0.581985 0.428406 0.502341
4004 1 0.588613 0.417294 0.502471
4006 1 0.604156 0.430735 0.501748
3791 1 0.592567 0.429452 0.502183
4008 1 0.60033 0.4182 0.501746
3993 1 0.612009 0.42168 0.501124
4003 1 0.631876 0.414192 0.500774
3931 1 0.620081 0.412017 0.500902
3794 1 0.625384 0.425217 0.501866
3938 1 0.635819 0.425373 0.500473
4015 1 0.647839 0.426346 0.500348
3870 1 0.645638 0.414732 0.500513
3981 1 0.884586 0.431606 0.500437
3907 1 0.874239 0.425175 0.500648
4193 1 0.894359 0.425099 0.501854
4125 1 0.904517 0.418719 0.500424
4060 1 0.90446 0.430811 0.501224
3979 1 0.895379 0.41201 0.500637
4129 1 0.926283 0.419132 0.502096
4057 1 0.914245 0.423394 0.502021
1199 1 0.92615 0.430642 0.502044
1121 1 0.913753 0.41068 0.501024
4261 1 0.935612 0.41056 0.501845
1191 1 0.937497 0.422901 0.500954
4126 1 0.948617 0.428428 0.502667
1125 1 0.947321 0.415175 0.502797
1265 1 0.968855 0.425415 0.504441
1195 1 0.95839 0.420247 0.503358
4058 1 0.967009 0.411937 0.505636
1341 1 0.99861 0.418284 0.503126
4127 1 0.979893 0.431773 0.503617
1266 1 0.988694 0.411179 0.502283
1275 1 0.989969 0.42489 0.504216
1401 1 0.978099 0.417763 0.504664
1328 1 0.519502 0.451003 0.500658
1318 1 0.503352 0.433964 0.501502
1388 1 0.513826 0.437829 0.500597
1389 1 0.508085 0.448768 0.502216
1465 1 0.533058 0.45374 0.500734
1255 1 0.535718 0.431928 0.500215
4067 1 0.526792 0.440933 0.501018
4069 1 0.564911 0.44748 0.501429
1322 1 0.548109 0.435203 0.500844
1329 1 0.561236 0.435732 0.501758
1397 1 0.553327 0.445816 0.500109
4061 1 0.585476 0.43929 0.50211
3994 1 0.574019 0.438369 0.501178
4000 1 0.589165 0.451559 0.503035
3999 1 0.577281 0.449777 0.502979
4002 1 0.601603 0.451876 0.501241
3991 1 0.597703 0.440617 0.502962
3934 1 0.608017 0.44259 0.502348
4014 1 0.623049 0.443259 0.501861
4016 1 0.635707 0.446519 0.501508
3940 1 0.630955 0.436222 0.500007
4077 1 0.615764 0.452626 0.501944
4012 1 0.617035 0.433779 0.501608
4019 1 0.642028 0.436003 0.500144
4156 1 0.696637 0.453991 0.500341
4088 1 0.716249 0.448562 0.500187
4188 1 0.878168 0.451316 0.500235
4399 1 0.896014 0.437274 0.501631
4190 1 0.886612 0.443984 0.50019
4116 1 0.897941 0.450201 0.500736
4119 1 0.906569 0.44384 0.501412
4124 1 0.927012 0.441662 0.501323
4056 1 0.918198 0.449385 0.501156
4048 1 0.915321 0.437756 0.501042
4264 1 0.950543 0.453466 0.503458
1262 1 0.939911 0.448734 0.501848
4337 1 0.937536 0.436165 0.501476
4197 1 0.949635 0.441328 0.503023
4407 1 0.960698 0.44535 0.504866
1473 1 0.970952 0.450055 0.504073
1261 1 0.969781 0.437648 0.504016
1192 1 0.959395 0.432517 0.504491
4130 1 0.980276 0.443691 0.504008
1197 1 0.99014 0.43753 0.503925
1333 1 0.990723 0.449162 0.50345
4137 1 0.51628 0.473419 0.500374
1398 1 0.505055 0.470481 0.50125
1461 1 0.51212 0.461417 0.500983
1469 1 0.524679 0.462447 0.500027
1327 1 0.528347 0.473879 0.500259
1463 1 0.536841 0.46505 0.500893
1330 1 0.544568 0.454835 0.500435
4013 1 0.561308 0.468126 0.502108
4071 1 0.556155 0.457003 0.500346
4275 1 0.548967 0.466174 0.500793
3922 1 0.573983 0.469773 0.502059
4143 1 0.582487 0.46118 0.502058
3944 1 0.58547 0.473875 0.501581
4213 1 0.568784 0.45906 0.50252
1395 1 0.592492 0.463004 0.502544
4010 1 0.59692 0.473051 0.501472
4068 1 0.605414 0.462301 0.501136
4011 1 0.610186 0.473389 0.500801
4157 1 0.726545 0.469297 0.50016
4089 1 0.706644 0.456997 0.500028
4158 1 0.709064 0.469039 0.500568
4222 1 0.717281 0.461206 0.500503
4324 1 0.857858 0.475946 0.500464
4325 1 0.87715 0.476125 0.500689
4330 1 0.879051 0.464105 0.500612
4334 1 0.90809 0.455281 0.50088
4336 1 0.898788 0.475655 0.501749
4191 1 0.93004 0.454962 0.502109
4123 1 0.910617 0.46912 0.50224
4050 1 0.920094 0.461818 0.501008
4404 1 0.919192 0.475786 0.5031
4262 1 0.929197 0.467882 0.502006
4338 1 0.940274 0.460538 0.503709
4200 1 0.951563 0.465399 0.503862
1471 1 0.94201 0.472343 0.503393
4269 1 0.971776 0.475146 0.503425
4128 1 0.961971 0.45725 0.504377
4270 1 0.96182 0.469416 0.504514
1402 1 0.97249 0.463211 0.503838
1477 1 0.981265 0.456533 0.503958
1336 1 0.992375 0.459821 0.504391
1332 1 0.993406 0.472206 0.505658
1478 1 0.982672 0.468037 0.50397
4201 1 0.503646 0.492494 0.501388
4135 1 0.515394 0.493095 0.501483
4133 1 0.527344 0.497357 0.501106
4063 1 0.539483 0.477409 0.501106
4139 1 0.564533 0.479975 0.50144
4062 1 0.552851 0.478392 0.501848
4066 1 0.5591 0.489724 0.500698
4277 1 0.551357 0.498772 0.500582
4203 1 0.545598 0.488071 0.500191
4141 1 0.589653 0.483464 0.500033
4209 1 0.5773 0.481665 0.500167
4219 1 0.572006 0.4917 0.50216
4147 1 0.602978 0.483297 0.500717
3943 1 0.626033 0.486207 0.500691
4007 1 0.631333 0.49781 0.501826
4294 1 0.65138 0.491845 0.500722
4291 1 0.639163 0.489494 0.500684
4301 1 0.716117 0.479972 0.500461
4369 1 0.71549 0.497675 0.50002
4297 1 0.739445 0.497173 0.500609
4393 1 0.82385 0.49443 0.500258
4318 1 0.835157 0.488705 0.500539
4256 1 0.846262 0.482456 0.500344
4320 1 0.857414 0.487875 0.500761
4390 1 0.847102 0.494513 0.500286
4473 1 0.867334 0.495715 0.500814
4405 1 0.867856 0.48354 0.500023
4332 1 0.877728 0.488148 0.500387
4400 1 0.907808 0.482056 0.502754
4333 1 0.898218 0.487152 0.501162
4117 1 0.888094 0.482767 0.501292
4474 1 0.888542 0.494347 0.500734
4331 1 0.899297 0.49954 0.502244
4335 1 0.92133 0.498485 0.504298
4186 1 0.920784 0.487492 0.502689
4195 1 0.909104 0.493808 0.504011
4409 1 0.931463 0.480424 0.50527
1331 1 0.953264 0.478159 0.504828
4199 1 0.93248 0.492786 0.504724
4263 1 0.942452 0.486187 0.505737
4265 1 0.951984 0.491596 0.503641
4196 1 0.942533 0.498457 0.506106
1615 1 0.973648 0.49979 0.504795
1474 1 0.974256 0.487471 0.504487
4267 1 0.963103 0.482892 0.504336
4268 1 0.962842 0.494038 0.503885
1621 1 0.995288 0.497839 0.503803
1620 1 0.985032 0.493342 0.504261
1264 1 0.982708 0.479784 0.504694
1549 1 0.993932 0.484337 0.503839
4418 1 0.530943 0.507566 0.499037
4210 1 0.543125 0.507978 0.499655
4280 1 0.561176 0.521583 0.499424
4138 1 0.555148 0.510952 0.499339
4346 1 0.548148 0.520554 0.499074
4207 1 0.566162 0.511738 0.499123
4142 1 0.572595 0.522295 0.498464
4070 1 0.576459 0.501993 0.49947
4145 1 0.58799 0.503335 0.49978
4218 1 0.643245 0.500311 0.499307
4296 1 0.684486 0.50927 0.4993
4437 1 0.70857 0.515687 0.499521
4160 1 0.719271 0.51002 0.49979
4305 1 0.739131 0.509449 0.499624
4376 1 0.739495 0.52217 0.498977
4175 1 0.769855 0.502764 0.499503
4386 1 0.760134 0.509885 0.499971
4307 1 0.750393 0.503783 0.49946
4455 1 0.76018 0.521634 0.499259
4178 1 0.780043 0.508927 0.499027
4250 1 0.792362 0.503384 0.498388
4317 1 0.790271 0.515382 0.49767
4239 1 0.780971 0.522353 0.499816
4247 1 0.814248 0.502668 0.498938
4460 1 0.803618 0.508248 0.498831
4463 1 0.814137 0.515394 0.498829
4327 1 0.802468 0.519173 0.498748
4323 1 0.836303 0.500582 0.499752
4322 1 0.823675 0.506754 0.499915
4328 1 0.86929 0.508403 0.499462
4204 1 0.540741 0.530944 0.498995
1610 1 0.532175 0.53981 0.498029
4206 1 0.55397 0.530984 0.499369
4342 1 0.558547 0.543533 0.498806
4348 1 0.565532 0.532772 0.498884
1749 1 0.546235 0.54178 0.499124
4345 1 0.570168 0.544435 0.496981
4415 1 0.576548 0.535053 0.497731
3998 1 0.585299 0.52314 0.499094
4347 1 0.581527 0.543944 0.49929
4090 1 0.728372 0.528984 0.499862
4308 1 0.749849 0.528448 0.499855
4309 1 0.771762 0.528833 0.499653
4176 1 0.792405 0.526712 0.49914
4242 1 0.802751 0.531968 0.498748
4402 1 0.845788 0.532974 0.499901
4482 1 0.518402 0.558151 0.498835
1882 1 0.513235 0.547519 0.499727
4487 1 0.530609 0.560163 0.499494
4490 1 0.542349 0.562379 0.498232
4627 1 0.53741 0.549784 0.49833
4344 1 0.525608 0.548271 0.499039
4629 1 0.566051 0.567221 0.497808
4485 1 0.550608 0.552568 0.496853
4558 1 0.563538 0.554443 0.496972
4484 1 0.555481 0.562263 0.497484
4423 1 0.585793 0.559407 0.498189
4351 1 0.574242 0.556755 0.499258
4208 1 0.592596 0.547883 0.499092
4350 1 0.604379 0.549021 0.499399
4421 1 0.597541 0.559225 0.49953
4392 1 0.805345 0.54678 0.499494
4483 1 0.51621 0.580093 0.498707
1881 1 0.522424 0.569873 0.498935
1748 1 0.521285 0.590865 0.499544
1810 1 0.504079 0.579803 0.499914
1813 1 0.509204 0.590095 0.498657
1880 1 0.527216 0.582192 0.49854
1820 1 0.540432 0.583025 0.497606
1814 1 0.533525 0.572337 0.498543
4622 1 0.546598 0.572256 0.497684
4556 1 0.565181 0.587636 0.49722
4413 1 0.553482 0.585715 0.498287
4703 1 0.55983 0.577199 0.496226
4559 1 0.576607 0.568581 0.49812
4699 1 0.582962 0.580663 0.497893
4561 1 0.576376 0.589916 0.497913
4701 1 0.571678 0.578735 0.498302
4353 1 0.595886 0.582002 0.497604
4080 1 0.61379 0.572281 0.499606
4144 1 0.618581 0.583328 0.498876
4285 1 0.630598 0.58443 0.499189
4359 1 0.6436 0.586062 0.49894
1744 1 0.512994 0.601782 0.49961
2223 1 0.500393 0.598781 0.499581
1959 1 0.51773 0.613255 0.499493
1736 1 0.537671 0.604281 0.498148
1815 1 0.525302 0.603279 0.497902
1817 1 0.534575 0.593863 0.49873
1818 1 0.546132 0.595117 0.497613
4553 1 0.549842 0.608096 0.498709
4557 1 0.561616 0.608937 0.497649
4412 1 0.557746 0.59742 0.496994
4486 1 0.568585 0.598641 0.498048
4416 1 0.58824 0.590956 0.49866
4555 1 0.581071 0.60165 0.498509
4693 1 0.586238 0.612718 0.498831
1890 1 0.574766 0.610871 0.498537
4775 1 0.593055 0.603263 0.498596
4563 1 0.605206 0.604661 0.499592
4488 1 0.600147 0.592417 0.498895
4700 1 0.611294 0.59284 0.498479
4427 1 0.623022 0.594491 0.499988
4424 1 0.634829 0.595333 0.499705
4428 1 0.629512 0.60563 0.499561
4564 1 0.654047 0.6094 0.498871
4152 1 0.648518 0.598059 0.499415
4497 1 0.641129 0.607272 0.499954
4431 1 0.66153 0.600756 0.499746
1941 1 0.504565 0.634447 0.499523
1816 1 0.522613 0.626141 0.499098
1809 1 0.510309 0.62372 0.499041
1949 1 0.515126 0.635823 0.498989
1885 1 0.528429 0.615876 0.4987
1750 1 0.542967 0.618518 0.498076
2027 1 0.534757 0.62716 0.498789
1886 1 0.559664 0.630631 0.497901
1887 1 0.554779 0.61864 0.497783
4625 1 0.548824 0.629435 0.499668
4623 1 0.566893 0.620489 0.498811
4626 1 0.578223 0.623586 0.497425
4551 1 0.571951 0.633578 0.498779
4630 1 0.589127 0.625038 0.498497
4554 1 0.583591 0.635438 0.498266
4425 1 0.610054 0.615734 0.499687
4694 1 0.602126 0.626592 0.49964
4692 1 0.595034 0.636312 0.4989
4426 1 0.614762 0.628815 0.498761
4708 1 0.62302 0.616954 0.499969
4356 1 0.634796 0.619177 0.498492
4633 1 0.646491 0.619414 0.499283
4430 1 0.641404 0.630008 0.499674
4494 1 0.653029 0.631058 0.498888
4571 1 0.672217 0.621973 0.499598
4499 1 0.676688 0.632814 0.499138
4569 1 0.659688 0.619874 0.499449
4504 1 0.684952 0.621867 0.499482
1879 1 0.50996 0.646292 0.499307
2156 1 0.502486 0.656744 0.499881
1883 1 0.521109 0.64723 0.498863
1878 1 0.514774 0.657288 0.498198
1952 1 0.529889 0.637298 0.499958
1955 1 0.540461 0.638738 0.49833
1951 1 0.533485 0.648779 0.497809
2020 1 0.545481 0.649497 0.499375
1888 1 0.553464 0.640808 0.499951
1960 1 0.564472 0.643606 0.499068
1884 1 0.558164 0.654538 0.498383
4696 1 0.576519 0.645482 0.499096
4624 1 0.581772 0.656597 0.498533
2025 1 0.570026 0.655189 0.498607
4762 1 0.58949 0.647084 0.499066
2096 1 0.594561 0.657949 0.49953
4420 1 0.601375 0.646802 0.499323
4695 1 0.606853 0.658332 0.497394
4705 1 0.61458 0.647715 0.498729
4698 1 0.623213 0.640933 0.498801
4565 1 0.628758 0.651564 0.497015
4492 1 0.634377 0.640161 0.496755
4638 1 0.650539 0.653012 0.497569
4429 1 0.640464 0.651443 0.496701
4493 1 0.659079 0.642448 0.498198
4500 1 0.662487 0.654554 0.498109
4709 1 0.670419 0.645056 0.498797
4566 1 0.675058 0.656015 0.498591
4788 1 0.693092 0.644668 0.499141
2160 1 0.507132 0.667278 0.498286
1953 1 0.519196 0.669108 0.498801
2088 1 0.512367 0.679421 0.498424
2228 1 0.501189 0.678628 0.499249
1957 1 0.52725 0.659665 0.498909
1946 1 0.538021 0.661134 0.498827
2091 1 0.543072 0.673512 0.497659
2016 1 0.524011 0.679454 0.499836
1947 1 0.532156 0.670874 0.499391
1889 1 0.554796 0.67509 0.498154
1958 1 0.563265 0.665598 0.498264
2023 1 0.550727 0.662505 0.49956
2090 1 0.56704 0.677552 0.497913
4765 1 0.587564 0.667452 0.498016
2022 1 0.575809 0.66748 0.499019
4761 1 0.580281 0.678444 0.498133
4767 1 0.605092 0.681153 0.498989
4706 1 0.600147 0.669422 0.497784
4697 1 0.612375 0.669819 0.497023
4841 1 0.592924 0.676658 0.49735
4631 1 0.619288 0.660802 0.496773
4702 1 0.631586 0.662152 0.496712
4712 1 0.623557 0.672068 0.496458
4850 1 0.635487 0.671867 0.496265
4781 1 0.658457 0.664961 0.497171
4635 1 0.647897 0.674849 0.496293
4562 1 0.645356 0.664027 0.496886
4632 1 0.6606 0.67722 0.498399
4508 1 0.668066 0.665294 0.498152
4647 1 0.672917 0.675647 0.498462
4505 1 0.680611 0.666514 0.49963
4570 1 0.684344 0.677473 0.499112
4568 1 0.692028 0.667449 0.499733
4582 1 0.696746 0.677526 0.499861
1954 1 0.535818 0.682026 0.498869
1948 1 0.541041 0.69304 0.499074
2087 1 0.528542 0.691399 0.499076
2229 1 0.523337 0.702426 0.499808
2019 1 0.547675 0.683337 0.498377
2028 1 0.554005 0.696377 0.498028
4691 1 0.559144 0.685982 0.498087
2017 1 0.564954 0.698346 0.497201
2029 1 0.572063 0.688245 0.497907
4764 1 0.578216 0.697519 0.497996
4831 1 0.585406 0.687146 0.496806
4766 1 0.58958 0.698697 0.497977
2097 1 0.603602 0.700928 0.497699
4777 1 0.611145 0.691368 0.497864
2030 1 0.597696 0.689545 0.497004
4776 1 0.61567 0.703436 0.49816
4774 1 0.617134 0.681867 0.498192
4704 1 0.628929 0.682779 0.496291
4636 1 0.634417 0.695806 0.496908
4842 1 0.622878 0.693075 0.496919
4639 1 0.65366 0.68547 0.497301
4643 1 0.639989 0.682868 0.496583
4849 1 0.645355 0.695539 0.497457
4780 1 0.658607 0.696309 0.496879
4859 1 0.670854 0.697612 0.49768
4719 1 0.677668 0.687178 0.498669
4650 1 0.66636 0.686379 0.496034
4514 1 0.690335 0.688475 0.499503
4641 1 0.68321 0.697344 0.498448
4722 1 0.69623 0.6975 0.49994
4726 1 0.702737 0.689527 0.499128
4656 1 0.715686 0.688328 0.499939
2238 1 0.517587 0.712639 0.499404
2021 1 0.528032 0.714441 0.4998
2164 1 0.547906 0.705765 0.498637
2307 1 0.552963 0.717063 0.499019
1956 1 0.56407 0.718454 0.498569
2024 1 0.546113 0.726472 0.499314
4832 1 0.570746 0.70783 0.498896
4837 1 0.576898 0.719166 0.499249
4833 1 0.58203 0.709098 0.497021
4843 1 0.58794 0.721886 0.496773
4772 1 0.599372 0.722071 0.498231
4763 1 0.606573 0.712804 0.497997
4770 1 0.594294 0.709986 0.497034
4785 1 0.611488 0.72454 0.49926
4787 1 0.627237 0.705346 0.497595
4637 1 0.630937 0.717109 0.497958
4713 1 0.624503 0.725392 0.499465
4778 1 0.618506 0.715177 0.497864
4707 1 0.639858 0.705984 0.497914
4782 1 0.652417 0.706148 0.497287
4644 1 0.642951 0.717154 0.497838
4642 1 0.637353 0.727003 0.4991
4715 1 0.654733 0.717877 0.498175
4851 1 0.674318 0.709443 0.498921
4646 1 0.66416 0.70811 0.498556
4498 1 0.667612 0.719891 0.49879
4796 1 0.680917 0.71883 0.499148
4797 1 0.692722 0.719671 0.499065
4583 1 0.686058 0.707546 0.499952
4584 1 0.711075 0.711082 0.499755
2098 1 0.542992 0.74916 0.499126
2161 1 0.538901 0.737248 0.499384
4977 1 0.557111 0.729004 0.499839
4975 1 0.562063 0.740204 0.498681
2167 1 0.550374 0.740345 0.499391
4835 1 0.56887 0.729352 0.498518
4771 1 0.585953 0.742024 0.498747
4844 1 0.574283 0.73916 0.498132
4904 1 0.580845 0.730293 0.499037
4978 1 0.569614 0.749565 0.499438
4918 1 0.611431 0.744852 0.497907
4710 1 0.598516 0.745276 0.499365
4768 1 0.593265 0.732657 0.49773
4790 1 0.630587 0.735825 0.498459
4846 1 0.618131 0.735753 0.49936
4921 1 0.634553 0.746777 0.499145
4923 1 0.649637 0.72767 0.498417
4648 1 0.643297 0.737995 0.497979
4718 1 0.655133 0.738126 0.499795
4717 1 0.646128 0.748823 0.498963
4640 1 0.661499 0.728811 0.497493
4714 1 0.674538 0.728664 0.498447
4926 1 0.669402 0.739078 0.4977
4789 1 0.661134 0.748561 0.499022
4645 1 0.679658 0.740316 0.499719
4798 1 0.685828 0.730527 0.499934
4866 1 0.697661 0.73138 0.499503
4976 1 0.560231 0.761185 0.49983
4836 1 0.548656 0.760533 0.499549
4906 1 0.554643 0.772279 0.499177
4847 1 0.579818 0.753239 0.497109
4845 1 0.572996 0.761798 0.499369
4916 1 0.596595 0.764819 0.498693
4848 1 0.61594 0.755994 0.499785
4927 1 0.620946 0.768056 0.499676
4856 1 0.634904 0.769742 0.499742
4929 1 0.657783 0.771188 0.499944
4711 1 0.672642 0.750934 0.499033
4791 1 0.664839 0.761136 0.499795
4572 1 0.677488 0.763234 0.499707
4655 1 0.69629 0.75292 0.499764
4996 1 0.690283 0.763427 0.499665
4817 1 0.843671 0.765342 0.499738
2170 1 0.546651 0.782206 0.4996
4908 1 0.578213 0.77422 0.499567
4840 1 0.59935 0.795146 0.499906
4999 1 0.656044 0.79191 0.499894
5144 1 0.680383 0.795086 0.499301
4931 1 0.676323 0.783686 0.499547
4997 1 0.696244 0.774539 0.49962
4857 1 0.684042 0.775023 0.499997
4874 1 0.726013 0.78547 0.499458
4933 1 0.713837 0.785095 0.499446
5007 1 0.748658 0.786847 0.498287
4812 1 0.737533 0.786215 0.499234
5228 1 0.772789 0.790792 0.499748
5161 1 0.783867 0.791704 0.497452
5168 1 0.808191 0.794791 0.499161
5237 1 0.828948 0.786722 0.499937
5098 1 0.820662 0.795244 0.498708
2241 1 0.842462 0.787696 0.499434
5184 1 0.562038 0.814365 0.499797
5113 1 0.570722 0.805345 0.499537
5055 1 0.574493 0.816102 0.499611
5063 1 0.672637 0.80576 0.499768
5062 1 0.666406 0.81575 0.499792
4804 1 0.685209 0.806751 0.498287
5212 1 0.692443 0.796998 0.498378
5281 1 0.6905 0.817533 0.498879
5071 1 0.697766 0.808113 0.49891
4867 1 0.70952 0.807843 0.497836
4944 1 0.717894 0.797257 0.499419
5217 1 0.704697 0.795827 0.498529
4935 1 0.72348 0.808379 0.498963
4864 1 0.735216 0.8091 0.498484
4868 1 0.742255 0.796606 0.49811
5229 1 0.746299 0.810159 0.498428
4934 1 0.730814 0.797174 0.499905
5009 1 0.754567 0.798766 0.497581
5157 1 0.765535 0.800329 0.497746
5158 1 0.769967 0.811365 0.497992
5077 1 0.758461 0.810574 0.498357
5088 1 0.77688 0.801858 0.498215
5083 1 0.782577 0.812994 0.498046
5223 1 0.794011 0.813644 0.498324
5236 1 0.813862 0.805267 0.499718
5295 1 0.807385 0.815312 0.497846
5232 1 0.801868 0.80414 0.499394
5107 1 0.826759 0.806407 0.498642
5105 1 0.838736 0.807051 0.498066
5231 1 0.819312 0.815741 0.499559
5177 1 0.831968 0.817673 0.49902
4959 1 0.847427 0.797866 0.499149
2243 1 0.864208 0.810504 0.499652
2449 1 0.536943 0.833351 0.498823
4980 1 0.561471 0.835809 0.499823
4909 1 0.585775 0.81866 0.49978
5048 1 0.587004 0.839799 0.498873
5058 1 0.579852 0.828022 0.499504
4981 1 0.598549 0.818696 0.49954
5061 1 0.592489 0.82984 0.499676
4858 1 0.634719 0.823362 0.499749
4992 1 0.617818 0.83353 0.49852
4854 1 0.648112 0.825734 0.49869
5209 1 0.652521 0.837588 0.499547
5133 1 0.664775 0.839436 0.498238
5141 1 0.670291 0.828049 0.499496
5142 1 0.677271 0.838784 0.499815
4990 1 0.659523 0.825216 0.499966
4861 1 0.702967 0.819055 0.498868
5070 1 0.682562 0.826829 0.498297
5072 1 0.689321 0.838637 0.49816
5215 1 0.694876 0.828121 0.499363
5136 1 0.701269 0.839668 0.499519
5073 1 0.714603 0.818821 0.498504
5216 1 0.721979 0.830863 0.498964
5213 1 0.707639 0.83063 0.49879
5279 1 0.715254 0.840684 0.498625
4998 1 0.726011 0.819634 0.497751
5003 1 0.733512 0.832025 0.49723
4865 1 0.739864 0.820094 0.499057
5004 1 0.752966 0.820438 0.498872
5086 1 0.764176 0.822105 0.498475
5079 1 0.75662 0.831683 0.499491
5084 1 0.767777 0.834592 0.498018
5367 1 0.779317 0.832984 0.49766
5227 1 0.774835 0.82195 0.497902
5369 1 0.787199 0.824865 0.497753
5291 1 0.79156 0.835801 0.498103
5371 1 0.79911 0.825274 0.499264
5304 1 0.81659 0.838858 0.498473
5305 1 0.803544 0.836991 0.497597
5303 1 0.811588 0.826372 0.497443
5378 1 0.836972 0.828899 0.498611
4818 1 0.822915 0.82782 0.498209
5102 1 0.828159 0.839147 0.498582
5100 1 0.845438 0.819088 0.498211
2252 1 0.861488 0.833254 0.49908
5101 1 0.871234 0.825565 0.499911
2362 1 0.514671 0.863257 0.499468
2493 1 0.521394 0.855388 0.499862
2428 1 0.534481 0.856418 0.498685
4974 1 0.541405 0.845535 0.498833
4973 1 0.566998 0.845483 0.499552
2443 1 0.546986 0.857052 0.499536
5471 1 0.553468 0.846171 0.499522
5188 1 0.582901 0.862736 0.499851
5119 1 0.611188 0.844822 0.499574
4983 1 0.59103 0.852986 0.499587
5126 1 0.622506 0.843917 0.499975
5131 1 0.663235 0.858381 0.499683
5140 1 0.676399 0.859886 0.499299
5278 1 0.683022 0.848757 0.498681
5285 1 0.68937 0.861116 0.498706
5218 1 0.695058 0.850142 0.499032
5002 1 0.727064 0.842597 0.498621
5075 1 0.708089 0.849354 0.499525
5076 1 0.712125 0.861959 0.498345
5001 1 0.720033 0.851747 0.498178
4937 1 0.739464 0.841634 0.499704
5147 1 0.731757 0.85321 0.498476
5008 1 0.742323 0.853179 0.498087
4936 1 0.750648 0.842661 0.499462
5293 1 0.767971 0.855215 0.495676
5085 1 0.761478 0.846229 0.497423
5082 1 0.755095 0.855328 0.498924
5292 1 0.785537 0.845168 0.496864
5156 1 0.774208 0.844125 0.497119
5440 1 0.791386 0.855956 0.496583
5224 1 0.780064 0.856535 0.495919
5374 1 0.79882 0.84756 0.497853
5302 1 0.8107 0.848992 0.497769
5308 1 0.815034 0.860331 0.497611
5445 1 0.802494 0.859 0.497311
5170 1 0.840365 0.841281 0.499954
5178 1 0.835243 0.850683 0.498375
5172 1 0.823709 0.850498 0.497873
5307 1 0.827205 0.863252 0.497468
5377 1 0.838984 0.863385 0.498433
2311 1 0.846763 0.85285 0.499579
2247 1 0.858916 0.853974 0.499518
5106 1 0.852895 0.863221 0.499205
2186 1 0.878519 0.845767 0.499073
2319 1 0.866249 0.844567 0.499956
2567 1 0.500381 0.883595 0.498123
2635 1 0.518664 0.875466 0.49978
2427 1 0.506833 0.872068 0.498859
2358 1 0.539575 0.868113 0.497811
2568 1 0.54505 0.878389 0.498613
2494 1 0.53312 0.876092 0.498887
2365 1 0.526009 0.885583 0.498664
2496 1 0.526899 0.865804 0.498869
2375 1 0.556149 0.881153 0.498879
5260 1 0.563971 0.869549 0.499675
2505 1 0.552258 0.868477 0.499847
5127 1 0.655091 0.8678 0.499843
5199 1 0.647657 0.879024 0.4994
5351 1 0.672465 0.880491 0.499301
5211 1 0.669543 0.869366 0.499887
5280 1 0.681283 0.872256 0.49922
5210 1 0.687487 0.882426 0.498939
5282 1 0.693987 0.870983 0.499194
5214 1 0.700213 0.882676 0.497015
5074 1 0.724451 0.864134 0.497797
5006 1 0.705546 0.871807 0.498543
5421 1 0.710916 0.883076 0.498181
5148 1 0.717702 0.874539 0.496954
5354 1 0.7221 0.885109 0.495514
5152 1 0.737557 0.864346 0.497685
5425 1 0.73041 0.87497 0.497023
5005 1 0.749101 0.865656 0.49789
5153 1 0.741416 0.877694 0.496208
5149 1 0.734972 0.886186 0.496139
5151 1 0.753891 0.877357 0.497153
5226 1 0.765038 0.877339 0.495924
5301 1 0.771295 0.866579 0.496042
5290 1 0.760746 0.866117 0.497617
5150 1 0.784489 0.867311 0.496059
5300 1 0.77712 0.876426 0.495895
5366 1 0.790998 0.880216 0.495831
5438 1 0.796117 0.86987 0.49596
5589 1 0.803103 0.883083 0.496369
5296 1 0.808834 0.87013 0.495827
5096 1 0.814465 0.881431 0.497609
5309 1 0.82024 0.872533 0.497657
5313 1 0.831383 0.874563 0.498478
5239 1 0.825069 0.885156 0.499079
5519 1 0.837405 0.884293 0.499152
5382 1 0.843424 0.873546 0.498846
5376 1 0.854903 0.8755 0.498652
5449 1 0.849594 0.886042 0.499279
5242 1 0.863438 0.866674 0.499727
5380 1 0.867581 0.877642 0.499317
5180 1 0.875351 0.869419 0.498939
2253 1 0.884868 0.882947 0.499719
2645 1 0.518039 0.895072 0.499011
2504 1 0.511713 0.906009 0.498742
2498 1 0.505966 0.895064 0.498431
2511 1 0.524293 0.907381 0.497508
2439 1 0.541623 0.899937 0.496805
2440 1 0.530086 0.897308 0.497808
2503 1 0.537245 0.890117 0.49791
2450 1 0.549234 0.890582 0.498321
2442 1 0.553717 0.902093 0.498512
5329 1 0.565659 0.903753 0.498773
5254 1 0.579142 0.905631 0.49851
5182 1 0.590614 0.906512 0.499985
5256 1 0.572863 0.894583 0.499256
5261 1 0.602272 0.906913 0.498136
5187 1 0.597755 0.896598 0.499518
5266 1 0.615815 0.909008 0.499222
5116 1 0.6277 0.909033 0.498442
5130 1 0.647568 0.89881 0.499925
5276 1 0.659938 0.900582 0.49986
5207 1 0.670686 0.901159 0.498635
5350 1 0.677449 0.890821 0.498543
5348 1 0.682856 0.901395 0.497201
5283 1 0.690989 0.89356 0.497552
5424 1 0.697029 0.903314 0.495432
5221 1 0.703727 0.8935 0.496648
5287 1 0.72134 0.905989 0.496017
5426 1 0.715232 0.894943 0.496297
5423 1 0.707957 0.905635 0.495663
5504 1 0.728137 0.895926 0.495468
5355 1 0.747188 0.887256 0.496473
5225 1 0.741218 0.897412 0.495585
5284 1 0.74551 0.90852 0.496726
5219 1 0.732872 0.908161 0.496108
5353 1 0.752218 0.899093 0.496543
5297 1 0.759104 0.889163 0.497254
5294 1 0.770847 0.888616 0.495812
5080 1 0.76419 0.901352 0.497655
5154 1 0.777249 0.899482 0.497929
5289 1 0.783393 0.888541 0.496368
5518 1 0.794854 0.891948 0.497536
5513 1 0.789467 0.901569 0.497156
5590 1 0.80151 0.903331 0.497363
5520 1 0.81246 0.906601 0.498545
5240 1 0.807213 0.892649 0.497873
5515 1 0.818611 0.893679 0.498133
5446 1 0.832054 0.895601 0.498425
5306 1 0.823694 0.904812 0.498039
5375 1 0.83492 0.906457 0.499156
5238 1 0.86083 0.887449 0.499119
5447 1 0.854879 0.898202 0.497968
5452 1 0.848134 0.907664 0.498473
5389 1 0.862916 0.907049 0.497908
2245 1 0.874189 0.886632 0.498603
2317 1 0.881545 0.895563 0.499856
5379 1 0.870277 0.897095 0.497469
5310 1 0.88443 0.90676 0.497049
5311 1 0.907648 0.904906 0.499783
2312 1 0.895122 0.896305 0.499494
2582 1 0.519507 0.929864 0.497448
2583 1 0.508066 0.926475 0.498154
2501 1 0.504162 0.915847 0.497958
2506 1 0.515627 0.917579 0.499003
2371 1 0.535255 0.909898 0.499527
2584 1 0.527555 0.919657 0.496883
2517 1 0.532651 0.93058 0.496951
2372 1 0.538594 0.921003 0.497742
2520 1 0.557617 0.913369 0.498606
5251 1 0.550403 0.923203 0.498792
2380 1 0.563803 0.924174 0.498571
5112 1 0.546402 0.912407 0.497317
5255 1 0.57169 0.914685 0.498468
5275 1 0.588009 0.927545 0.498554
5120 1 0.576343 0.926559 0.497597
5118 1 0.582994 0.91643 0.499038
5122 1 0.606411 0.919315 0.497655
5331 1 0.59577 0.917002 0.498059
5124 1 0.611567 0.929233 0.496773
5271 1 0.600223 0.928488 0.49786
5197 1 0.6332 0.919246 0.498529
5198 1 0.626865 0.928881 0.497204
5200 1 0.61888 0.919991 0.498314
5344 1 0.638241 0.930744 0.49786
5269 1 0.640205 0.909874 0.4986
5349 1 0.650895 0.9101 0.499177
5557 1 0.65559 0.921398 0.497597
5206 1 0.644085 0.921034 0.497269
5561 1 0.648767 0.931811 0.497053
5488 1 0.675618 0.912033 0.497797
5201 1 0.663033 0.91184 0.496766
5203 1 0.668804 0.921755 0.496029
5419 1 0.680133 0.92354 0.495366
5277 1 0.661219 0.93165 0.495927
5499 1 0.698304 0.914505 0.495895
5417 1 0.686815 0.913147 0.495664
5491 1 0.692108 0.925581 0.495845
5420 1 0.705171 0.924909 0.496448
5430 1 0.725036 0.917307 0.494698
5286 1 0.712509 0.915772 0.496325
5432 1 0.718734 0.926721 0.495181
5503 1 0.730259 0.927906 0.496396
5222 1 0.742875 0.930795 0.496261
5362 1 0.738532 0.918855 0.495849
5365 1 0.749775 0.921728 0.496227
5220 1 0.757709 0.911948 0.496869
5078 1 0.770318 0.911138 0.496859
5437 1 0.76226 0.921962 0.49812
5516 1 0.774872 0.922109 0.497511
5580 1 0.781525 0.911963 0.497854
5370 1 0.79304 0.915304 0.497601
5512 1 0.786581 0.924385 0.497367
5444 1 0.798749 0.925477 0.498487
5442 1 0.804835 0.91515 0.498338
5521 1 0.811034 0.926464 0.498586
5588 1 0.835335 0.929037 0.499124
5372 1 0.823681 0.926906 0.499821
5517 1 0.830528 0.916942 0.499681
5234 1 0.818652 0.916604 0.497313
5450 1 0.841308 0.916917 0.498097
5453 1 0.847002 0.929448 0.498441
5451 1 0.8532 0.918599 0.497934
5448 1 0.859579 0.93015 0.497572
5244 1 0.874622 0.911171 0.497764
2256 1 0.883689 0.920088 0.498265
5318 1 0.872397 0.928972 0.498959
5315 1 0.865131 0.919216 0.497407
5108 1 0.899895 0.924348 0.498236
2382 1 0.895086 0.911949 0.498769
5248 1 0.912173 0.922268 0.498101
2508 1 0.503605 0.937823 0.498802
2441 1 0.513705 0.940227 0.498067
2444 1 0.519442 0.950679 0.498676
2433 1 0.506943 0.949734 0.499806
2514 1 0.5454 0.933266 0.496871
2585 1 0.537601 0.941096 0.497252
2586 1 0.525693 0.940315 0.497878
2580 1 0.530052 0.950838 0.498619
5253 1 0.541427 0.952888 0.498667
2519 1 0.557803 0.93413 0.497039
5252 1 0.561703 0.945484 0.496622
2515 1 0.549852 0.944393 0.496983
5117 1 0.568908 0.935538 0.497689
5337 1 0.580258 0.937402 0.498575
5191 1 0.586074 0.948429 0.497634
5264 1 0.573895 0.946745 0.497264
5485 1 0.592521 0.938433 0.497576
5267 1 0.610895 0.950555 0.496865
5190 1 0.59716 0.948681 0.497823
5270 1 0.604491 0.939226 0.496766
5202 1 0.628841 0.94076 0.496667
5343 1 0.62191 0.951852 0.495746
5411 1 0.617776 0.939504 0.497017
5268 1 0.634428 0.952334 0.495296
5484 1 0.652745 0.942833 0.494873
5346 1 0.640693 0.942832 0.496555
5487 1 0.646632 0.953271 0.495328
5476 1 0.65888 0.953728 0.494656
5204 1 0.672609 0.933799 0.495475
5489 1 0.677016 0.944087 0.495741
5273 1 0.665958 0.942928 0.495733
5205 1 0.685562 0.934893 0.496241
5501 1 0.692961 0.945612 0.495877
5563 1 0.698618 0.935675 0.495547
5500 1 0.705289 0.946989 0.495512
5422 1 0.716045 0.947445 0.495767
5567 1 0.723508 0.938608 0.495935
5506 1 0.712085 0.935457 0.495275
5497 1 0.727906 0.949385 0.497032
5363 1 0.73472 0.939191 0.494725
5360 1 0.745837 0.941086 0.498531
5431 1 0.740491 0.951164 0.497076
5368 1 0.755438 0.932375 0.498007
5288 1 0.768631 0.932344 0.49768
5427 1 0.752048 0.95223 0.497954
5357 1 0.759969 0.944205 0.498383
5359 1 0.776736 0.9542 0.49886
5364 1 0.77311 0.943433 0.498212
5435 1 0.779963 0.933376 0.498261
5594 1 0.79192 0.936027 0.496491
5433 1 0.784747 0.945455 0.498082
5579 1 0.796085 0.946166 0.498844
5585 1 0.808218 0.946784 0.498601
5587 1 0.803051 0.936833 0.498966
2861 1 0.816 0.937479 0.499175
5584 1 0.82688 0.938522 0.498176
2926 1 0.821097 0.948894 0.499323
5530 1 0.832153 0.950725 0.498001
5523 1 0.839825 0.94011 0.498218
5524 1 0.846407 0.952219 0.498622
5525 1 0.851998 0.941371 0.497864
5455 1 0.85853 0.952283 0.497793
5320 1 0.885669 0.932714 0.498101
5176 1 0.86531 0.940455 0.498032
5314 1 0.870763 0.951421 0.498493
5457 1 0.881372 0.952439 0.498324
5243 1 0.877609 0.940606 0.498077
5245 1 0.898581 0.93686 0.498208
5317 1 0.889715 0.94486 0.497071
2316 1 0.905954 0.951129 0.497682
2244 1 0.91383 0.939618 0.497494
2434 1 0.516773 0.972687 0.498868
2446 1 0.511965 0.959921 0.49786
2512 1 0.505863 0.970302 0.498546
2581 1 0.523425 0.962559 0.498859
2513 1 0.533778 0.962939 0.498527
5399 1 0.540753 0.975638 0.498986
2644 1 0.529411 0.973949 0.498568
5181 1 0.552078 0.955152 0.496582
5334 1 0.566432 0.956516 0.495565
2587 1 0.54608 0.965499 0.498299
5262 1 0.551903 0.976149 0.497462
5401 1 0.558556 0.966085 0.497097
5189 1 0.578993 0.958321 0.497407
5265 1 0.571167 0.968008 0.496757
5338 1 0.58404 0.968158 0.496631
5194 1 0.591737 0.959878 0.496114
5335 1 0.602699 0.960781 0.497059
5342 1 0.607707 0.971381 0.496298
5272 1 0.596 0.970007 0.495327
5544 1 0.615482 0.962706 0.495685
5546 1 0.621074 0.972652 0.493431
5414 1 0.627483 0.963911 0.495753
5415 1 0.631959 0.974116 0.495285
5345 1 0.639555 0.962213 0.49351
5547 1 0.65638 0.974429 0.493591
5480 1 0.643981 0.972873 0.493907
5481 1 0.651985 0.962958 0.493016
5416 1 0.67599 0.96726 0.495
5410 1 0.663517 0.966126 0.494378
5486 1 0.670619 0.955847 0.493716
5482 1 0.697344 0.955973 0.495289
5495 1 0.687934 0.966384 0.493609
5490 1 0.699434 0.967924 0.495678
5558 1 0.682334 0.954884 0.494679
5428 1 0.720704 0.959087 0.494951
5493 1 0.708974 0.95848 0.495463
2837 1 0.726293 0.970704 0.494763
5565 1 0.713971 0.97051 0.495367
5429 1 0.744051 0.962494 0.496284
5356 1 0.732128 0.960487 0.496827
5361 1 0.73774 0.971133 0.496408
5509 1 0.764864 0.954592 0.497904
2849 1 0.769821 0.96529 0.497834
5507 1 0.762861 0.975469 0.497885
5436 1 0.756782 0.96433 0.49735
5434 1 0.750518 0.975626 0.496891
5514 1 0.788049 0.95692 0.499989
5441 1 0.780139 0.966751 0.498783
2856 1 0.792401 0.967919 0.499046
2853 1 0.815637 0.969524 0.49777
5586 1 0.801317 0.957734 0.498867
2851 1 0.803968 0.969876 0.497733
5443 1 0.811087 0.958337 0.498688
5529 1 0.831086 0.971194 0.497715
5595 1 0.823966 0.96152 0.498184
5312 1 0.838041 0.960394 0.497818
5522 1 0.855101 0.973788 0.496461
5591 1 0.842279 0.973257 0.496626
5527 1 0.85049 0.963262 0.498075
5454 1 0.863587 0.962764 0.497069
5387 1 0.879982 0.976183 0.497509
2458 1 0.886186 0.964491 0.497384
5385 1 0.875366 0.963537 0.498172
5388 1 0.868709 0.975051 0.497278
2381 1 0.899082 0.967368 0.497096
5390 1 0.894402 0.955205 0.49803
5319 1 0.910065 0.968668 0.49718
5458 1 0.925791 0.972018 0.496757
5110 1 0.920358 0.960645 0.498435
2577 1 0.509941 0.982792 0.497927
2779 1 0.513272 0.993235 0.499034
2711 1 0.520966 0.983949 0.499396
2780 1 0.501945 0.989697 0.499851
2578 1 0.526835 0.996099 0.499296
2653 1 0.539528 0.995873 0.49727
5332 1 0.564797 0.977792 0.498186
5465 1 0.558283 0.98838 0.498944
5398 1 0.552454 0.997563 0.497816
5326 1 0.546207 0.987276 0.499463
5473 1 0.587672 0.999478 0.496821
5341 1 0.577138 0.977857 0.496843
5274 1 0.58842 0.979771 0.49637
5396 1 0.580799 0.989781 0.497534
5336 1 0.574893 0.998983 0.496815
5192 1 0.569867 0.989449 0.497108
5409 1 0.594079 0.98897 0.49582
5412 1 0.607482 0.992267 0.495103
5479 1 0.601575 0.980406 0.495885
5413 1 0.613346 0.982516 0.495302
2817 1 0.63152 0.993648 0.494354
5407 1 0.61931 0.994379 0.49589
5483 1 0.626012 0.98463 0.495612
2897 1 0.655161 0.995202 0.495312
5478 1 0.649587 0.983372 0.493989
5550 1 0.6428 0.99477 0.494626
2822 1 0.638525 0.984179 0.494347
2823 1 0.678302 0.999862 0.493242
5553 1 0.672717 0.988734 0.493889
5555 1 0.66083 0.986547 0.492975
5554 1 0.669698 0.978929 0.493647
5418 1 0.681131 0.978514 0.494117
5549 1 0.69238 0.977843 0.493446
5496 1 0.697689 0.990163 0.493205
2825 1 0.685934 0.989544 0.493173
2836 1 0.709601 0.991432 0.493845
5494 1 0.717636 0.982223 0.494814
2833 1 0.723068 0.993431 0.494934
5492 1 0.706213 0.980406 0.494818
5568 1 0.734846 0.993417 0.49295
5573 1 0.741463 0.982349 0.496287
2839 1 0.745946 0.995132 0.496986
5570 1 0.729323 0.982727 0.495531
5569 1 0.76569 0.987702 0.497373
2846 1 0.75382 0.986487 0.495387
2922 1 0.770902 0.998592 0.496523
5505 1 0.758494 0.997032 0.495622
5574 1 0.78328 0.999915 0.497678
2925 1 0.773832 0.978793 0.497817
5439 1 0.778039 0.989084 0.497929
2989 1 0.790492 0.988764 0.498248
5511 1 0.785117 0.979251 0.498312
2923 1 0.797948 0.979779 0.49738
5581 1 0.808587 0.980967 0.497444
2854 1 0.815158 0.991593 0.497626
2929 1 0.801798 0.990661 0.497381
5528 1 0.832857 0.982136 0.497471
2863 1 0.820486 0.9806 0.497607
2864 1 0.839123 0.993796 0.497199
5593 1 0.827728 0.992181 0.49692
5383 1 0.863006 0.995863 0.498579
5596 1 0.851157 0.994992 0.497565
2662 1 0.84611 0.98376 0.496877
5384 1 0.860538 0.985219 0.497564
2732 1 0.872271 0.986793 0.49826
5526 1 0.882974 0.988345 0.497513
2318 1 0.874861 0.997099 0.497581
2452 1 0.892318 0.977534 0.497159
3 1 0.89538 0.989167 0.497224
5247 1 0.88854 0.998426 0.496754
2176 1 0.904818 0.981255 0.498161
2521 1 0.915234 0.980819 0.496574
2332 1 0.910204 0.991569 0.49785
5249 1 0.92432 0.989769 0.497147
2178 1 0.934924 0.991813 0.499203
2464 1 0.951924 0.990196 0.495775
2246 1 0.939104 0.979196 0.49766
4272 1 0.50662 0.504153 0.5006
4271 1 0.5127 0.514243 0.500821
1605 1 0.51936 0.505363 0.500158
4278 1 0.523883 0.517634 0.501269
4279 1 0.537245 0.518351 0.500598
4283 1 0.580103 0.513134 0.500337
4079 1 0.600429 0.506057 0.501033
4349 1 0.605935 0.51679 0.500521
4072 1 0.612175 0.505736 0.502184
4146 1 0.59316 0.515616 0.500591
4419 1 0.624036 0.509403 0.501098
4214 1 0.616456 0.518265 0.500786
4140 1 0.629425 0.519753 0.500979
4295 1 0.636001 0.509343 0.501443
4227 1 0.649015 0.511707 0.500475
4085 1 0.640681 0.520913 0.500442
4223 1 0.652369 0.522079 0.500788
4220 1 0.657029 0.50315 0.500112
4292 1 0.674054 0.516901 0.501347
4303 1 0.662042 0.514708 0.500803
4436 1 0.669549 0.505831 0.500708
4367 1 0.685964 0.519712 0.502089
4374 1 0.697135 0.510955 0.5005
4366 1 0.698576 0.522501 0.501939
4365 1 0.708292 0.505266 0.501073
4234 1 0.728424 0.503245 0.500627
4161 1 0.729202 0.515834 0.501354
4166 1 0.749768 0.515437 0.500168
4311 1 0.769521 0.516937 0.500503
4534 1 0.835342 0.512766 0.500069
4467 1 0.824257 0.52133 0.500239
4472 1 0.846817 0.509563 0.500024
4401 1 0.858888 0.513881 0.501932
4397 1 0.855973 0.501104 0.501175
4464 1 0.847689 0.521099 0.500475
4468 1 0.868949 0.521043 0.500655
4394 1 0.878115 0.512348 0.50203
4396 1 0.877882 0.50006 0.500712
4408 1 0.888494 0.505454 0.502199
4398 1 0.888384 0.5169 0.50062
4471 1 0.899358 0.510881 0.50252
4406 1 0.899038 0.521609 0.501837
1752 1 0.911066 0.516896 0.502766
4339 1 0.910727 0.505317 0.503364
1541 1 0.921838 0.511845 0.504335
4466 1 0.933 0.504801 0.503252
4198 1 0.932654 0.516526 0.504932
1611 1 0.953601 0.502653 0.504773
4340 1 0.942946 0.522029 0.504415
4260 1 0.942672 0.511022 0.504861
4266 1 0.954618 0.515151 0.504542
1614 1 0.973641 0.511826 0.505654
1612 1 0.964291 0.506873 0.504897
1689 1 0.964605 0.520246 0.505583
1479 1 0.996217 0.51074 0.504352
1691 1 0.985684 0.517821 0.5048
1546 1 0.985193 0.504101 0.505263
1675 1 0.504827 0.524527 0.501322
1679 1 0.50825 0.534946 0.500006
4341 1 0.520864 0.537921 0.500349
4132 1 0.515984 0.526776 0.500363
4274 1 0.528894 0.527796 0.500325
4417 1 0.590598 0.533294 0.500312
4357 1 0.609384 0.530008 0.501763
4489 1 0.598502 0.524542 0.500603
4136 1 0.600248 0.538638 0.501162
4212 1 0.613911 0.539814 0.500171
4151 1 0.625393 0.541137 0.500214
4205 1 0.621717 0.529711 0.501627
4084 1 0.632821 0.531574 0.500276
4355 1 0.63713 0.542303 0.502126
4150 1 0.64384 0.531908 0.500875
4501 1 0.656365 0.533341 0.502839
4287 1 0.649117 0.542764 0.501323
4519 1 0.675566 0.527932 0.502804
4363 1 0.663906 0.52609 0.50105
4511 1 0.679967 0.541407 0.502695
4435 1 0.668726 0.537579 0.502456
4217 1 0.659793 0.545303 0.502849
4370 1 0.687702 0.532085 0.501844
4372 1 0.700281 0.535825 0.501763
4380 1 0.691169 0.543155 0.502736
4302 1 0.719406 0.523172 0.501211
4379 1 0.709965 0.528733 0.502595
4447 1 0.718003 0.537124 0.501831
4381 1 0.73963 0.534605 0.500208
4315 1 0.728936 0.541362 0.502304
4240 1 0.750097 0.54212 0.500458
4246 1 0.760791 0.535185 0.501069
4244 1 0.770794 0.539071 0.502099
4382 1 0.783831 0.536694 0.50025
4248 1 0.795103 0.539532 0.500532
4609 1 0.81488 0.538871 0.500788
4388 1 0.812793 0.527588 0.50031
4603 1 0.835771 0.526199 0.500351
4613 1 0.825887 0.544805 0.500457
4531 1 0.835527 0.53942 0.501916
4537 1 0.826057 0.532688 0.500298
4462 1 0.857988 0.537151 0.501244
4538 1 0.846242 0.544879 0.50137
4391 1 0.858128 0.526546 0.500577
4469 1 0.879894 0.524789 0.501717
4479 1 0.879518 0.536695 0.501109
4478 1 0.868478 0.53239 0.501883
4535 1 0.867952 0.543528 0.500975
1613 1 0.890897 0.542926 0.501505
4465 1 0.891042 0.529904 0.500492
4544 1 0.90094 0.53588 0.50163
4757 1 0.922646 0.523355 0.502899
1681 1 0.910959 0.52999 0.503128
4550 1 0.910645 0.542974 0.504381
1472 1 0.920722 0.536187 0.503123
1823 1 0.932685 0.528754 0.503819
1543 1 0.932892 0.540235 0.504489
1542 1 0.943931 0.534425 0.503578
1684 1 0.95397 0.527414 0.504665
1476 1 0.954728 0.5391 0.504731
1617 1 0.975452 0.524349 0.505186
1767 1 0.965783 0.532582 0.505361
1763 1 0.975724 0.537646 0.50434
1755 1 0.997082 0.523382 0.505115
1690 1 0.998447 0.53514 0.505428
1761 1 0.985648 0.529985 0.50515
1837 1 0.986645 0.542358 0.505385
4621 1 0.507137 0.559404 0.500018
1819 1 0.502973 0.546214 0.5
4282 1 0.608537 0.56178 0.500547
4358 1 0.622631 0.562239 0.500329
4354 1 0.634389 0.564013 0.501065
4422 1 0.629431 0.551936 0.500578
4352 1 0.617007 0.551456 0.500803
4215 1 0.641011 0.554015 0.501834
4433 1 0.646263 0.565602 0.500968
4503 1 0.651491 0.555592 0.502751
4502 1 0.675405 0.55837 0.502352
4148 1 0.662881 0.558098 0.502803
4362 1 0.669956 0.549324 0.500852
4444 1 0.684797 0.565345 0.501892
4445 1 0.696518 0.555845 0.501009
4516 1 0.695821 0.56777 0.501804
4373 1 0.684993 0.55221 0.502795
4449 1 0.705539 0.546474 0.502283
4660 1 0.719221 0.561691 0.502086
4521 1 0.717896 0.549117 0.500894
4451 1 0.707024 0.558666 0.501643
4312 1 0.739871 0.548751 0.50153
4517 1 0.729632 0.565502 0.503445
4385 1 0.730546 0.552817 0.501271
4663 1 0.740016 0.560405 0.502242
4378 1 0.761178 0.546627 0.501888
4313 1 0.760657 0.558043 0.503203
4589 1 0.751676 0.566997 0.501854
4520 1 0.750837 0.553228 0.502041
4518 1 0.770683 0.552523 0.501801
4453 1 0.771901 0.565616 0.50167
4112 1 0.780808 0.547297 0.501204
4527 1 0.783471 0.559477 0.501538
4528 1 0.792269 0.55237 0.50157
4245 1 0.794581 0.56585 0.502492
4612 1 0.816367 0.564498 0.501731
4599 1 0.804486 0.558329 0.500393
4541 1 0.815689 0.551701 0.500538
4539 1 0.826308 0.557054 0.502161
4611 1 0.835858 0.552267 0.501509
4547 1 0.836655 0.564162 0.501844
4545 1 0.858151 0.562571 0.501124
4475 1 0.857358 0.549279 0.501222
4477 1 0.847112 0.556591 0.501644
1751 1 0.880703 0.562039 0.501698
4410 1 0.879853 0.548309 0.500918
4470 1 0.86959 0.555548 0.501629
1822 1 0.902266 0.561056 0.502704
1682 1 0.889994 0.554534 0.501542
1821 1 0.901331 0.549234 0.502557
4759 1 0.892812 0.56652 0.503355
1544 1 0.913985 0.56664 0.505254
1685 1 0.922462 0.54789 0.503854
1758 1 0.911861 0.554886 0.504753
1754 1 0.923594 0.559135 0.505228
1618 1 0.945242 0.546982 0.504362
1766 1 0.934107 0.553806 0.504619
1616 1 0.934861 0.566625 0.506151
1770 1 0.946349 0.559691 0.504379
1694 1 0.966463 0.546545 0.504654
1699 1 0.956414 0.563831 0.504429
1688 1 0.956414 0.550926 0.504362
1963 1 0.967962 0.55825 0.504704
1896 1 0.975926 0.551665 0.505661
1969 1 0.978276 0.565672 0.505162
1967 1 0.998783 0.560846 0.504692
1829 1 0.997577 0.545673 0.505857
1764 1 0.986069 0.556668 0.506523
1824 1 0.989302 0.566873 0.503052
1742 1 0.510405 0.571041 0.500569
4560 1 0.588286 0.570875 0.500004
4216 1 0.606384 0.582595 0.500273
4491 1 0.60082 0.571743 0.500358
4284 1 0.626133 0.572826 0.500272
4149 1 0.637877 0.575046 0.500279
4441 1 0.658638 0.569655 0.501616
4575 1 0.655856 0.589611 0.500726
4434 1 0.649872 0.577257 0.500623
4438 1 0.671069 0.569425 0.501756
4506 1 0.681351 0.59031 0.50089
4439 1 0.675425 0.580487 0.501921
4432 1 0.663826 0.581431 0.501428
4364 1 0.669185 0.590499 0.500223
4442 1 0.698764 0.578783 0.500398
4443 1 0.685958 0.578157 0.50136
4448 1 0.692521 0.589765 0.501146
4661 1 0.706261 0.571124 0.503571
4515 1 0.720538 0.58603 0.503166
4512 1 0.718711 0.573598 0.503064
4440 1 0.708996 0.582485 0.50219
4658 1 0.740656 0.573389 0.501964
4387 1 0.730122 0.578648 0.50333
4593 1 0.740809 0.584348 0.502306
4314 1 0.762893 0.585345 0.502125
4389 1 0.762364 0.572022 0.502586
4588 1 0.750848 0.578911 0.503189
4452 1 0.772945 0.578509 0.502543
4316 1 0.784994 0.58298 0.502432
4252 1 0.782362 0.571156 0.503877
4529 1 0.794275 0.589037 0.503473
4457 1 0.775073 0.590528 0.502298
4459 1 0.795367 0.576758 0.502697
4605 1 0.806043 0.582098 0.50295
4679 1 0.805488 0.569597 0.501061
4607 1 0.81624 0.575977 0.50229
4533 1 0.816523 0.588579 0.501863
4614 1 0.827048 0.570009 0.501547
4689 1 0.837712 0.586558 0.502365
4619 1 0.836647 0.575105 0.502971
4542 1 0.826533 0.581781 0.501323
4543 1 0.84724 0.568738 0.502583
1753 1 0.85875 0.574056 0.502354
4683 1 0.847861 0.58093 0.502209
4476 1 0.858422 0.586346 0.500934
4480 1 0.868913 0.568351 0.500574
4686 1 0.881186 0.584486 0.50177
4687 1 0.881839 0.572316 0.502646
4751 1 0.869458 0.579896 0.502441
1827 1 0.902345 0.584358 0.502943
1683 1 0.902804 0.572585 0.503601
1892 1 0.892111 0.577873 0.502366
4823 1 0.891734 0.590086 0.502026
1757 1 0.924635 0.571945 0.504088
1686 1 0.924445 0.583277 0.505323
1687 1 0.912622 0.578122 0.503208
1893 1 0.936175 0.577063 0.504072
2037 1 0.946833 0.571734 0.503917
1970 1 0.946338 0.586005 0.50367
1899 1 0.958195 0.579212 0.503824
1968 1 0.967181 0.569402 0.503575
2052 1 0.967994 0.585585 0.505162
1971 1 0.976733 0.578166 0.50541
1826 1 0.998652 0.572867 0.502982
2038 1 0.979005 0.58989 0.505262
1900 1 0.988443 0.580338 0.503598
2086 1 0.504507 0.611642 0.501264
4628 1 0.617148 0.604584 0.500278
4507 1 0.677626 0.61221 0.500816
4567 1 0.674063 0.600581 0.500613
4290 1 0.665751 0.610316 0.500479
4574 1 0.685041 0.601587 0.500085
4659 1 0.698251 0.600588 0.501483
4652 1 0.70164 0.611403 0.502437
4576 1 0.691273 0.61146 0.500725
4446 1 0.708087 0.594122 0.502
4721 1 0.712194 0.606016 0.50227
4664 1 0.72065 0.598219 0.503777
4657 1 0.724379 0.610514 0.504146
4450 1 0.732869 0.593383 0.504185
4590 1 0.732565 0.6046 0.502393
4513 1 0.743153 0.599438 0.501715
4727 1 0.742833 0.610609 0.504294
4523 1 0.753126 0.59164 0.502618
4456 1 0.764742 0.595663 0.501594
4597 1 0.764842 0.609157 0.503215
4525 1 0.753172 0.603871 0.503249
4598 1 0.785575 0.607764 0.50481
4383 1 0.7742 0.603664 0.503389
4384 1 0.78508 0.597138 0.502725
4532 1 0.795503 0.600229 0.505048
4608 1 0.806614 0.593415 0.501854
4596 1 0.804559 0.606129 0.503085
4615 1 0.816442 0.601401 0.504339
4885 1 0.817277 0.612809 0.503861
4618 1 0.83765 0.600041 0.50251
4536 1 0.827312 0.605903 0.50374
4606 1 0.826206 0.59336 0.503243
4753 1 0.838788 0.612028 0.502862
4616 1 0.858342 0.598738 0.502344
4685 1 0.84946 0.604333 0.502734
4548 1 0.860646 0.610402 0.503076
4546 1 0.848907 0.593147 0.502851
4549 1 0.867979 0.591202 0.500434
4755 1 0.88034 0.608215 0.502463
4758 1 0.881471 0.5965 0.501591
4829 1 0.87045 0.60385 0.502543
1898 1 0.903293 0.608447 0.504669
1891 1 0.890109 0.602515 0.503258
1756 1 0.900848 0.596795 0.502909
4688 1 0.912422 0.591188 0.503332
2039 1 0.924732 0.609379 0.504268
2041 1 0.913846 0.602862 0.504118
1966 1 0.92355 0.596111 0.504138
2102 1 0.934708 0.591322 0.504929
2105 1 0.936992 0.602601 0.505201
5109 1 0.947359 0.597176 0.506012
1897 1 0.946514 0.608502 0.504624
2042 1 0.957711 0.591378 0.505641
2111 1 0.958372 0.602554 0.506328
2189 1 0.969485 0.598008 0.506117
1910 1 0.967952 0.610056 0.506207
1978 1 0.992767 0.591667 0.504918
2262 1 0.979222 0.603789 0.50595
1828 1 0.990904 0.607055 0.505783
4769 1 0.597092 0.616413 0.500385
4495 1 0.628401 0.630032 0.50045
4496 1 0.664076 0.632549 0.501111
4581 1 0.690208 0.633619 0.501242
4573 1 0.698723 0.624766 0.501571
4510 1 0.701751 0.634908 0.502437
4580 1 0.722029 0.623527 0.50374
4651 1 0.711068 0.617314 0.502854
4724 1 0.711199 0.628541 0.503556
4522 1 0.74262 0.622235 0.503083
4524 1 0.744342 0.634093 0.50331
4586 1 0.733445 0.630321 0.503379
4662 1 0.733123 0.616143 0.502561
4530 1 0.753362 0.615847 0.502635
4670 1 0.763426 0.620626 0.503483
4602 1 0.764865 0.632161 0.503212
4667 1 0.754143 0.62778 0.503584
4454 1 0.776603 0.61484 0.503942
4665 1 0.774982 0.627032 0.504194
4600 1 0.785555 0.620541 0.505663
4601 1 0.786551 0.632905 0.50542
4684 1 0.796892 0.625731 0.504057
4681 1 0.796042 0.613729 0.504249
4741 1 0.807997 0.633459 0.50479
4678 1 0.806901 0.618037 0.503419
4540 1 0.817653 0.624505 0.504401
4682 1 0.840643 0.623665 0.503893
4617 1 0.829621 0.631571 0.504221
4610 1 0.829359 0.619446 0.504343
4620 1 0.842338 0.634842 0.503016
4680 1 0.851237 0.628334 0.501836
4825 1 0.860799 0.62261 0.501396
4967 1 0.850503 0.616387 0.502588
4821 1 0.862185 0.633429 0.502269
1895 1 0.871386 0.627317 0.502554
4760 1 0.881107 0.621139 0.501212
4899 1 0.871378 0.615906 0.502507
1894 1 0.881481 0.632544 0.503131
1760 1 0.90159 0.61992 0.504417
4830 1 0.892125 0.613915 0.502255
1964 1 0.891383 0.625349 0.501725
1965 1 0.901475 0.632825 0.504338
2033 1 0.914102 0.615224 0.505101
2106 1 0.912321 0.627535 0.505963
2040 1 0.922558 0.632932 0.506296
4968 1 0.924332 0.621936 0.504126
2050 1 0.935109 0.615176 0.504636
2255 1 0.933968 0.626803 0.505743
2043 1 0.945722 0.620226 0.505859
1902 1 0.94584 0.632606 0.506573
2049 1 0.95691 0.614519 0.506154
2183 1 0.957249 0.626661 0.507446
2120 1 0.968245 0.62127 0.507346
2051 1 0.976888 0.632167 0.506792
1901 1 0.980853 0.615462 0.507241
2054 1 0.994478 0.62001 0.504028
4773 1 0.608214 0.638124 0.500012
4360 1 0.646139 0.6412 0.500192
4578 1 0.699621 0.655865 0.500478
4725 1 0.702682 0.646769 0.50326
4634 1 0.682626 0.64305 0.501316
4577 1 0.687256 0.654739 0.50108
4579 1 0.722349 0.636592 0.502935
4509 1 0.711869 0.640739 0.501861
4591 1 0.719869 0.648953 0.502705
4585 1 0.711678 0.656085 0.500956
4668 1 0.737368 0.65501 0.502678
4666 1 0.733163 0.643479 0.50364
4587 1 0.746332 0.645455 0.502928
4604 1 0.747793 0.658269 0.50324
4733 1 0.755976 0.639652 0.503879
4740 1 0.757413 0.653793 0.503407
4737 1 0.766304 0.64569 0.503747
4743 1 0.767299 0.658604 0.504322
4734 1 0.77816 0.651958 0.5036
4674 1 0.786404 0.644012 0.504139
4739 1 0.77565 0.638267 0.50492
4671 1 0.794922 0.651356 0.504963
4746 1 0.798882 0.6399 0.504261
4953 1 0.807428 0.649318 0.503965
5023 1 0.818142 0.65191 0.504312
4748 1 0.818832 0.638437 0.504683
4815 1 0.830736 0.643552 0.504087
4675 1 0.831207 0.654777 0.502006
4676 1 0.840509 0.647854 0.503916
4897 1 0.85204 0.641103 0.502895
4822 1 0.851038 0.65351 0.503
5032 1 0.862255 0.645791 0.503539
2032 1 0.861508 0.657605 0.503144
2031 1 0.882257 0.646581 0.504977
1961 1 0.872171 0.638851 0.502798
4961 1 0.872272 0.651178 0.503079
4827 1 0.880654 0.65849 0.503871
4756 1 0.890667 0.637866 0.503801
1962 1 0.892208 0.651709 0.503574
2104 1 0.902321 0.646119 0.504381
2114 1 0.903313 0.658612 0.504718
2036 1 0.914512 0.651372 0.504774
2044 1 0.913187 0.639326 0.505066
2405 1 0.925225 0.646041 0.504702
2188 1 0.926797 0.659058 0.504661
1974 1 0.936309 0.65324 0.505529
2184 1 0.932999 0.639601 0.506864
1976 1 0.945934 0.644775 0.505828
2260 1 0.955287 0.639246 0.506289
2329 1 0.968751 0.644037 0.507888
2185 1 0.956599 0.654764 0.50648
4720 1 0.703792 0.667234 0.500421
4735 1 0.72502 0.659124 0.502052
4594 1 0.715563 0.668093 0.501292
4654 1 0.721236 0.678669 0.500895
4799 1 0.708857 0.678863 0.500755
4595 1 0.739934 0.668883 0.502891
4877 1 0.72912 0.669638 0.500018
4806 1 0.732843 0.68055 0.502689
4592 1 0.745382 0.679504 0.502423
4738 1 0.754504 0.668412 0.502789
4872 1 0.765179 0.671121 0.503919
4673 1 0.786619 0.660605 0.503984
4808 1 0.776615 0.667208 0.504069
4729 1 0.784502 0.676184 0.503782
5019 1 0.79584 0.671026 0.503975
4672 1 0.799101 0.661396 0.504087
4669 1 0.806784 0.674002 0.504559
4957 1 0.810939 0.661479 0.503783
4750 1 0.818603 0.67212 0.505283
4677 1 0.829856 0.667601 0.504798
4754 1 0.830823 0.680958 0.506139
4819 1 0.841485 0.661579 0.504067
4820 1 0.841361 0.674067 0.504631
2103 1 0.85098 0.665632 0.50431
4900 1 0.851562 0.678249 0.505374
2035 1 0.86156 0.671398 0.503042
2034 1 0.87172 0.665634 0.504164
2115 1 0.881516 0.671606 0.503554
5033 1 0.871608 0.67805 0.503283
2191 1 0.905023 0.669563 0.504276
2190 1 0.893348 0.664741 0.504028
2171 1 0.894429 0.676613 0.503123
1972 1 0.91552 0.664313 0.504267
2109 1 0.918394 0.67545 0.505482
5175 1 0.929819 0.672242 0.503695
2047 1 0.945186 0.662053 0.503641
2162 1 0.511245 0.701729 0.500323
1876 1 0.517521 0.690056 0.500499
2303 1 0.505235 0.689726 0.500073
2234 1 0.535689 0.703437 0.500347
4728 1 0.708527 0.699468 0.501125
4730 1 0.71903 0.701808 0.500968
4732 1 0.726279 0.690948 0.50172
4731 1 0.738305 0.68922 0.501583
4871 1 0.730064 0.70265 0.501126
4801 1 0.741589 0.701769 0.502581
4810 1 0.758966 0.684123 0.505583
4807 1 0.754827 0.704129 0.503094
4736 1 0.752186 0.692113 0.502177
4805 1 0.764928 0.69523 0.503332
4809 1 0.772132 0.681873 0.504849
4744 1 0.783295 0.687724 0.504931
4884 1 0.776122 0.697048 0.504421
4956 1 0.789225 0.699492 0.504345
4895 1 0.796202 0.684007 0.504864
4752 1 0.808275 0.685855 0.505675
4892 1 0.813194 0.698733 0.504247
4891 1 0.799496 0.696333 0.50398
4749 1 0.821294 0.684915 0.504474
4814 1 0.826748 0.697531 0.504557
5031 1 0.840449 0.698887 0.504443
4824 1 0.840142 0.686473 0.505264
4898 1 0.851705 0.691052 0.503712
5034 1 0.855011 0.703672 0.504698
4964 1 0.863498 0.688488 0.503337
5104 1 0.86719 0.701067 0.502742
2107 1 0.875162 0.691977 0.505139
2110 1 0.88431 0.683366 0.503913
4890 1 0.888744 0.69935 0.503905
2177 1 0.896591 0.688968 0.504159
2108 1 0.907268 0.682239 0.504003
2259 1 0.901208 0.704428 0.504492
2113 1 0.909664 0.69477 0.503975
2122 1 0.922955 0.691378 0.504176
2018 1 0.504871 0.71207 0.500415
2015 1 0.509576 0.722928 0.501375
2299 1 0.521957 0.724352 0.50082
2235 1 0.533397 0.725801 0.50054
2231 1 0.54031 0.714831 0.500472
1950 1 0.558511 0.707 0.500199
4870 1 0.703537 0.720791 0.500026
4795 1 0.698497 0.708973 0.500152
4793 1 0.715515 0.722838 0.500596
4947 1 0.72278 0.712315 0.501772
4800 1 0.735121 0.713685 0.501426
5021 1 0.74089 0.724317 0.501905
4875 1 0.727998 0.724423 0.501321
4653 1 0.74737 0.713527 0.501888
4949 1 0.754126 0.724833 0.501923
4879 1 0.768416 0.706536 0.503276
4880 1 0.76134 0.715513 0.502475
5013 1 0.766207 0.72649 0.502681
4813 1 0.792048 0.710902 0.50491
4742 1 0.785 0.719712 0.503449
4803 1 0.774118 0.718274 0.502048
4954 1 0.780496 0.707847 0.503464
4886 1 0.796902 0.720009 0.504608
4955 1 0.803373 0.707971 0.50495
5097 1 0.808817 0.720027 0.502848
4893 1 0.81958 0.708849 0.503408
4747 1 0.821332 0.721542 0.503427
4889 1 0.833421 0.722979 0.503045
4888 1 0.831317 0.710432 0.503118
5030 1 0.856377 0.715415 0.504179
4828 1 0.846644 0.722336 0.502671
5028 1 0.842306 0.709996 0.504839
4816 1 0.862508 0.726826 0.501943
5038 1 0.877609 0.704976 0.505524
4962 1 0.86894 0.712797 0.50393
5174 1 0.879957 0.718352 0.503742
2117 1 0.889834 0.711875 0.504666
2254 1 0.904862 0.71913 0.504673
4965 1 0.892523 0.723203 0.50309
2327 1 0.917627 0.709394 0.501658
2306 1 0.506519 0.74413 0.501968
2166 1 0.514095 0.734138 0.501244
2163 1 0.518784 0.744614 0.501134
2301 1 0.502412 0.732739 0.500932
2026 1 0.526573 0.736197 0.500024
2169 1 0.530797 0.74668 0.500399
4779 1 0.603717 0.733737 0.500073
4915 1 0.622472 0.746684 0.500349
4928 1 0.703526 0.742121 0.501786
4792 1 0.691661 0.742591 0.500282
4873 1 0.70932 0.731291 0.500774
4948 1 0.714122 0.743443 0.500267
4649 1 0.722722 0.734988 0.501658
4723 1 0.727149 0.744849 0.500853
4882 1 0.740656 0.745764 0.501398
5011 1 0.734903 0.734637 0.500918
5010 1 0.747402 0.735003 0.501726
4950 1 0.764284 0.747567 0.501393
4940 1 0.759635 0.73684 0.501829
4942 1 0.753309 0.74643 0.502106
4878 1 0.77204 0.738057 0.501717
4952 1 0.778224 0.72924 0.50279
4876 1 0.790587 0.731731 0.502648
5015 1 0.784059 0.740686 0.50196
5087 1 0.776028 0.749008 0.503012
5020 1 0.801999 0.732172 0.502396
5094 1 0.809408 0.742278 0.502635
4951 1 0.796459 0.743373 0.503297
5233 1 0.81331 0.732338 0.502756
4745 1 0.821464 0.742244 0.502079
4826 1 0.827025 0.732954 0.50199
5093 1 0.832768 0.744887 0.50203
5027 1 0.839282 0.733523 0.502245
2112 1 0.852396 0.733207 0.502741
5024 1 0.845939 0.74435 0.502236
4887 1 0.858691 0.745862 0.500605
4960 1 0.875244 0.731674 0.502049
5029 1 0.869108 0.743226 0.500732
5035 1 0.883218 0.741039 0.501118
4966 1 0.899672 0.747972 0.501389
2179 1 0.894307 0.736295 0.50212
5103 1 0.907094 0.734248 0.503306
4972 1 0.500163 0.754296 0.503022
2093 1 0.517699 0.766905 0.502407
2165 1 0.504631 0.76495 0.502699
2300 1 0.5119 0.756019 0.502029
2094 1 0.522489 0.755267 0.501104
5115 1 0.529739 0.767273 0.501148
2095 1 0.534769 0.75872 0.500318
2099 1 0.54214 0.770979 0.500348
2100 1 0.55671 0.750426 0.500063
4910 1 0.585369 0.76527 0.50026
4905 1 0.608866 0.765788 0.50113
4917 1 0.60505 0.756252 0.500396
4839 1 0.591298 0.753785 0.500828
4919 1 0.627921 0.758321 0.500383
4783 1 0.652873 0.758492 0.500013
5000 1 0.646434 0.769453 0.500363
4852 1 0.639596 0.758185 0.500698
4930 1 0.702034 0.764687 0.500009
4716 1 0.684477 0.753469 0.500852
4802 1 0.708249 0.753971 0.501913
4869 1 0.715052 0.76442 0.500293
4945 1 0.720573 0.754112 0.500119
4938 1 0.727281 0.76528 0.500324
4863 1 0.732579 0.754692 0.501556
5081 1 0.74637 0.755677 0.500904
4941 1 0.738153 0.764809 0.500126
5016 1 0.750609 0.76675 0.50076
4881 1 0.758182 0.758117 0.50217
4883 1 0.769103 0.757333 0.502667
5017 1 0.762647 0.767847 0.500934
4943 1 0.787934 0.751604 0.5034
5159 1 0.782023 0.760812 0.502235
5155 1 0.774475 0.769039 0.501146
5012 1 0.787077 0.770833 0.501462
5163 1 0.812328 0.772438 0.501781
5167 1 0.798724 0.771779 0.502264
4811 1 0.795579 0.760444 0.502826
4958 1 0.814794 0.752732 0.502056
5165 1 0.8028 0.752549 0.502389
5092 1 0.80697 0.761967 0.500409
5230 1 0.820289 0.76324 0.501276
4894 1 0.839964 0.754108 0.500848
5173 1 0.832735 0.763739 0.50153
5164 1 0.825584 0.752589 0.501258
5090 1 0.851601 0.756242 0.501264
5171 1 0.856002 0.766973 0.500179
4963 1 0.864497 0.757489 0.500198
5162 1 0.876184 0.752966 0.5007
5025 1 0.869705 0.766819 0.500484
5095 1 0.882793 0.767145 0.500254
5022 1 0.898385 0.768697 0.502455
4970 1 0.888233 0.75448 0.500173
2240 1 0.516258 0.790194 0.503118
2361 1 0.504926 0.786928 0.502866
2435 1 0.512081 0.77653 0.5039
2168 1 0.523513 0.778808 0.501838
4903 1 0.539335 0.791714 0.500644
2309 1 0.528644 0.789588 0.501872
2237 1 0.535259 0.779939 0.500687
5051 1 0.558347 0.783629 0.500284
4982 1 0.56312 0.795076 0.501014
4901 1 0.551504 0.793557 0.501395
5044 1 0.566769 0.772797 0.500313
4907 1 0.590521 0.775316 0.500717
5047 1 0.570031 0.785765 0.500749
4971 1 0.582279 0.785489 0.500526
4913 1 0.594355 0.785764 0.500659
4838 1 0.602168 0.776115 0.501436
5128 1 0.607526 0.787154 0.50025
4922 1 0.615109 0.777482 0.500018
4991 1 0.631096 0.791033 0.501505
4911 1 0.619233 0.78919 0.500563
4784 1 0.62617 0.779633 0.500493
5143 1 0.643285 0.791538 0.500908
4855 1 0.651979 0.780389 0.500688
4925 1 0.639347 0.780216 0.50045
4860 1 0.668789 0.794031 0.50106
4862 1 0.663399 0.783506 0.500026
4994 1 0.670281 0.772973 0.500562
5146 1 0.700833 0.785785 0.500042
4932 1 0.688607 0.785757 0.500698
5067 1 0.706743 0.776094 0.500385
4794 1 0.718765 0.774476 0.501197
4946 1 0.744787 0.776358 0.500542
4939 1 0.731465 0.7752 0.501325
5089 1 0.756733 0.778415 0.500262
5091 1 0.760183 0.789642 0.500145
5018 1 0.768641 0.77937 0.500035
5298 1 0.791771 0.781581 0.500308
5299 1 0.780878 0.781192 0.500308
5373 1 0.796557 0.794055 0.500221
5166 1 0.815439 0.785033 0.500201
5235 1 0.803908 0.782469 0.500727
5026 1 0.824823 0.775662 0.500013
4896 1 0.83666 0.775944 0.500164
2314 1 0.862629 0.778388 0.500174
2116 1 0.85497 0.787709 0.501973
5099 1 0.848545 0.776446 0.501661
2182 1 0.867082 0.790065 0.501178
5036 1 0.879886 0.790727 0.500172
4969 1 0.874129 0.77954 0.501765
2118 1 0.89352 0.793857 0.500137
5037 1 0.887675 0.779325 0.500598
2180 1 0.900036 0.781641 0.501989
2359 1 0.515547 0.810813 0.503307
2310 1 0.522649 0.801382 0.50177
2445 1 0.511754 0.798692 0.504962
2370 1 0.50321 0.808746 0.503862
2239 1 0.533292 0.801575 0.501177
2447 1 0.537885 0.812342 0.501293
2308 1 0.526637 0.812874 0.502243
5045 1 0.557993 0.804539 0.50184
2092 1 0.545629 0.802721 0.501376
5327 1 0.549304 0.813818 0.500924
5049 1 0.575172 0.795681 0.50105
4912 1 0.587082 0.795787 0.50194
4902 1 0.581767 0.80573 0.500181
4988 1 0.610025 0.818052 0.500127
4914 1 0.612556 0.79761 0.500172
4979 1 0.5933 0.80711 0.500665
4987 1 0.604738 0.807424 0.500128
4995 1 0.623656 0.800626 0.502825
5052 1 0.629474 0.811149 0.500454
4984 1 0.617217 0.809446 0.500539
5064 1 0.653598 0.815378 0.500255
4786 1 0.642755 0.815201 0.501107
5065 1 0.647746 0.804548 0.50025
4853 1 0.6371 0.802563 0.50042
5145 1 0.678778 0.816141 0.500087
5069 1 0.659281 0.803879 0.501011
5160 1 0.788573 0.803216 0.500053
5169 1 0.834737 0.797185 0.500054
2248 1 0.850848 0.808956 0.500325
2315 1 0.859004 0.800005 0.500037
5039 1 0.871781 0.801795 0.500914
2173 1 0.876049 0.812938 0.50064
5040 1 0.883998 0.802291 0.500399
2250 1 0.89658 0.80673 0.502268
2101 1 0.888002 0.816915 0.500472
2378 1 0.509966 0.83301 0.501522
2374 1 0.519071 0.823227 0.502376
2366 1 0.506116 0.820239 0.503137
5043 1 0.53154 0.82396 0.502001
2430 1 0.525166 0.834746 0.501484
4834 1 0.544662 0.823752 0.500228
5042 1 0.556149 0.82527 0.50048
5046 1 0.549511 0.834813 0.500114
5041 1 0.566836 0.825613 0.500434
5183 1 0.573546 0.836554 0.501083
4924 1 0.605257 0.8301 0.501155
5060 1 0.629354 0.832453 0.501113
4920 1 0.622466 0.8223 0.500086
4989 1 0.641534 0.835292 0.500309
5014 1 0.745449 0.830628 0.500122
5179 1 0.857955 0.820229 0.500687
5241 1 0.848969 0.831645 0.500215
2251 1 0.873613 0.836293 0.501273
2181 1 0.884726 0.830564 0.50152
2325 1 0.899333 0.826544 0.503375
2257 1 0.903736 0.839194 0.501486
2409 1 0.507912 0.85107 0.500215
2272 1 0.515474 0.842697 0.500308
2432 1 0.500189 0.842529 0.500373
2502 1 0.528515 0.845336 0.500687
5186 1 0.559827 0.857154 0.500049
5328 1 0.571736 0.858403 0.500451
5259 1 0.578825 0.848925 0.500211
5121 1 0.603166 0.853522 0.500521
5059 1 0.600539 0.841593 0.500847
4993 1 0.634966 0.844398 0.501091
5057 1 0.627393 0.857881 0.50061
5111 1 0.616731 0.855326 0.501011
5068 1 0.638926 0.856331 0.500628
5129 1 0.650745 0.859416 0.501422
5132 1 0.658287 0.848633 0.50131
5066 1 0.645786 0.847747 0.5001
5138 1 0.670942 0.848661 0.500028
5352 1 0.700835 0.859889 0.500851
2175 1 0.853329 0.842915 0.500501
2258 1 0.882942 0.857208 0.500171
2174 1 0.870889 0.856758 0.500417
2242 1 0.890778 0.841612 0.500709
2249 1 0.895231 0.858419 0.501716
2564 1 0.511625 0.884136 0.500121
2448 1 0.567815 0.881387 0.500161
5323 1 0.575685 0.872208 0.500669
2589 1 0.579193 0.884438 0.500218
5050 1 0.58682 0.875373 0.500456
5185 1 0.610558 0.87854 0.501497
4986 1 0.591257 0.885312 0.501043
5258 1 0.600239 0.875671 0.500039
5056 1 0.59532 0.865574 0.501061
5053 1 0.607387 0.864719 0.500193
5193 1 0.623929 0.878042 0.50037
5123 1 0.635907 0.878863 0.501441
4985 1 0.617092 0.867783 0.501307
5134 1 0.631174 0.868152 0.501095
5054 1 0.643007 0.868318 0.500076
5208 1 0.661391 0.878995 0.500018
2172 1 0.898352 0.879504 0.501654
2313 1 0.905871 0.867591 0.503312
2322 1 0.887058 0.869033 0.502463
5381 1 0.911884 0.883316 0.502065
2379 1 0.561176 0.891629 0.500413
5321 1 0.585286 0.895351 0.500393
5196 1 0.609811 0.898426 0.501788
5114 1 0.604115 0.887715 0.500883
5257 1 0.621614 0.900019 0.50125
5195 1 0.635044 0.899488 0.50044
5137 1 0.627968 0.890429 0.50166
5125 1 0.616561 0.88781 0.501454
5139 1 0.652805 0.887892 0.50017
5135 1 0.640546 0.888707 0.500265
5347 1 0.665649 0.890052 0.500315
5456 1 0.842922 0.896924 0.501367
5400 1 0.532495 0.986035 0.500078
ITEM: TIMESTEP
400000
ITEM: NUMBER OF ATOMS
5600
ITEM: BOX BOUNDS pp pp pp
-3.5385000000000005e+01 3.5385000000000005e+01
-3.5022067329042613e+01 3.5022067329042613e+01
-6.0660000000000018e+01 6.0660000000000018e+01
ITEM: ATOMS id type xs ys zs
2743 1 0.0124494 0.014888 0.494177
2560 1 0.399226 0.00777646 0.49941
2488 1 0.385194 0.0210475 0.498641
2557 1 0.42072 0.0145195 0.498733
2404 1 0.42633 0.00192609 0.498167
2418 1 0.410418 0.00612283 0.499026
2698 1 0.410572 0.0216282 0.499591
111 1 0.432743 0.0138631 0.498783
2625 1 0.4374 0.00329768 0.498942
42 1 0.444403 0.0157496 0.49859
2640 1 0.449165 0.00497513 0.50005
2708 1 0.460897 0.00791668 0.499904
2786 1 0.474301 0.0104486 0.49984
2785 1 0.466769 0.019785 0.499517
48 1 0.485212 0.00915675 0.499439
2649 1 0.498097 0.0121301 0.498708
2783 1 0.492965 -0.00181814 0.49804
2385 1 0.00806088 0.0334076 0.493274
2324 1 0.00904604 0.0447185 0.493532
2323 1 0.0231572 0.0310293 0.495386
2626 1 0.387131 0.0355716 0.498523
2561 1 0.398361 0.023226 0.498773
2556 1 0.40407 0.0341537 0.499192
2773 1 0.395701 0.0441069 0.500153
2637 1 0.426244 0.0243505 0.499576
2638 1 0.430145 0.0354132 0.499024
2633 1 0.417762 0.0335254 0.498616
2562 1 0.408792 0.0450311 0.498743
2774 1 0.437347 0.0264727 0.49924
2767 1 0.441814 0.0375157 0.501576
51 1 0.448552 0.0274944 0.499058
2714 1 0.452682 0.0376124 0.499556
2648 1 0.485069 0.033326 0.50085
2396 1 0.00628223 0.0559226 0.494484
2536 1 0.0180326 0.0587612 0.494411
2389 1 0.020309 0.0435645 0.495856
2391 1 0.0310681 0.0509122 0.496331
2534 1 0.0391061 0.0594183 0.495501
2609 1 0.0279224 0.0649462 0.496453
2604 1 0.0473861 0.0663979 0.497902
2700 1 0.381353 0.0649857 0.499639
109 1 0.377222 0.0490504 0.499328
2559 1 0.396531 0.0670177 0.500417
2769 1 0.407748 0.0670189 0.500121
2763 1 0.388531 0.0549449 0.498909
2412 1 0.42085 0.0442578 0.498818
53 1 0.427935 0.0592296 0.499363
43 1 0.416878 0.0556884 0.499365
44 1 0.43884 0.0593921 0.500664
2718 1 0.474168 0.0625747 0.500595
333 1 0.462412 0.0609118 0.501369
261 1 0.482285 0.0538332 0.500229
2792 1 0.488112 0.0656808 0.500093
2793 1 0.494613 0.0557377 0.498828
7 1 0.0065276 0.0690612 0.496774
2466 1 0.0164859 0.0744446 0.495847
154 1 0.00627136 0.0815944 0.497444
16 1 0.0177176 0.0868854 0.496654
2395 1 0.0379979 0.0730223 0.495521
2601 1 0.0273024 0.0791248 0.496687
2605 1 0.0368674 0.0841118 0.496341
2673 1 0.0482622 0.07951 0.496361
2675 1 0.0597459 0.0709163 0.497253
14 1 0.058109 0.0847483 0.498535
2326 1 0.0755883 0.0811325 0.499921
2628 1 0.362936 0.0801818 0.497584
2619 1 0.383684 0.0877276 0.499039
2620 1 0.37512 0.0780353 0.499291
2768 1 0.389516 0.0764077 0.499288
2629 1 0.401733 0.0783771 0.498832
2566 1 0.395801 0.0877773 0.498844
36 1 0.407988 0.088602 0.500614
2771 1 0.418932 0.0682069 0.499569
117 1 0.414468 0.0780217 0.498911
56 1 0.426314 0.0794826 0.499858
2787 1 0.438943 0.0812615 0.50004
2716 1 0.455991 0.071928 0.499494
58 1 0.467418 0.0729823 0.499808
2722 1 0.486346 0.0858875 0.500552
2789 1 0.480374 0.0749054 0.499957
2739 1 0.00824708 0.0950637 0.497986
2670 1 0.019128 0.100348 0.498175
11 1 0.00877001 0.107608 0.497429
12 1 0.0195472 0.11257 0.500156
2744 1 0.0385522 0.10047 0.497707
85 1 0.0298989 0.106041 0.499489
2679 1 0.0281401 0.092308 0.49805
2752 1 0.0399653 0.113966 0.499298
2740 1 0.0472794 0.0924665 0.498243
21 1 0.0672598 0.0917935 0.499927
2607 1 0.0570727 0.0973408 0.499044
2401 1 0.0489096 0.106062 0.498726
2475 1 0.0794119 0.0945497 0.500258
2400 1 0.0901103 0.0999972 0.501579
2681 1 0.136008 0.104388 0.499639
2691 1 0.247814 0.114356 0.494396
2539 1 0.267605 0.11028 0.492124
2695 1 0.288306 0.104971 0.494215
2474 1 0.304976 0.102667 0.494705
2478 1 0.315874 0.111135 0.49552
2482 1 0.335759 0.110029 0.495995
2486 1 0.322363 0.096225 0.495259
2624 1 0.334145 0.0974599 0.49723
45 1 0.346586 0.0899951 0.496354
38 1 0.352837 0.101716 0.498617
113 1 0.347825 0.111341 0.497869
2694 1 0.361449 0.0935741 0.498691
189 1 0.378397 0.107024 0.498619
2688 1 0.366529 0.1042 0.4976
2772 1 0.373256 0.094441 0.498457
2770 1 0.3876 0.0993726 0.498904
334 1 0.390259 0.111312 0.499498
187 1 0.402941 0.111491 0.498985
2701 1 0.400098 0.0995492 0.498631
122 1 0.419895 0.0900652 0.499329
118 1 0.412487 0.101301 0.498279
405 1 0.41576 0.112542 0.499455
2791 1 0.427331 0.114184 0.500063
339 1 0.446749 0.105534 0.50089
2790 1 0.434981 0.103863 0.500126
59 1 0.470876 0.107263 0.501449
78 1 0.00719451 0.119378 0.498937
150 1 0.0199985 0.125075 0.499743
286 1 0.00933599 0.131572 0.498542
3214 1 0.0299866 0.130927 0.499969
156 1 0.0592401 0.122901 0.500592
2549 1 0.134854 0.128772 0.500067
2558 1 0.181567 0.119968 0.499339
2543 1 0.168861 0.130088 0.499804
2684 1 0.180907 0.136411 0.500261
2749 1 0.228118 0.125996 0.494741
2547 1 0.241636 0.126428 0.494897
15 1 0.265297 0.135165 0.492648
2761 1 0.253274 0.132636 0.493393
105 1 0.260927 0.122747 0.492959
2618 1 0.278908 0.115064 0.492375
2555 1 0.292116 0.116017 0.492634
2623 1 0.273437 0.125956 0.493427
35 1 0.284138 0.129375 0.49296
2687 1 0.303977 0.115984 0.492716
2621 1 0.307487 0.12738 0.493686
2764 1 0.295568 0.12889 0.493517
2550 1 0.317772 0.125515 0.497303
2765 1 0.331781 0.131306 0.495849
2692 1 0.32617 0.11749 0.495536
190 1 0.340511 0.120932 0.495891
46 1 0.351013 0.123832 0.497634
257 1 0.359236 0.111884 0.497933
183 1 0.344021 0.132531 0.495811
260 1 0.363468 0.124454 0.497705
188 1 0.356862 0.135228 0.49651
39 1 0.375972 0.128612 0.497092
325 1 0.371448 0.116382 0.497418
191 1 0.382502 0.119224 0.498332
50 1 0.38755 0.130876 0.497616
119 1 0.399995 0.132893 0.49902
121 1 0.395319 0.121006 0.497393
264 1 0.40646 0.122641 0.500058
330 1 0.41245 0.133621 0.499344
403 1 0.432764 0.125695 0.501388
340 1 0.437293 0.136168 0.500777
2800 1 0.493092 0.128743 0.499352
152 1 0.147963 0.144427 0.499817
19 1 0.159116 0.149578 0.499466
91 1 0.158255 0.136058 0.501074
17 1 0.169843 0.143898 0.500637
2614 1 0.203011 0.136475 0.498876
13 1 0.1929 0.141496 0.500374
2476 1 0.219698 0.135699 0.496948
2758 1 0.226028 0.149524 0.49705
96 1 0.212754 0.144596 0.498331
93 1 0.215599 0.154924 0.499096
2546 1 0.233349 0.140185 0.495217
2693 1 0.24587 0.140159 0.495884
2553 1 0.23948 0.150025 0.496111
2622 1 0.250397 0.153397 0.494513
103 1 0.262414 0.158071 0.494433
108 1 0.270056 0.147965 0.492701
40 1 0.258495 0.144916 0.493413
2682 1 0.276264 0.138979 0.493159
2685 1 0.289321 0.139793 0.493117
2746 1 0.281536 0.149931 0.492317
107 1 0.294985 0.150413 0.494597
2755 1 0.273316 0.157628 0.495142
2757 1 0.312275 0.140982 0.496504
2552 1 0.306177 0.152531 0.494004
2689 1 0.301793 0.139006 0.493486
41 1 0.318461 0.152923 0.495264
2696 1 0.324605 0.1397 0.496976
114 1 0.337745 0.141705 0.497109
2616 1 0.330268 0.151707 0.496339
116 1 0.349819 0.144655 0.496389
258 1 0.361462 0.148403 0.497611
255 1 0.353885 0.157424 0.496618
186 1 0.341286 0.15402 0.496457
259 1 0.380577 0.140868 0.497951
329 1 0.368771 0.138023 0.496808
256 1 0.373738 0.151668 0.497104
254 1 0.386902 0.152558 0.498019
323 1 0.405332 0.143491 0.499268
326 1 0.398315 0.154395 0.499485
331 1 0.394602 0.143102 0.49767
57 1 0.429968 0.145425 0.501171
401 1 0.409921 0.155526 0.499774
412 1 0.416807 0.145598 0.500127
299 1 0.147935 0.169061 0.499721
2747 1 0.167315 0.171943 0.499739
2683 1 0.218065 0.168251 0.498223
2472 1 0.228239 0.161378 0.497688
2754 1 0.206862 0.164649 0.498383
24 1 0.242905 0.173813 0.496297
98 1 0.230132 0.174021 0.498532
2756 1 0.238945 0.163288 0.497515
31 1 0.250875 0.164004 0.495876
173 1 0.265132 0.16916 0.495427
112 1 0.255997 0.175749 0.495816
2612 1 0.270605 0.180729 0.495328
2690 1 0.286132 0.160048 0.494165
2759 1 0.290136 0.171631 0.495495
32 1 0.277864 0.168665 0.49476
185 1 0.282361 0.182677 0.496167
2617 1 0.29751 0.162228 0.494882
120 1 0.30297 0.172584 0.496089
2760 1 0.309979 0.16357 0.495593
177 1 0.315094 0.175569 0.496245
464 1 0.327641 0.174596 0.496825
104 1 0.334985 0.164527 0.495707
2762 1 0.321468 0.163679 0.496286
392 1 0.339325 0.177375 0.49674
33 1 0.358945 0.169156 0.498381
251 1 0.34758 0.167517 0.496613
324 1 0.351156 0.178974 0.497326
179 1 0.366445 0.160932 0.497837
252 1 0.378835 0.160985 0.49821
182 1 0.372045 0.172511 0.497752
181 1 0.383217 0.173218 0.499239
393 1 0.390465 0.163431 0.498631
332 1 0.438322 0.167671 0.500288
26 1 0.226754 0.184243 0.50003
25 1 0.23336 0.194575 0.499505
29 1 0.245989 0.195809 0.499646
167 1 0.239346 0.184914 0.49861
170 1 0.251376 0.186547 0.497919
320 1 0.268386 0.199976 0.497904
171 1 0.256239 0.198 0.496267
28 1 0.262616 0.189048 0.496289
110 1 0.276763 0.192596 0.496867
253 1 0.288069 0.192904 0.496629
249 1 0.282727 0.203382 0.496631
34 1 0.294293 0.181351 0.495594
106 1 0.306123 0.184976 0.495978
100 1 0.300711 0.195465 0.496569
317 1 0.314133 0.195647 0.496925
250 1 0.325482 0.196384 0.496823
472 1 0.3312 0.186758 0.496348
176 1 0.319151 0.185277 0.496832
541 1 0.335912 0.198005 0.498321
395 1 0.343339 0.189312 0.496763
469 1 0.349156 0.199152 0.497939
318 1 0.356454 0.189904 0.498135
468 1 0.36117 0.202602 0.499186
184 1 0.364705 0.180767 0.499159
398 1 0.367489 0.193546 0.499077
471 1 0.376282 0.183313 0.499288
397 1 0.388709 0.184758 0.499444
517 1 0.160215 0.225195 0.499945
306 1 0.170075 0.219017 0.500385
305 1 0.179215 0.213349 0.499992
246 1 0.205509 0.209829 0.499495
174 1 0.237107 0.206842 0.500539
101 1 0.249846 0.209453 0.498491
180 1 0.241524 0.219126 0.499705
233 1 0.22938 0.216691 0.499833
247 1 0.262664 0.210709 0.4992
243 1 0.267428 0.221713 0.49946
175 1 0.255373 0.219505 0.499417
178 1 0.293557 0.204065 0.497209
237 1 0.273484 0.211587 0.497957
313 1 0.277961 0.223582 0.497347
321 1 0.286938 0.213357 0.496476
248 1 0.289136 0.22479 0.497248
245 1 0.304469 0.2079 0.498068
533 1 0.309226 0.218144 0.497261
319 1 0.297672 0.217798 0.497466
535 1 0.317479 0.20674 0.496989
530 1 0.329013 0.209423 0.496886
602 1 0.332893 0.221226 0.496291
467 1 0.320567 0.218978 0.496955
605 1 0.34179 0.208618 0.497289
601 1 0.352104 0.213187 0.499318
603 1 0.345252 0.222754 0.497609
537 1 0.360279 0.222667 0.499056
612 1 0.364984 0.212033 0.499285
235 1 0.203268 0.23464 0.500973
387 1 0.226823 0.239248 0.500692
314 1 0.205571 0.246861 0.499531
166 1 0.247619 0.228641 0.500297
390 1 0.263267 0.244152 0.499571
168 1 0.259038 0.231193 0.499854
385 1 0.27059 0.233688 0.497994
234 1 0.25053 0.239566 0.498342
394 1 0.276688 0.245341 0.496711
389 1 0.282395 0.234903 0.498411
386 1 0.288958 0.246161 0.49684
532 1 0.294119 0.2353 0.496557
462 1 0.301392 0.22849 0.498215
681 1 0.306802 0.238458 0.497165
466 1 0.314606 0.228795 0.49686
540 1 0.300437 0.248137 0.496947
679 1 0.31224 0.248711 0.498807
610 1 0.339884 0.23355 0.497084
598 1 0.318775 0.23958 0.497027
456 1 0.326109 0.230429 0.497939
460 1 0.330944 0.242511 0.496082
689 1 0.343643 0.244328 0.499658
683 1 0.352772 0.232892 0.497438
616 1 0.362344 0.23561 0.501008
529 1 0.222947 0.261241 0.499419
448 1 0.204753 0.259173 0.499598
459 1 0.241957 0.250565 0.49905
378 1 0.249446 0.262609 0.499247
379 1 0.229609 0.250623 0.499457
531 1 0.261363 0.264643 0.498583
384 1 0.267496 0.253641 0.497891
242 1 0.254812 0.253035 0.49797
450 1 0.274318 0.265443 0.497059
455 1 0.292592 0.258844 0.497067
461 1 0.285392 0.268343 0.497282
463 1 0.279266 0.256137 0.498513
673 1 0.308882 0.270298 0.499312
609 1 0.297846 0.269913 0.498435
382 1 0.305324 0.25892 0.498372
675 1 0.316521 0.260167 0.499685
539 1 0.339254 0.265396 0.499791
536 1 0.335384 0.252811 0.498095
677 1 0.327753 0.26318 0.500045
599 1 0.324035 0.251997 0.498216
672 1 0.352071 0.268734 0.501103
634 1 0.0143005 0.290855 0.499416
851 1 0.0249141 0.296789 0.499428
781 1 0.0356222 0.289308 0.500166
1063 1 0.0673406 0.296102 0.500668
856 1 0.056892 0.29013 0.499209
927 1 0.078411 0.277089 0.500067
725 1 0.130614 0.29282 0.500385
451 1 0.239688 0.272012 0.49928
527 1 0.244735 0.282983 0.49838
522 1 0.231552 0.282182 0.499253
661 1 0.235909 0.293633 0.498969
381 1 0.254412 0.273991 0.498865
453 1 0.257274 0.286466 0.498444
534 1 0.266008 0.275187 0.497057
383 1 0.27009 0.288461 0.498241
607 1 0.289202 0.279104 0.497782
682 1 0.27706 0.277772 0.497187
596 1 0.280918 0.290198 0.4984
528 1 0.293082 0.291994 0.499074
538 1 0.302085 0.281798 0.498165
608 1 0.313598 0.282826 0.499095
526 1 0.316143 0.29502 0.500026
594 1 0.304951 0.294653 0.49783
606 1 0.320571 0.272942 0.498952
744 1 0.324234 0.285856 0.499865
845 1 0.00380106 0.309542 0.499402
710 1 0.0127214 0.302298 0.498808
917 1 0.0243489 0.308138 0.500334
850 1 0.0452756 0.308873 0.500192
846 1 0.034409 0.313346 0.499577
923 1 0.0558397 0.301627 0.499519
925 1 0.0556108 0.31451 0.498659
788 1 0.0652845 0.308001 0.498552
797 1 0.0878059 0.294452 0.499928
861 1 0.076907 0.302873 0.499543
852 1 0.0778677 0.314436 0.498886
662 1 0.247512 0.295084 0.497826
946 1 0.245739 0.316808 0.499115
807 1 0.240948 0.305311 0.49927
805 1 0.228122 0.303618 0.499968
866 1 0.265429 0.30806 0.498997
593 1 0.252307 0.305904 0.499139
808 1 0.260673 0.296201 0.499299
600 1 0.273131 0.300728 0.498392
880 1 0.277668 0.311274 0.498785
524 1 0.284754 0.300625 0.497771
806 1 0.289271 0.31332 0.498063
949 1 0.3014 0.314843 0.498434
669 1 0.308269 0.304272 0.499185
742 1 0.314157 0.316269 0.499408
523 1 0.297289 0.304356 0.497838
676 1 0.332674 0.307714 0.499982
674 1 0.339597 0.298791 0.499944
739 1 0.345042 0.311465 0.498503
743 1 0.362471 0.303765 0.499476
984 1 0.00721592 0.336142 0.499346
914 1 0.0253152 0.321107 0.499212
918 1 0.027301 0.333175 0.500237
786 1 0.0462896 0.321113 0.499119
921 1 0.0590552 0.340681 0.500529
993 1 0.0464417 0.335525 0.499324
996 1 0.0580025 0.327714 0.498715
855 1 0.089555 0.319825 0.500027
1001 1 0.144937 0.324382 0.499784
940 1 0.18685 0.334451 0.500751
1020 1 0.217224 0.33452 0.499971
1087 1 0.236907 0.325638 0.499694
1083 1 0.250095 0.327577 0.499341
1092 1 0.241308 0.335908 0.498901
1089 1 0.251535 0.338932 0.497958
1021 1 0.271417 0.333021 0.498432
1095 1 0.257656 0.317902 0.498282
1019 1 0.269532 0.320627 0.498991
737 1 0.26052 0.330723 0.498653
665 1 0.284242 0.33404 0.49852
738 1 0.279895 0.322358 0.498232
881 1 0.293184 0.326007 0.498246
595 1 0.305671 0.325611 0.499476
592 1 0.298272 0.336232 0.49892
1023 1 0.330881 0.330141 0.500199
740 1 0.337589 0.320046 0.499447
950 1 0.325991 0.318535 0.500044
812 1 0.318058 0.328673 0.499426
809 1 0.32287 0.340437 0.497769
958 1 0.353888 0.332866 0.500359
814 1 0.341709 0.331788 0.499134
819 1 0.349967 0.321624 0.499601
1057 1 0.0360608 0.342174 0.499565
1000 1 0.0915982 0.345425 0.501643
1233 1 0.205289 0.363143 0.499736
1086 1 0.211751 0.353336 0.499648
1093 1 0.233718 0.347264 0.498659
1088 1 0.249428 0.359915 0.499845
947 1 0.270359 0.353404 0.497821
951 1 0.256516 0.351666 0.499604
1022 1 0.264037 0.342738 0.498446
1090 1 0.262051 0.362568 0.5
810 1 0.27687 0.342422 0.498581
1025 1 0.280892 0.3537 0.499237
955 1 0.292963 0.355985 0.498996
948 1 0.288744 0.344772 0.499148
953 1 0.307079 0.358241 0.49898
1164 1 0.314833 0.348102 0.499478
1376 1 0.31785 0.359791 0.499361
1236 1 0.330378 0.363653 0.501378
1162 1 0.327466 0.352387 0.499056
886 1 0.335694 0.341539 0.499003
1289 1 0.207755 0.376041 0.499713
1231 1 0.216262 0.365331 0.498728
1299 1 0.229906 0.368322 0.499158
1228 1 0.26531 0.374103 0.500245
1234 1 0.273955 0.364294 0.49964
1091 1 0.286405 0.366383 0.498949
1161 1 0.28853 0.377564 0.499699
1232 1 0.309267 0.370107 0.499274
1024 1 0.298397 0.367251 0.499411
1303 1 0.30133 0.379726 0.499486
1432 1 0.262325 0.39584 0.501071
1369 1 0.270982 0.385219 0.499449
1229 1 0.293897 0.38869 0.499574
1372 1 0.300368 0.400513 0.500031
1441 1 0.323064 0.40484 0.499364
1510 1 0.313945 0.434348 0.499648
1533 1 0.492585 0.467056 0.500587
1639 1 0.233786 0.476273 0.500068
1924 1 0.269941 0.482608 0.500013
1997 1 0.274567 0.494545 0.499225
1790 1 0.290165 0.494909 0.498953
1866 1 0.302479 0.495547 0.49896
1859 1 0.310709 0.485527 0.50016
2703 1 0.454788 0.0178517 0.499257
2647 1 0.47927 0.0209079 0.501296
55 1 0.490731 0.0218617 0.499953
2776 1 0.472349 0.03031 0.500503
54 1 0.464469 0.0399655 0.5005
115 1 0.461016 0.0295147 0.499894
2781 1 0.489922 0.0445512 0.50071
2725 1 0.497118 0.0328393 0.500269
2788 1 0.47714 0.042123 0.500894
37 1 0.367969 0.0615579 0.501159
2627 1 0.402269 0.0554325 0.499785
263 1 0.450593 0.0601901 0.500237
52 1 0.433446 0.0480079 0.499809
2784 1 0.446591 0.0485139 0.500187
262 1 0.47066 0.0507657 0.500931
124 1 0.458473 0.0497194 0.500773
2320 1 0.0935612 0.0866955 0.50103
2468 1 0.113955 0.0860523 0.501108
266 1 0.442819 0.0712383 0.500629
193 1 0.450465 0.0829569 0.500838
192 1 0.430145 0.0704327 0.50039
2715 1 0.474069 0.0854156 0.500513
2717 1 0.46283 0.0840914 0.501105
2720 1 0.491898 0.0767294 0.500463
60 1 0.498164 0.08716 0.500926
155 1 0.0590639 0.109993 0.500719
2613 1 0.0807144 0.107746 0.499533
2537 1 0.0697123 0.102713 0.500748
18 1 0.10197 0.1065 0.501446
2678 1 0.113591 0.101773 0.501637
160 1 0.0904063 0.113554 0.501202
81 1 0.103419 0.0953563 0.503084
2467 1 0.126263 0.0967205 0.501554
2748 1 0.122593 0.108564 0.501283
2686 1 0.150213 0.109692 0.500185
126 1 0.424687 0.101671 0.498492
125 1 0.4323 0.091683 0.500479
194 1 0.454844 0.0956262 0.501129
131 1 0.443127 0.0946654 0.49938
196 1 0.465769 0.0965313 0.500706
127 1 0.458597 0.10665 0.501575
70 1 0.484119 0.10713 0.498933
123 1 0.478975 0.0968633 0.500981
69 1 0.491407 0.0967338 0.501491
2730 1 0.49637 0.108369 0.500686
157 1 0.0395823 0.125752 0.500839
82 1 0.0298291 0.118113 0.500099
84 1 0.0506736 0.13034 0.501722
2606 1 0.049627 0.117116 0.500831
366 1 0.0609374 0.1353 0.502524
230 1 0.0702369 0.126678 0.501286
86 1 0.0801338 0.13354 0.502169
2545 1 0.0696475 0.114959 0.50049
2479 1 0.0805939 0.119993 0.500311
83 1 0.111475 0.114567 0.501173
158 1 0.0923141 0.127844 0.501267
92 1 0.102629 0.132104 0.500979
2469 1 0.101418 0.119496 0.501805
87 1 0.112742 0.127047 0.501089
2751 1 0.123419 0.121916 0.500961
2677 1 0.134035 0.116194 0.500929
2611 1 0.12395 0.133833 0.5019
2544 1 0.157816 0.12199 0.499565
2745 1 0.147669 0.132367 0.500294
2676 1 0.143529 0.122675 0.502171
2615 1 0.167822 0.116102 0.499795
2551 1 0.193801 0.127181 0.499739
265 1 0.425698 0.134215 0.500318
399 1 0.418666 0.123236 0.500598
267 1 0.439227 0.115813 0.500211
413 1 0.44939 0.137044 0.500945
338 1 0.450901 0.116098 0.501807
337 1 0.444988 0.126663 0.50152
62 1 0.468068 0.127455 0.500402
129 1 0.456281 0.126243 0.500738
197 1 0.464577 0.11644 0.501509
133 1 0.475955 0.11773 0.501533
5461 1 0.500577 0.11965 0.499627
66 1 0.480647 0.128757 0.499287
64 1 0.487366 0.117969 0.501247
431 1 0.0192619 0.15132 0.500202
425 1 0.00958508 0.158339 0.500905
364 1 0.00959074 0.144074 0.499926
363 1 0.0185423 0.135904 0.501301
352 1 0.0295886 0.143611 0.50139
225 1 0.0390666 0.13733 0.502021
291 1 0.0314316 0.155401 0.501525
284 1 0.0416722 0.150491 0.502514
296 1 0.0515899 0.155693 0.501315
221 1 0.05057 0.142735 0.501716
224 1 0.0616253 0.146671 0.50229
300 1 0.0731073 0.152862 0.501369
295 1 0.0710637 0.140745 0.501447
367 1 0.0829581 0.146356 0.502355
226 1 0.0931288 0.140547 0.501225
297 1 0.0930199 0.153087 0.500837
231 1 0.103431 0.146858 0.501495
94 1 0.114081 0.152902 0.501606
2750 1 0.12533 0.157656 0.500885
2538 1 0.123051 0.14597 0.500689
88 1 0.112476 0.139822 0.500428
20 1 0.135846 0.139695 0.500713
161 1 0.148328 0.157585 0.500752
89 1 0.136825 0.15103 0.500592
2680 1 0.169798 0.155924 0.500526
2610 1 0.192893 0.160037 0.499178
2548 1 0.182622 0.149112 0.500486
2542 1 0.201677 0.153057 0.499825
341 1 0.421518 0.155336 0.500679
335 1 0.442997 0.146732 0.500912
549 1 0.447586 0.160012 0.501876
481 1 0.454136 0.148459 0.501592
475 1 0.433643 0.157785 0.501296
269 1 0.460839 0.138292 0.501413
342 1 0.467443 0.14925 0.501984
63 1 0.473737 0.138973 0.500898
411 1 0.473474 0.160334 0.502643
128 1 0.479055 0.149667 0.501721
61 1 0.49189 0.149381 0.500647
130 1 0.486041 0.140005 0.501335
136 1 0.497881 0.139635 0.500574
3220 1 0.00862834 0.17021 0.501233
358 1 0.021385 0.162618 0.501951
3218 1 0.0195298 0.175126 0.503241
437 1 0.0408315 0.172067 0.503694
356 1 0.030263 0.169303 0.502308
294 1 0.0407842 0.161727 0.501586
433 1 0.0314664 0.18125 0.502692
362 1 0.0623349 0.173164 0.501542
292 1 0.0523956 0.167026 0.502563
298 1 0.0624982 0.15991 0.500338
222 1 0.0516463 0.178791 0.502636
90 1 0.0835148 0.170667 0.50139
227 1 0.0824655 0.158255 0.501437
369 1 0.0724557 0.165282 0.50275
439 1 0.0732728 0.178429 0.502162
159 1 0.103038 0.158824 0.501804
509 1 0.0956183 0.177987 0.501374
232 1 0.0938986 0.165496 0.500823
368 1 0.10553 0.170771 0.500565
229 1 0.116341 0.175413 0.501535
304 1 0.128483 0.169604 0.501705
162 1 0.114258 0.164969 0.502455
163 1 0.137539 0.162662 0.501535
375 1 0.138569 0.175346 0.500998
370 1 0.156248 0.174866 0.502768
22 1 0.178947 0.162207 0.500462
2742 1 0.159102 0.16281 0.500444
27 1 0.177735 0.174549 0.500036
97 1 0.200132 0.174116 0.500154
303 1 0.188639 0.170436 0.501011
164 1 0.191052 0.182183 0.501006
2753 1 0.211811 0.178631 0.499184
322 1 0.395748 0.174221 0.499964
327 1 0.404621 0.165374 0.500716
476 1 0.415712 0.16579 0.501504
391 1 0.407318 0.176447 0.499779
272 1 0.426704 0.16639 0.49952
407 1 0.421132 0.17717 0.500826
402 1 0.433863 0.176988 0.500823
410 1 0.446338 0.18056 0.500388
409 1 0.451703 0.169967 0.501973
270 1 0.459763 0.159675 0.501178
486 1 0.470819 0.182009 0.502339
132 1 0.464913 0.172081 0.502672
487 1 0.458009 0.181554 0.502134
343 1 0.478507 0.170255 0.502465
348 1 0.489411 0.172039 0.50188
556 1 0.485143 0.15994 0.503138
195 1 0.496084 0.160658 0.501621
429 1 0.0100605 0.182191 0.503065
577 1 0.0192399 0.187668 0.504133
499 1 0.00865058 0.194312 0.50437
427 1 0.0193975 0.199244 0.50328
436 1 0.0412202 0.197929 0.503598
502 1 0.0420649 0.185515 0.503355
641 1 0.0298146 0.193908 0.503938
508 1 0.0526473 0.190782 0.502462
435 1 0.0630384 0.185195 0.50287
645 1 0.0620597 0.19686 0.502005
575 1 0.0515472 0.203385 0.501839
503 1 0.0836964 0.184962 0.50216
432 1 0.0736832 0.19079 0.502009
510 1 0.0849766 0.197357 0.502696
514 1 0.0737742 0.202064 0.502194
441 1 0.10574 0.194712 0.503004
511 1 0.0949835 0.189312 0.501892
438 1 0.106433 0.183415 0.501534
585 1 0.0954693 0.202071 0.502775
506 1 0.127492 0.183103 0.502778
583 1 0.116357 0.200028 0.503482
372 1 0.116866 0.187201 0.502549
587 1 0.128018 0.195577 0.503467
443 1 0.149 0.183271 0.501342
302 1 0.137301 0.187998 0.500986
365 1 0.137985 0.201873 0.501085
309 1 0.147616 0.194293 0.50162
95 1 0.159215 0.189212 0.500845
440 1 0.159223 0.200644 0.501463
228 1 0.170849 0.195853 0.500439
23 1 0.169062 0.183524 0.501556
301 1 0.180392 0.187873 0.501348
373 1 0.182669 0.201261 0.501329
307 1 0.204073 0.185428 0.500749
311 1 0.192693 0.194059 0.501051
239 1 0.204652 0.198171 0.501174
102 1 0.217012 0.189486 0.500431
30 1 0.215714 0.200934 0.50199
543 1 0.381733 0.195234 0.500573
478 1 0.373544 0.203191 0.501325
396 1 0.399603 0.185418 0.500292
473 1 0.406704 0.195801 0.501528
465 1 0.393746 0.196199 0.500691
336 1 0.418633 0.197742 0.50125
545 1 0.426748 0.188065 0.500568
328 1 0.415196 0.185951 0.501036
406 1 0.430817 0.198347 0.501344
414 1 0.443926 0.200175 0.502079
480 1 0.451898 0.192145 0.502578
483 1 0.439441 0.189718 0.50142
630 1 0.469031 0.203997 0.503508
558 1 0.475153 0.192806 0.503136
484 1 0.457834 0.201899 0.50254
560 1 0.464063 0.191986 0.503205
416 1 0.494461 0.183042 0.502128
417 1 0.480335 0.203719 0.501954
271 1 0.487295 0.193317 0.501318
420 1 0.498853 0.194706 0.501815
557 1 0.48176 0.181533 0.502103
415 1 0.49232 0.205209 0.503552
426 1 0.00851259 0.205249 0.503226
711 1 0.0109811 0.218108 0.504733
639 1 0.0205554 0.212212 0.505285
430 1 0.0211752 0.223822 0.503349
569 1 0.0305779 0.205917 0.504101
501 1 0.0315899 0.217594 0.504364
574 1 0.0418899 0.210225 0.50283
504 1 0.0427943 0.221587 0.502974
648 1 0.0540885 0.215001 0.501761
657 1 0.0645786 0.220623 0.503125
505 1 0.0628456 0.207655 0.503617
650 1 0.0530698 0.226263 0.502667
644 1 0.086167 0.219728 0.501993
572 1 0.0743137 0.213686 0.503014
647 1 0.0853468 0.20835 0.503364
579 1 0.096138 0.212744 0.502489
719 1 0.10757 0.218923 0.501838
376 1 0.106864 0.206518 0.50277
512 1 0.0980103 0.224922 0.503628
584 1 0.129457 0.218533 0.502461
442 1 0.126778 0.206509 0.501806
582 1 0.117736 0.213956 0.501776
652 1 0.119305 0.224439 0.501436
444 1 0.139814 0.21366 0.501457
308 1 0.148779 0.206953 0.499946
581 1 0.138537 0.226445 0.500442
516 1 0.149154 0.220032 0.500938
449 1 0.159493 0.212691 0.500178
371 1 0.170749 0.206723 0.501527
445 1 0.182136 0.224648 0.501211
240 1 0.200844 0.221421 0.501735
236 1 0.194848 0.205032 0.500754
165 1 0.190145 0.216845 0.501456
169 1 0.226313 0.204951 0.500598
241 1 0.2113 0.224114 0.49883
99 1 0.217747 0.21399 0.501216
474 1 0.377648 0.215918 0.500803
477 1 0.385703 0.206234 0.500719
404 1 0.369293 0.226535 0.501365
479 1 0.396707 0.206843 0.502505
268 1 0.404217 0.216814 0.502595
482 1 0.390319 0.216941 0.501726
611 1 0.421537 0.207361 0.503214
400 1 0.410374 0.206813 0.502281
615 1 0.42837 0.218179 0.5019
548 1 0.416364 0.218254 0.502414
554 1 0.436222 0.20949 0.502164
408 1 0.4509 0.210513 0.502271
553 1 0.440868 0.220343 0.501888
767 1 0.454092 0.223534 0.502436
628 1 0.474581 0.213741 0.503749
555 1 0.46221 0.21352 0.503319
629 1 0.467206 0.223848 0.503191
3431 1 0.479066 0.226034 0.502136
490 1 0.497731 0.215362 0.501558
559 1 0.485945 0.215286 0.502361
3361 1 0.490731 0.225946 0.502558
712 1 0.0129537 0.242564 0.504482
565 1 0.00209203 0.237664 0.50293
642 1 0.0109141 0.230072 0.503478
713 1 0.0221694 0.234995 0.503635
714 1 0.00129657 0.249515 0.501989
777 1 0.0234054 0.247614 0.50274
500 1 0.0337476 0.242125 0.503739
570 1 0.0329707 0.228688 0.503407
643 1 0.0441549 0.245637 0.502458
573 1 0.0436841 0.23385 0.503101
571 1 0.0536378 0.240643 0.501785
723 1 0.0651954 0.245571 0.502148
729 1 0.063425 0.232868 0.503895
726 1 0.074163 0.226439 0.502384
728 1 0.0856943 0.231876 0.503146
646 1 0.0758292 0.240114 0.502862
654 1 0.0866854 0.244046 0.502721
586 1 0.106537 0.242883 0.503315
717 1 0.0965765 0.236291 0.502105
578 1 0.109026 0.231185 0.501815
722 1 0.129947 0.243435 0.5018
656 1 0.118947 0.238779 0.503089
515 1 0.128569 0.230515 0.501562
651 1 0.140009 0.237981 0.501258
454 1 0.150047 0.231379 0.500747
658 1 0.149149 0.243986 0.50176
374 1 0.158829 0.236768 0.501365
312 1 0.170722 0.243119 0.50066
513 1 0.171654 0.231777 0.500432
447 1 0.182502 0.235763 0.50033
590 1 0.159199 0.250963 0.500738
519 1 0.181136 0.249174 0.500111
457 1 0.191379 0.241275 0.50026
377 1 0.193579 0.229909 0.501579
244 1 0.214767 0.238076 0.4998
172 1 0.223083 0.226686 0.501289
310 1 0.234101 0.228058 0.499793
388 1 0.239181 0.239547 0.500604
753 1 0.355148 0.245227 0.499782
551 1 0.382275 0.227401 0.502289
546 1 0.375554 0.23746 0.500344
684 1 0.369099 0.247368 0.501106
687 1 0.381528 0.24959 0.500865
692 1 0.387168 0.238 0.502024
620 1 0.400733 0.237102 0.501145
542 1 0.395318 0.227625 0.502471
622 1 0.406026 0.24968 0.502477
621 1 0.394314 0.248283 0.502298
547 1 0.409368 0.227564 0.502403
552 1 0.425386 0.241891 0.501919
619 1 0.422972 0.229123 0.50306
614 1 0.412652 0.239382 0.502719
3362 1 0.451111 0.243715 0.502339
544 1 0.447021 0.232506 0.501591
470 1 0.433993 0.232606 0.501675
550 1 0.438114 0.243916 0.502979
3574 1 0.471088 0.234642 0.503504
837 1 0.46395 0.244052 0.503418
700 1 0.459405 0.23481 0.502997
694 1 0.476322 0.245711 0.502982
696 1 0.483644 0.236096 0.500753
839 1 0.495926 0.23678 0.501583
3292 1 0.488192 0.246822 0.502569
709 1 0.0127634 0.254201 0.502958
635 1 0.0139456 0.265236 0.501238
563 1 0.00340321 0.261074 0.500806
775 1 0.0249883 0.259261 0.502509
787 1 0.0341192 0.253382 0.503458
707 1 0.0357804 0.265701 0.502213
779 1 0.0261483 0.272023 0.501985
783 1 0.0457765 0.271547 0.501763
638 1 0.0452021 0.259076 0.50242
580 1 0.054096 0.252277 0.501956
715 1 0.0569929 0.26551 0.501707
791 1 0.0657935 0.258784 0.502743
784 1 0.067967 0.271657 0.501434
720 1 0.0862176 0.257991 0.501602
576 1 0.0758191 0.252335 0.501441
789 1 0.0877982 0.272381 0.501402
859 1 0.0768813 0.264777 0.50178
655 1 0.0966807 0.249639 0.503324
653 1 0.0966725 0.26359 0.5022
858 1 0.108427 0.269865 0.50259
792 1 0.107818 0.255999 0.502982
790 1 0.118651 0.248634 0.501825
724 1 0.130277 0.269026 0.500567
589 1 0.119372 0.263466 0.500878
733 1 0.128969 0.257123 0.502191
588 1 0.1397 0.251192 0.502215
796 1 0.150817 0.268592 0.501475
860 1 0.140031 0.263495 0.501544
525 1 0.150264 0.256824 0.501954
660 1 0.172062 0.268454 0.501165
801 1 0.17215 0.255852 0.500969
649 1 0.160913 0.262754 0.500868
380 1 0.183452 0.262011 0.50163
803 1 0.194506 0.253231 0.499898
518 1 0.19351 0.26552 0.499879
520 1 0.203635 0.270128 0.502441
238 1 0.216592 0.252237 0.500462
316 1 0.215228 0.269853 0.499849
452 1 0.226522 0.273058 0.500912
315 1 0.236573 0.261197 0.499982
685 1 0.348496 0.256803 0.499858
680 1 0.359784 0.255521 0.501374
617 1 0.363876 0.271194 0.500696
627 1 0.371524 0.258997 0.501106
761 1 0.384978 0.259665 0.501768
691 1 0.377345 0.269977 0.501039
763 1 0.399478 0.260518 0.502157
690 1 0.405434 0.272226 0.501434
686 1 0.390566 0.271768 0.501087
697 1 0.410302 0.260989 0.502325
625 1 0.424544 0.263897 0.503678
699 1 0.430539 0.253592 0.50181
613 1 0.417909 0.251819 0.501889
3435 1 0.444118 0.254397 0.502229
695 1 0.437513 0.264852 0.502558
618 1 0.450767 0.265404 0.502656
769 1 0.461676 0.266914 0.503763
3433 1 0.468249 0.256769 0.502511
823 1 0.474486 0.267548 0.503429
626 1 0.45662 0.253838 0.501948
766 1 0.480929 0.256878 0.501619
3503 1 0.493393 0.258611 0.501907
830 1 0.485478 0.269268 0.502857
838 1 0.49676 0.27071 0.503522
774 1 0.00364543 0.271776 0.500922
778 1 0.014069 0.277855 0.500189
848 1 0.0041099 0.285548 0.501166
708 1 0.02351 0.283171 0.501171
785 1 0.0353869 0.278217 0.500352
857 1 0.0457426 0.283018 0.499826
849 1 0.0474868 0.295029 0.499869
716 1 0.0679689 0.282806 0.500228
721 1 0.0570674 0.277682 0.501177
853 1 0.0773724 0.289418 0.499923
999 1 0.0895086 0.283805 0.501494
862 1 0.0995727 0.287931 0.50041
718 1 0.109734 0.282396 0.501141
933 1 0.0984157 0.274954 0.502268
793 1 0.108846 0.292907 0.500053
795 1 0.131204 0.279739 0.502753
730 1 0.118889 0.275994 0.501639
732 1 0.12061 0.28851 0.50129
802 1 0.152149 0.292866 0.502057
731 1 0.141873 0.275993 0.50096
867 1 0.141463 0.287784 0.501698
659 1 0.152433 0.281125 0.501328
735 1 0.16391 0.288088 0.50163
727 1 0.161983 0.275357 0.501878
878 1 0.173674 0.279037 0.501866
666 1 0.173936 0.293311 0.500447
736 1 0.195971 0.291343 0.501493
458 1 0.183864 0.274012 0.501235
664 1 0.183167 0.285129 0.502188
591 1 0.194228 0.280508 0.501219
597 1 0.218014 0.28194 0.50025
446 1 0.204627 0.280833 0.500216
877 1 0.212049 0.291406 0.500771
521 1 0.224494 0.291313 0.501445
813 1 0.335382 0.285864 0.500963
671 1 0.33122 0.274748 0.500641
757 1 0.355872 0.280008 0.500679
749 1 0.360232 0.291428 0.501309
670 1 0.343355 0.277625 0.499227
750 1 0.347148 0.290162 0.499766
678 1 0.369884 0.281335 0.500563
817 1 0.37095 0.294488 0.499613
746 1 0.380403 0.284101 0.50094
762 1 0.404722 0.292079 0.501465
751 1 0.398727 0.279738 0.50087
759 1 0.391721 0.289045 0.502098
623 1 0.415991 0.272175 0.502372
624 1 0.423283 0.281663 0.502888
688 1 0.415413 0.2934 0.502424
693 1 0.411355 0.282075 0.501497
884 1 0.430736 0.273928 0.50294
829 1 0.427324 0.294319 0.50334
832 1 0.446465 0.286552 0.502241
760 1 0.441951 0.275103 0.503178
899 1 0.433825 0.285621 0.503099
698 1 0.4539 0.277437 0.502385
756 1 0.459833 0.287572 0.502707
764 1 0.471478 0.289999 0.503014
3502 1 0.466387 0.278031 0.504346
3573 1 0.477152 0.279335 0.501917
768 1 0.483705 0.290046 0.502364
969 1 0.490552 0.280204 0.501998
907 1 0.495832 0.291764 0.503594
776 1 0.00328233 0.298361 0.500044
782 1 0.0140288 0.31484 0.498942
922 1 0.0356318 0.301216 0.500953
935 1 0.0888887 0.307203 0.500525
799 1 0.099238 0.299845 0.500587
798 1 0.10944 0.305744 0.501076
937 1 0.100519 0.312885 0.500908
945 1 0.121785 0.313665 0.50098
804 1 0.13232 0.306796 0.501949
794 1 0.120594 0.300425 0.502806
938 1 0.143304 0.312597 0.501557
865 1 0.142374 0.300562 0.501434
1014 1 0.154033 0.305215 0.500901
1002 1 0.154297 0.317782 0.501346
1018 1 0.174665 0.317828 0.500692
869 1 0.175248 0.305653 0.501475
875 1 0.165047 0.299751 0.501788
939 1 0.164414 0.311039 0.500907
944 1 0.197439 0.315787 0.500538
874 1 0.185537 0.309705 0.500501
879 1 0.195358 0.302763 0.500561
734 1 0.185002 0.298113 0.501697
667 1 0.2174 0.301681 0.501915
871 1 0.204579 0.299428 0.500857
663 1 0.207126 0.31079 0.501718
952 1 0.218486 0.313091 0.502015
873 1 0.232751 0.31488 0.500834
604 1 0.329085 0.296654 0.500646
668 1 0.321043 0.306864 0.499391
747 1 0.351089 0.301021 0.501496
883 1 0.356669 0.313212 0.501481
752 1 0.383648 0.298095 0.500778
765 1 0.374875 0.305305 0.501925
885 1 0.368363 0.315807 0.501819
822 1 0.387429 0.309892 0.502577
831 1 0.395987 0.301076 0.502133
825 1 0.399783 0.314298 0.502408
902 1 0.407735 0.304071 0.503045
964 1 0.420129 0.30495 0.502858
828 1 0.423841 0.314932 0.50292
821 1 0.411753 0.314785 0.503105
835 1 0.432951 0.303966 0.502768
754 1 0.439864 0.295759 0.501459
898 1 0.452821 0.297225 0.503298
827 1 0.444179 0.307768 0.501885
758 1 0.435969 0.316032 0.502517
833 1 0.456655 0.309506 0.502074
836 1 0.463012 0.299641 0.502316
972 1 0.468801 0.309036 0.502142
973 1 0.475428 0.300541 0.502093
903 1 0.487658 0.301238 0.503008
826 1 0.480476 0.311277 0.502457
979 1 0.492561 0.312992 0.503412
919 1 0.0163389 0.329274 0.500169
912 1 0.00577854 0.323424 0.500497
1062 1 0.0363194 0.327636 0.499117
928 1 0.0671516 0.320569 0.499601
994 1 0.0793607 0.326395 0.500019
926 1 0.0693713 0.332611 0.50123
995 1 0.080715 0.339247 0.501565
854 1 0.0917576 0.331269 0.499861
924 1 0.10263 0.325887 0.500366
1071 1 0.102444 0.337706 0.50067
997 1 0.112858 0.332074 0.500537
863 1 0.111612 0.317804 0.501906
1077 1 0.123171 0.339512 0.500662
800 1 0.134442 0.319611 0.500046
930 1 0.122888 0.324854 0.501235
1003 1 0.132966 0.331998 0.500373
1131 1 0.145238 0.337081 0.501315
942 1 0.15521 0.32976 0.501901
936 1 0.167739 0.336392 0.500844
941 1 0.164449 0.323922 0.500371
1153 1 0.175413 0.329156 0.503431
868 1 0.185703 0.321899 0.501114
870 1 0.198392 0.339297 0.498997
1221 1 0.196178 0.328529 0.50213
1016 1 0.222715 0.323995 0.499871
876 1 0.211172 0.321701 0.50091
1017 1 0.206193 0.331889 0.502196
1152 1 0.229903 0.336784 0.500469
741 1 0.310087 0.338388 0.49974
954 1 0.362021 0.324523 0.501192
811 1 0.380463 0.317865 0.502056
962 1 0.377959 0.339468 0.500455
745 1 0.373016 0.327943 0.501191
888 1 0.364842 0.337771 0.501093
901 1 0.384917 0.330803 0.50355
957 1 0.396157 0.33389 0.502466
748 1 0.404101 0.323955 0.503688
755 1 0.390939 0.321955 0.501919
887 1 0.408942 0.334465 0.502772
1029 1 0.420975 0.336008 0.504251
818 1 0.417589 0.325316 0.502539
896 1 0.428471 0.325775 0.503798
971 1 0.448716 0.317389 0.502439
820 1 0.433464 0.336487 0.50409
893 1 0.440208 0.327166 0.503536
894 1 0.452529 0.328529 0.502918
960 1 0.445334 0.339007 0.504834
1041 1 0.472399 0.319693 0.502467
1038 1 0.460252 0.319596 0.503937
895 1 0.465352 0.330458 0.503918
891 1 0.457997 0.339034 0.504741
1110 1 0.475975 0.331339 0.503951
1178 1 0.496631 0.324798 0.50332
897 1 0.485306 0.322374 0.503099
1181 1 0.488887 0.334298 0.503341
989 1 0.00641616 0.349969 0.49951
1056 1 0.00665182 0.362667 0.503052
990 1 0.0160232 0.342177 0.500055
916 1 0.0162571 0.355525 0.50083
1129 1 0.037672 0.353995 0.501775
1055 1 0.0278763 0.359767 0.501952
920 1 0.0266205 0.347773 0.49928
1067 1 0.0481151 0.360214 0.501265
988 1 0.0477766 0.346229 0.50064
992 1 0.0588885 0.352811 0.501619
1061 1 0.0696726 0.34496 0.500417
986 1 0.0808536 0.351917 0.501254
1066 1 0.0714307 0.357723 0.50212
1145 1 0.0914571 0.35728 0.501043
1004 1 0.101051 0.350784 0.500357
934 1 0.112273 0.345663 0.500739
1073 1 0.112056 0.357813 0.500634
1006 1 0.135516 0.343768 0.500322
998 1 0.135441 0.356456 0.501837
1074 1 0.125116 0.362602 0.50069
1076 1 0.123694 0.351234 0.500029
1005 1 0.145034 0.348807 0.501672
932 1 0.156071 0.341564 0.501625
1009 1 0.158149 0.353545 0.501401
1008 1 0.148058 0.36179 0.500611
1149 1 0.177879 0.340869 0.50127
1011 1 0.168183 0.34884 0.501453
872 1 0.169993 0.360225 0.501705
1157 1 0.180486 0.354391 0.501
1293 1 0.191384 0.359879 0.49928
1081 1 0.199636 0.351099 0.500068
1085 1 0.189349 0.347309 0.502672
1084 1 0.210082 0.342336 0.500102
1288 1 0.22478 0.357649 0.499924
1013 1 0.221612 0.346046 0.500554
1160 1 0.245821 0.348169 0.498648
1015 1 0.237588 0.357368 0.501054
882 1 0.30145 0.347797 0.499583
1163 1 0.339483 0.352822 0.499943
1166 1 0.356483 0.347153 0.500418
1100 1 0.350016 0.356594 0.50109
1239 1 0.363006 0.357604 0.500981
1167 1 0.346064 0.343705 0.500659
1103 1 0.370021 0.349082 0.500355
1097 1 0.380886 0.351936 0.502394
1098 1 0.373716 0.360391 0.501765
1165 1 0.386105 0.363356 0.503273
816 1 0.388311 0.342839 0.502318
815 1 0.401343 0.343816 0.502895
963 1 0.392684 0.353349 0.504195
1026 1 0.404672 0.354583 0.502627
889 1 0.412968 0.345947 0.503504
1031 1 0.425221 0.347325 0.504436
1101 1 0.416995 0.356136 0.504004
1310 1 0.429333 0.357799 0.505492
1027 1 0.436589 0.348276 0.504793
1030 1 0.449806 0.350359 0.503378
1028 1 0.440709 0.35905 0.506156
959 1 0.453577 0.362529 0.505718
1037 1 0.461543 0.351557 0.503946
892 1 0.468583 0.342577 0.50433
890 1 0.473872 0.353961 0.504423
1039 1 0.498638 0.356222 0.505087
824 1 0.481022 0.34274 0.504894
970 1 0.487655 0.355527 0.505195
900 1 0.491619 0.344117 0.505513
1136 1 0.0200476 0.3794 0.502721
1130 1 0.0184162 0.366347 0.500739
1124 1 0.00965936 0.37541 0.502029
1052 1 0.0390033 0.366193 0.501761
1133 1 0.0297053 0.371608 0.502303
1068 1 0.0394809 0.378787 0.501921
1132 1 0.0295521 0.385343 0.502161
1065 1 0.0603977 0.364862 0.501776
1060 1 0.0491556 0.372207 0.501958
1135 1 0.0628134 0.378065 0.502324
1207 1 0.04944 0.383458 0.502109
1140 1 0.0723912 0.385036 0.502717
1144 1 0.083006 0.376197 0.50301
1220 1 0.0717876 0.371029 0.501824
1215 1 0.0810482 0.363657 0.501741
1141 1 0.0936609 0.38254 0.503187
1351 1 0.104262 0.376922 0.502434
1064 1 0.0927703 0.369588 0.502377
1072 1 0.102964 0.363596 0.502504
1075 1 0.126244 0.376577 0.502258
1219 1 0.117313 0.383764 0.502685
1218 1 0.115055 0.369871 0.501921
1147 1 0.135267 0.368137 0.500836
929 1 0.136556 0.380331 0.501358
1079 1 0.147671 0.373056 0.501982
1150 1 0.160104 0.378393 0.502026
1151 1 0.148751 0.38403 0.502633
931 1 0.158673 0.367063 0.501942
864 1 0.169879 0.373512 0.500829
1080 1 0.170074 0.38495 0.501898
1082 1 0.181914 0.366478 0.501591
1291 1 0.182742 0.377225 0.501526
1363 1 0.196176 0.383591 0.501794
1156 1 0.195199 0.37249 0.500699
1158 1 0.221782 0.376611 0.500399
1364 1 0.246322 0.380427 0.500633
1435 1 0.24123 0.369918 0.499986
1012 1 0.234179 0.380252 0.501087
1155 1 0.258796 0.384339 0.501023
1159 1 0.254362 0.37086 0.500174
1096 1 0.276423 0.375714 0.4997
1226 1 0.315743 0.38002 0.500459
1240 1 0.335936 0.374759 0.501584
1304 1 0.338974 0.386115 0.500923
1305 1 0.32743 0.382674 0.500436
1235 1 0.321897 0.371282 0.500693
1308 1 0.342422 0.365272 0.501774
956 1 0.358353 0.378266 0.501303
1306 1 0.354783 0.367314 0.501378
1237 1 0.346239 0.376736 0.502711
1169 1 0.365895 0.368839 0.50093
1373 1 0.370229 0.381359 0.502901
1099 1 0.377991 0.371987 0.501703
1380 1 0.382328 0.383817 0.501648
1315 1 0.397287 0.364913 0.503608
1170 1 0.394232 0.384957 0.501737
1238 1 0.388209 0.374599 0.502824
1168 1 0.401787 0.375002 0.504088
1382 1 0.410539 0.365822 0.503872
1456 1 0.414075 0.377427 0.504102
1172 1 0.427267 0.380087 0.504564
1105 1 0.422167 0.367687 0.505234
1314 1 0.438748 0.3812 0.505022
1174 1 0.433142 0.370348 0.505951
1106 1 0.445007 0.37068 0.505125
1171 1 0.450863 0.382353 0.505357
961 1 0.465584 0.363415 0.504776
1379 1 0.459598 0.373997 0.503738
968 1 0.472465 0.37513 0.505041
1034 1 0.464607 0.385078 0.504246
1033 1 0.478741 0.364645 0.506281
1035 1 0.483731 0.376492 0.505627
965 1 0.496197 0.38028 0.50582
967 1 0.490301 0.367151 0.50626
3985 1 0.00917977 0.386527 0.502117
3918 1 0.020608 0.392598 0.503355
1337 1 0.0190721 0.404763 0.501833
1198 1 0.00906952 0.398055 0.502471
1058 1 0.0295766 0.398705 0.501355
1211 1 0.0401121 0.402634 0.502314
1139 1 0.0402545 0.39036 0.500476
1138 1 0.0623951 0.402133 0.502416
1203 1 0.0504198 0.397227 0.501736
1137 1 0.060109 0.38931 0.500852
1273 1 0.0503716 0.410592 0.50115
1070 1 0.084152 0.389136 0.501627
1485 1 0.0846955 0.403296 0.501419
1069 1 0.0743178 0.396898 0.502003
1285 1 0.0734015 0.408409 0.501608
1212 1 0.105048 0.389274 0.502263
1214 1 0.0939898 0.394751 0.501518
1352 1 0.0960001 0.408404 0.502331
1282 1 0.105016 0.400923 0.501435
1010 1 0.127414 0.389309 0.502396
1414 1 0.115153 0.408877 0.501904
1143 1 0.116854 0.395453 0.502758
1007 1 0.128109 0.400781 0.502267
1142 1 0.140383 0.392073 0.502904
1078 1 0.150836 0.39712 0.503167
1281 1 0.138718 0.405193 0.503245
1354 1 0.160578 0.391228 0.502282
1287 1 0.170646 0.396509 0.502691
1419 1 0.161128 0.404084 0.502539
943 1 0.181157 0.388398 0.50229
1148 1 0.181488 0.401978 0.502843
1362 1 0.190563 0.393612 0.503181
1222 1 0.195473 0.405778 0.50238
1425 1 0.203823 0.394838 0.501321
1094 1 0.212965 0.386205 0.500896
1225 1 0.208862 0.406964 0.501888
1154 1 0.21617 0.397919 0.501637
1223 1 0.224845 0.387993 0.500173
1368 1 0.239752 0.401147 0.500639
1356 1 0.227094 0.401021 0.502052
1224 1 0.238551 0.390135 0.50243
1431 1 0.249844 0.391695 0.500614
1296 1 0.254723 0.403995 0.500925
1292 1 0.268391 0.406095 0.501635
1506 1 0.280843 0.40922 0.499439
1439 1 0.275044 0.396454 0.501163
1297 1 0.283035 0.38921 0.500108
1298 1 0.289424 0.399854 0.500938
1578 1 0.312034 0.399828 0.501374
1227 1 0.308823 0.389599 0.500026
1294 1 0.320571 0.392409 0.500286
1365 1 0.331225 0.394 0.500907
1446 1 0.33467 0.405034 0.500645
1301 1 0.351346 0.387274 0.501512
1300 1 0.343202 0.396684 0.501121
1230 1 0.355252 0.39933 0.502714
1447 1 0.346454 0.408191 0.501597
1377 1 0.363524 0.389656 0.501521
1509 1 0.374695 0.391827 0.502272
1374 1 0.368566 0.401318 0.50252
1302 1 0.379458 0.405267 0.502595
1381 1 0.407344 0.38642 0.503462
1521 1 0.386365 0.395447 0.501537
1451 1 0.399301 0.3964 0.503334
1378 1 0.3917 0.406008 0.502181
1307 1 0.403686 0.407841 0.503404
1383 1 0.411815 0.397968 0.503436
1453 1 0.419999 0.390217 0.503659
1312 1 0.423598 0.400075 0.502993
1525 1 0.431144 0.390807 0.505392
1523 1 0.416072 0.409462 0.502781
1458 1 0.447109 0.405263 0.503445
1241 1 0.435753 0.402209 0.50452
1242 1 0.443017 0.392906 0.504335
1317 1 0.454466 0.396836 0.503379
1245 1 0.475898 0.387755 0.504989
1102 1 0.467399 0.398171 0.503477
1384 1 0.478546 0.39898 0.502869
1032 1 0.486838 0.389848 0.504631
1309 1 0.490611 0.400248 0.503637
1269 1 0.00827532 0.410656 0.502841
1340 1 0.0106983 0.423518 0.502619
1134 1 0.0210594 0.4172 0.503598
1413 1 0.000758358 0.429622 0.503853
1274 1 0.0217153 0.430016 0.502818
1054 1 0.0313637 0.410234 0.503101
1272 1 0.0318251 0.421925 0.502335
1279 1 0.041579 0.416504 0.503859
1205 1 0.0433104 0.42851 0.502521
1213 1 0.0639571 0.415332 0.502855
1204 1 0.0523996 0.421386 0.502881
1343 1 0.0637923 0.427767 0.502051
1345 1 0.0869797 0.428684 0.503566
1416 1 0.0865569 0.41515 0.502234
1209 1 0.0747778 0.420299 0.501489
1338 1 0.0963831 0.420491 0.5029
1346 1 0.106201 0.415048 0.503132
1344 1 0.108416 0.42773 0.503141
1348 1 0.128263 0.412787 0.502495
1484 1 0.117565 0.419897 0.503387
1490 1 0.119443 0.431041 0.504358
1555 1 0.130433 0.424484 0.503218
1350 1 0.149767 0.4103 0.502043
1486 1 0.139548 0.417485 0.503713
1487 1 0.140585 0.430626 0.503147
1418 1 0.149632 0.422544 0.504122
1284 1 0.171922 0.408917 0.502922
1423 1 0.159676 0.416185 0.502613
1426 1 0.159434 0.42849 0.504066
1217 1 0.172397 0.420841 0.503388
1146 1 0.183756 0.425712 0.503806
1353 1 0.185473 0.412448 0.50323
1433 1 0.194015 0.424631 0.502862
1367 1 0.201452 0.415449 0.50416
1437 1 0.220939 0.410706 0.502138
1295 1 0.212295 0.41958 0.502473
1286 1 0.225903 0.422733 0.502142
1361 1 0.21712 0.430521 0.503182
1216 1 0.203706 0.429869 0.501851
1370 1 0.237939 0.422463 0.502419
1290 1 0.245737 0.411417 0.501316
1428 1 0.232801 0.412069 0.501574
1569 1 0.251073 0.424025 0.50021
1507 1 0.273184 0.418234 0.501523
1503 1 0.263266 0.426943 0.502168
1358 1 0.260491 0.416587 0.501408
1501 1 0.276022 0.430065 0.500299
1436 1 0.293751 0.411326 0.501187
1371 1 0.284553 0.41973 0.501425
1576 1 0.288724 0.43168 0.500211
1508 1 0.296201 0.422687 0.500052
1440 1 0.304456 0.411899 0.500327
1511 1 0.315149 0.41268 0.500325
1579 1 0.308824 0.424076 0.501597
1514 1 0.320912 0.422976 0.499517
1512 1 0.329185 0.414438 0.501934
1581 1 0.332013 0.426441 0.499965
1583 1 0.340908 0.418229 0.500295
1445 1 0.352688 0.418986 0.502187
1448 1 0.359311 0.408746 0.502301
1442 1 0.344678 0.428778 0.501526
1516 1 0.357074 0.430557 0.502595
1444 1 0.364068 0.421368 0.502321
1449 1 0.385272 0.414857 0.503933
1455 1 0.37693 0.422994 0.501868
1375 1 0.371916 0.412743 0.503375
1517 1 0.389312 0.424888 0.502658
1450 1 0.396998 0.416493 0.502267
1591 1 0.400415 0.428512 0.502862
1386 1 0.409666 0.419505 0.502706
1526 1 0.421824 0.420929 0.503548
1530 1 0.428204 0.41098 0.504297
1585 1 0.41221 0.431039 0.503315
1522 1 0.430808 0.426738 0.504868
1385 1 0.441816 0.426105 0.503078
1454 1 0.450499 0.417495 0.504944
1602 1 0.439065 0.415045 0.504165
1316 1 0.458641 0.409111 0.504001
1311 1 0.471142 0.410044 0.503582
1459 1 0.45488 0.429562 0.503429
1392 1 0.463128 0.420296 0.503119
1243 1 0.47561 0.421577 0.502866
1252 1 0.46727 0.431091 0.502572
1391 1 0.498343 0.424587 0.502837
1248 1 0.493188 0.412701 0.503108
1394 1 0.48768 0.422093 0.50244
1319 1 0.482166 0.411961 0.5038
1335 1 0.00133697 0.442501 0.503716
1403 1 0.0138903 0.447664 0.503992
1342 1 0.0105269 0.435828 0.502823
1263 1 0.00387309 0.454314 0.504167
1271 1 0.0246625 0.440682 0.502269
1410 1 0.0346057 0.447027 0.504033
1339 1 0.033201 0.433759 0.503762
1206 1 0.0448679 0.441032 0.503723
1278 1 0.0466334 0.454038 0.503306
1334 1 0.0231076 0.453533 0.502653
1210 1 0.0544354 0.433205 0.50387
1407 1 0.0541904 0.445238 0.503215
1280 1 0.0655131 0.439535 0.502921
1415 1 0.0652994 0.451883 0.503772
1347 1 0.0765248 0.433073 0.502066
1270 1 0.0766292 0.44607 0.502593
1349 1 0.0899116 0.450504 0.503596
1276 1 0.0872818 0.440502 0.503048
1208 1 0.0982674 0.433042 0.503441
1480 1 0.109814 0.43902 0.503204
1483 1 0.109729 0.450057 0.503249
1412 1 0.100612 0.445595 0.504293
1552 1 0.119986 0.444114 0.504638
1632 1 0.13068 0.449301 0.504416
1566 1 0.130361 0.436336 0.504301
1421 1 0.15106 0.435481 0.504624
1572 1 0.139996 0.444062 0.503951
1631 1 0.150735 0.448959 0.503502
1283 1 0.172371 0.433099 0.503651
1427 1 0.162211 0.440801 0.50359
1422 1 0.162375 0.453412 0.502212
1355 1 0.175097 0.447413 0.503588
1420 1 0.195494 0.438409 0.503777
1359 1 0.189802 0.448331 0.50321
1430 1 0.204006 0.450766 0.50077
1357 1 0.183472 0.438255 0.50255
1429 1 0.208275 0.439547 0.502276
1366 1 0.223346 0.441615 0.502467
1495 1 0.214197 0.451445 0.502534
1360 1 0.2311 0.433819 0.502738
1491 1 0.247241 0.445197 0.500957
1434 1 0.24444 0.433899 0.502131
1505 1 0.235918 0.443878 0.501118
1575 1 0.268846 0.438467 0.500701
1570 1 0.272265 0.451164 0.501614
1499 1 0.256315 0.436737 0.501738
1565 1 0.260173 0.448137 0.5015
1718 1 0.281243 0.442011 0.50084
1504 1 0.29298 0.441833 0.500082
1502 1 0.284087 0.452627 0.50076
1438 1 0.301245 0.432482 0.499616
1647 1 0.316875 0.445555 0.500026
1580 1 0.305344 0.442784 0.501435
1649 1 0.337111 0.437981 0.501456
1789 1 0.328597 0.44832 0.50154
1577 1 0.32567 0.436886 0.499966
1648 1 0.341866 0.449121 0.503025
1654 1 0.348636 0.439421 0.501523
1593 1 0.361996 0.440701 0.502913
1586 1 0.354294 0.451098 0.50212
1592 1 0.373675 0.443696 0.50423
1587 1 0.369523 0.432204 0.503708
1443 1 0.385952 0.446426 0.503287
1452 1 0.380812 0.434461 0.502516
1726 1 0.36582 0.453156 0.503085
1513 1 0.393164 0.437069 0.50346
1590 1 0.396909 0.449507 0.503846
1529 1 0.404744 0.439349 0.502521
1663 1 0.408418 0.451683 0.503163
1537 1 0.428311 0.445497 0.503547
1460 1 0.422615 0.434863 0.501851
1595 1 0.416412 0.444204 0.504054
1599 1 0.420737 0.45624 0.502196
1390 1 0.440208 0.448031 0.503139
1464 1 0.44895 0.439746 0.503918
1535 1 0.436575 0.436059 0.502912
1527 1 0.452967 0.45096 0.503827
1457 1 0.471801 0.442262 0.501755
1313 1 0.464629 0.454766 0.503023
1467 1 0.46004 0.442221 0.50283
1387 1 0.475659 0.454891 0.501647
1466 1 0.480668 0.432875 0.50166
1400 1 0.48359 0.444999 0.500816
1399 1 0.497232 0.446882 0.501352
1244 1 0.492437 0.435118 0.50199
1411 1 0.0144963 0.473412 0.503288
1405 1 0.0141955 0.462056 0.504169
1267 1 0.00230354 0.466914 0.502984
1406 1 0.0245798 0.465386 0.503736
1623 1 0.0350325 0.471432 0.503455
1277 1 0.0350005 0.458145 0.50359
1194 1 0.0447801 0.466102 0.50359
1417 1 0.0563972 0.458904 0.503544
1841 1 0.0573052 0.470599 0.502924
1693 1 0.0668103 0.463096 0.501874
1628 1 0.0680914 0.477448 0.503245
1626 1 0.0780181 0.458209 0.502894
1701 1 0.0785964 0.470938 0.503146
1558 1 0.0880832 0.462557 0.502056
1629 1 0.0911009 0.475243 0.503392
1557 1 0.100028 0.457485 0.502762
1553 1 0.100317 0.469302 0.503154
1695 1 0.112891 0.475691 0.503653
1702 1 0.110797 0.463163 0.503584
1634 1 0.12061 0.455598 0.504105
1481 1 0.121122 0.468188 0.50537
1573 1 0.132664 0.46312 0.504049
1776 1 0.134099 0.476245 0.503745
1625 1 0.141952 0.457035 0.503588
1627 1 0.154177 0.473653 0.504477
1771 1 0.142965 0.469702 0.503624
1561 1 0.152769 0.461478 0.503333
1488 1 0.172724 0.459292 0.5034
1635 1 0.16324 0.466185 0.502547
1567 1 0.17509 0.469427 0.501711
1564 1 0.198425 0.472303 0.503104
1424 1 0.183234 0.457383 0.502091
1633 1 0.194811 0.459918 0.502145
1559 1 0.187023 0.468716 0.502207
1497 1 0.225025 0.453554 0.500667
1498 1 0.206996 0.461853 0.501796
1494 1 0.223089 0.474993 0.502603
1562 1 0.211156 0.473207 0.502332
1493 1 0.218752 0.463596 0.502608
1637 1 0.244134 0.466985 0.501117
1563 1 0.230426 0.465859 0.500781
1492 1 0.238786 0.455378 0.500693
1489 1 0.250674 0.456259 0.500469
1645 1 0.256432 0.468085 0.501246
1568 1 0.263467 0.458508 0.500859
1715 1 0.267182 0.470858 0.499513
1642 1 0.276676 0.462139 0.500485
1860 1 0.287662 0.464076 0.50152
1574 1 0.278832 0.473096 0.500204
1857 1 0.291215 0.47444 0.500397
1713 1 0.296023 0.454427 0.500835
1787 1 0.308937 0.45495 0.501024
1717 1 0.312986 0.467085 0.500217
1785 1 0.302523 0.465098 0.501501
1788 1 0.304911 0.475813 0.501312
1794 1 0.317588 0.476559 0.500221
1716 1 0.32125 0.456557 0.501228
1653 1 0.337226 0.470397 0.501457
1651 1 0.332299 0.459483 0.501794
1720 1 0.32484 0.469191 0.501939
1724 1 0.361451 0.474611 0.501876
1652 1 0.348291 0.473689 0.502245
1519 1 0.356902 0.464813 0.502981
1655 1 0.346746 0.460734 0.502044
1798 1 0.372203 0.478429 0.502993
1656 1 0.380465 0.466799 0.502553
1588 1 0.367958 0.465721 0.504128
1661 1 0.377252 0.45502 0.502709
1666 1 0.404205 0.471791 0.503131
1520 1 0.391922 0.469881 0.503068
1531 1 0.401394 0.461161 0.503705
1515 1 0.389706 0.458771 0.502964
1524 1 0.417825 0.475764 0.502909
1596 1 0.413172 0.463908 0.503326
1671 1 0.424368 0.466201 0.502632
1528 1 0.433203 0.456701 0.502204
1468 1 0.446205 0.460738 0.50278
1601 1 0.449345 0.473485 0.502611
1608 1 0.43654 0.467677 0.503272
1673 1 0.475072 0.477252 0.5011
1532 1 0.458883 0.464722 0.501591
1665 1 0.470027 0.465637 0.501393
1539 1 0.462364 0.47564 0.501845
1600 1 0.481553 0.464672 0.501157
1462 1 0.488427 0.456018 0.502274
1475 1 0.0163643 0.497018 0.503247
1408 1 0.00508312 0.478797 0.504634
1545 1 0.0160259 0.484197 0.504194
1409 1 0.0059283 0.491994 0.503679
1630 1 0.0461245 0.477121 0.501941
1698 1 0.0369598 0.496906 0.502904
1619 1 0.0357853 0.4836 0.50346
1624 1 0.0256332 0.477911 0.504073
1547 1 0.0265706 0.49 0.502509
1842 1 0.0685902 0.488203 0.502882
1404 1 0.0477557 0.489674 0.503235
1554 1 0.0575678 0.49458 0.503166
1556 1 0.0562255 0.482378 0.502505
1697 1 0.0906356 0.488157 0.502511
1769 1 0.0800936 0.481852 0.501992
1907 1 0.0801081 0.493063 0.501851
1548 1 0.112951 0.487867 0.503976
1849 1 0.102216 0.494419 0.503597
1551 1 0.101412 0.482368 0.502965
1708 1 0.134794 0.499686 0.503254
1560 1 0.133921 0.487835 0.501925
1704 1 0.1241 0.492483 0.502335
1700 1 0.124404 0.48135 0.503086
1641 1 0.144965 0.492972 0.50301
1780 1 0.155774 0.484937 0.503322
1571 1 0.144126 0.48135 0.504294
1775 1 0.156605 0.496611 0.50229
1916 1 0.173611 0.501339 0.502558
1638 1 0.165973 0.476607 0.50346
1783 1 0.16815 0.489216 0.502714
1706 1 0.178064 0.480911 0.501946
1640 1 0.201826 0.484141 0.500724
1980 1 0.19584 0.493636 0.502009
1709 1 0.18975 0.482548 0.502281
1705 1 0.181773 0.492105 0.501717
1643 1 0.221229 0.494867 0.501052
1500 1 0.21593 0.483603 0.501545
1712 1 0.209648 0.492534 0.502607
1496 1 0.239912 0.487852 0.501656
1646 1 0.228469 0.485738 0.502733
1858 1 0.232643 0.498585 0.501615
1707 1 0.245784 0.477726 0.502382
1636 1 0.251381 0.489056 0.500257
1711 1 0.258684 0.480443 0.500711
1786 1 0.263609 0.492265 0.501368
1644 1 0.283915 0.485456 0.50025
1856 1 0.297811 0.484806 0.50016
1933 1 0.314059 0.497122 0.500612
1723 1 0.341022 0.482993 0.500475
1791 1 0.329807 0.480004 0.501639
1793 1 0.333172 0.491404 0.500373
1725 1 0.321001 0.487691 0.498988
1582 1 0.356394 0.496775 0.5033
1721 1 0.344516 0.493042 0.502751
1650 1 0.35303 0.484718 0.502318
1518 1 0.368634 0.497993 0.503046
1589 1 0.384458 0.478283 0.504439
1664 1 0.377149 0.48906 0.502778
1657 1 0.363759 0.486663 0.502702
1659 1 0.400006 0.492728 0.503567
1584 1 0.396385 0.481465 0.503062
1662 1 0.388433 0.48937 0.502674
1594 1 0.407834 0.482677 0.503232
1668 1 0.429535 0.477107 0.503736
1598 1 0.421838 0.48628 0.502819
1667 1 0.413227 0.494584 0.502327
1670 1 0.426345 0.497278 0.501853
1534 1 0.454424 0.485233 0.502794
1672 1 0.446821 0.495634 0.50306
1669 1 0.44169 0.479956 0.503229
1677 1 0.436212 0.489387 0.503349
1741 1 0.458559 0.496749 0.501486
1603 1 0.466619 0.487498 0.500853
1604 1 0.496961 0.480838 0.500689
4411 1 0.478859 0.488042 0.50203
1538 1 0.485759 0.47882 0.499879
1609 1 0.490337 0.490983 0.500274
2126 1 0.271367 0.517684 0.499546
1927 1 0.283638 0.519035 0.499274
1928 1 0.29101 0.508015 0.499087
1930 1 0.279848 0.508285 0.498423
1922 1 0.296888 0.518071 0.499429
1852 1 0.307869 0.518646 0.498418
1995 1 0.316055 0.508563 0.499337
1796 1 0.304317 0.507779 0.497732
2077 1 0.325037 0.500955 0.499578
1931 1 0.328153 0.51236 0.49927
1676 1 0.491898 0.523166 0.499207
1674 1 0.479114 0.521708 0.500427
2123 1 0.0907851 0.542792 0.497813
2331 1 0.0719495 0.538905 0.49913
1774 1 0.127057 0.527587 0.500086
1851 1 0.139616 0.537998 0.499525
1986 1 0.147524 0.527132 0.500766
1913 1 0.241329 0.543077 0.500547
1985 1 0.264673 0.52772 0.50094
2131 1 0.281031 0.539413 0.499497
1782 1 0.289343 0.528641 0.498046
1988 1 0.277338 0.528448 0.500401
1918 1 0.300966 0.529192 0.499345
2125 1 0.316882 0.541467 0.498873
2056 1 0.304107 0.541782 0.498615
1921 1 0.324606 0.532625 0.500673
4552 1 0.488397 0.544534 0.499612
1979 1 0.0389426 0.546303 0.500805
1977 1 0.0501756 0.554996 0.499693
1703 1 0.0591874 0.54741 0.498595
2265 1 0.0779732 0.551016 0.497699
2202 1 0.247917 0.557057 0.498223
1981 1 0.257357 0.545497 0.499298
2127 1 0.270355 0.554094 0.498479
2135 1 0.286918 0.554548 0.499126
1920 1 0.300235 0.561292 0.499679
2132 1 0.320621 0.553644 0.499697
1745 1 0.495441 0.554983 0.499721
1906 1 0.0207981 0.5822 0.499847
1831 1 0.0344107 0.58181 0.497855
1903 1 0.0345074 0.567292 0.499168
2194 1 0.0200882 0.594629 0.500554
2060 1 0.342174 0.606792 0.500547
1993 1 0.354975 0.606861 0.500542
2200 1 0.366329 0.605012 0.500341
2068 1 0.35329 0.620957 0.500291
2337 1 0.367693 0.61717 0.500792
2407 1 0.38828 0.632271 0.500317
2201 1 0.399758 0.635319 0.499115
2342 1 0.420146 0.624057 0.501027
2341 1 0.41056 0.635121 0.499061
2137 1 0.44548 0.627609 0.500307
2217 1 0.4916 0.633171 0.499586
2224 1 0.487755 0.621778 0.501019
2214 1 0.479661 0.63357 0.499287
2280 1 0.380966 0.64373 0.500063
2431 1 0.372605 0.655991 0.500902
2207 1 0.393438 0.646442 0.499305
2269 1 0.415001 0.648084 0.499589
2276 1 0.425441 0.649408 0.501068
2415 1 0.436083 0.639238 0.501023
2213 1 0.453174 0.651152 0.500058
2139 1 0.462036 0.642168 0.500122
2209 1 0.472487 0.642155 0.499776
2089 1 0.489915 0.657369 0.498988
2218 1 0.478077 0.653635 0.500967
2215 1 0.486376 0.64519 0.500403
2159 1 0.497464 0.645499 0.499456
2204 1 0.393403 0.659135 0.498844
2208 1 0.418912 0.661769 0.49974
2349 1 0.439816 0.669643 0.500292
2212 1 0.458919 0.662669 0.50058
2211 1 0.461585 0.674763 0.499798
2335 1 0.411053 0.687591 0.49872
2634 1 0.492309 0.851709 0.499653
2330 1 0.480042 0.849738 0.499191
2489 1 0.499202 0.863362 0.498567
2630 1 0.474762 0.884295 0.496965
2357 1 0.484456 0.866409 0.496752
2470 1 0.486767 0.883092 0.498774
2417 1 0.494832 0.875106 0.499356
2420 1 0.459626 0.898302 0.497473
2541 1 0.47271 0.900794 0.499215
2639 1 0.493022 0.895859 0.499293
2369 1 0.4862 0.904969 0.498871
2471 1 0.48119 0.893687 0.49751
2563 1 0.499198 0.905847 0.495927
2492 1 0.466123 0.911267 0.496953
2495 1 0.468707 0.923762 0.496524
2641 1 0.455692 0.922322 0.498802
2707 1 0.490608 0.91562 0.498289
2569 1 0.48424 0.925099 0.497237
2507 1 0.496794 0.925785 0.498013
2483 1 0.477694 0.91455 0.497899
2345 1 0.433219 0.947623 0.498779
2481 1 0.441279 0.934718 0.497375
2497 1 0.445282 0.950672 0.499701
2571 1 0.477525 0.933552 0.497032
2704 1 0.456068 0.943977 0.498396
2484 1 0.462104 0.933237 0.496034
2424 1 0.471017 0.94227 0.498287
2766 1 0.463283 0.954422 0.497575
2500 1 0.495231 0.947175 0.498912
2574 1 0.483359 0.945599 0.498837
2565 1 0.489992 0.935946 0.498645
2490 1 0.42514 0.960053 0.500446
2554 1 0.455112 0.961338 0.499492
2485 1 0.438748 0.962258 0.499318
2480 1 0.448849 0.970903 0.498942
2419 1 0.433407 0.973771 0.498758
2642 1 0.474701 0.954988 0.499227
2636 1 0.468504 0.96543 0.499737
2632 1 0.460801 0.97471 0.499187
2510 1 0.500531 0.958467 0.498651
2575 1 0.48746 0.956277 0.50028
2572 1 0.491314 0.96694 0.498871
2570 1 0.484638 0.976552 0.499031
2487 1 0.404317 0.992663 0.497448
2705 1 0.432994 0.986994 0.499297
2491 1 0.419649 0.992475 0.497782
2706 1 0.416406 0.977921 0.497915
2697 1 0.454508 0.984398 0.499687
2702 1 0.444578 0.992954 0.499351
49 1 0.469543 0.99855 0.499822
2631 1 0.45707 0.9957 0.499494
2775 1 0.476492 0.987233 0.499339
2777 1 0.489521 0.98589 0.499545
2710 1 0.498082 0.977858 0.498165
1692 1 0.0174523 0.508979 0.50317
1550 1 0.00839958 0.51708 0.504633
1482 1 0.00658348 0.504648 0.503617
1768 1 0.0183901 0.521457 0.502959
1759 1 0.0296546 0.514661 0.501922
1833 1 0.0400668 0.509568 0.502763
1835 1 0.0273157 0.503343 0.502938
1830 1 0.0398064 0.521061 0.501787
1834 1 0.0617638 0.506585 0.502566
1905 1 0.0523497 0.51298 0.50239
1845 1 0.0613786 0.521204 0.502211
1843 1 0.0490679 0.50246 0.502807
1839 1 0.0712259 0.514019 0.500818
2119 1 0.0818075 0.505111 0.500695
2053 1 0.0829371 0.519312 0.501486
1772 1 0.0716129 0.500094 0.501816
1773 1 0.0918624 0.500945 0.503295
1983 1 0.0921333 0.512864 0.502631
1838 1 0.102938 0.508401 0.501676
1840 1 0.104076 0.520222 0.502608
1622 1 0.11479 0.502147 0.502383
1847 1 0.116636 0.519306 0.501297
2333 1 0.125704 0.508503 0.501349
1778 1 0.137091 0.518217 0.501291
1848 1 0.146058 0.506687 0.50198
1912 1 0.159013 0.508266 0.501648
2193 1 0.157556 0.520581 0.500865
2268 1 0.169778 0.512593 0.502306
2267 1 0.178377 0.522059 0.501397
2334 1 0.189539 0.515799 0.502383
1779 1 0.201147 0.507517 0.502884
2046 1 0.201181 0.520258 0.502188
1710 1 0.186218 0.502264 0.502287
1917 1 0.21314 0.504793 0.502302
1850 1 0.223748 0.508398 0.501841
2196 1 0.225752 0.519853 0.50272
1987 1 0.213295 0.515745 0.503049
1923 1 0.234675 0.510322 0.500867
2067 1 0.244299 0.499463 0.501127
1926 1 0.247014 0.512386 0.501118
1861 1 0.255117 0.502195 0.500054
1929 1 0.267386 0.505156 0.499118
1781 1 0.258955 0.514757 0.499379
1865 1 0.33739 0.502894 0.501173
1862 1 0.3201 0.521034 0.499833
1934 1 0.340212 0.514614 0.500883
1863 1 0.3487 0.504272 0.501164
1719 1 0.360044 0.507381 0.501505
1936 1 0.352765 0.517012 0.500584
1727 1 0.381097 0.500653 0.502486
1792 1 0.364216 0.520634 0.5024
1658 1 0.383902 0.51225 0.501377
1722 1 0.37135 0.512044 0.501961
1795 1 0.37648 0.522495 0.501091
1730 1 0.396144 0.513704 0.502517
1797 1 0.391942 0.502142 0.502099
1803 1 0.4043 0.50302 0.502153
1737 1 0.407348 0.514906 0.501293
1867 1 0.426988 0.508806 0.502182
1807 1 0.419233 0.518334 0.501834
1660 1 0.414434 0.506796 0.501791
1729 1 0.432569 0.518609 0.502198
1731 1 0.436951 0.49981 0.502174
1747 1 0.440042 0.509988 0.502041
1805 1 0.450499 0.508341 0.501785
1799 1 0.444617 0.521143 0.502906
1536 1 0.471645 0.497682 0.501576
1735 1 0.455711 0.521375 0.502261
1606 1 0.475794 0.509752 0.501112
1597 1 0.462691 0.507806 0.502202
1806 1 0.466824 0.520181 0.500584
1678 1 0.482675 0.499663 0.501193
4202 1 0.49993 0.514435 0.499264
4343 1 0.495141 0.502913 0.499976
4276 1 0.486982 0.511611 0.500178
4690 1 0.019337 0.53352 0.503341
1765 1 0.0081348 0.52793 0.504346
1696 1 0.00951683 0.539259 0.505254
1984 1 0.0391985 0.532146 0.500094
2045 1 0.030039 0.538565 0.502422
1836 1 0.0285533 0.526502 0.502323
1844 1 0.0501387 0.525482 0.500058
1914 1 0.0602844 0.533426 0.501327
1904 1 0.049683 0.539435 0.501065
1908 1 0.0731666 0.526139 0.500381
1911 1 0.0832201 0.53469 0.501976
2121 1 0.106522 0.533763 0.499516
2198 1 0.0929952 0.526206 0.501748
1909 1 0.156796 0.543896 0.499541
1919 1 0.170457 0.530073 0.499802
1915 1 0.190352 0.531636 0.500246
1714 1 0.204988 0.533948 0.503402
2408 1 0.218941 0.539244 0.503495
2197 1 0.216743 0.526924 0.503692
1777 1 0.237416 0.522416 0.501714
2263 1 0.2321 0.533148 0.502201
1925 1 0.251529 0.52532 0.501318
1982 1 0.250743 0.536662 0.500514
2124 1 0.267685 0.538574 0.500176
2057 1 0.292974 0.541622 0.499811
1853 1 0.311095 0.531052 0.499728
1854 1 0.337108 0.534596 0.500089
1784 1 0.328758 0.544546 0.500452
1864 1 0.332541 0.52454 0.500578
2010 1 0.355684 0.528315 0.501842
2005 1 0.344793 0.526487 0.501146
2069 1 0.351544 0.538643 0.499424
1855 1 0.342762 0.545943 0.50068
1998 1 0.361766 0.540264 0.501419
1940 1 0.38524 0.545497 0.501948
1938 1 0.369074 0.532045 0.502642
2004 1 0.373497 0.542325 0.501165
1800 1 0.381905 0.532814 0.502636
1935 1 0.38741 0.522643 0.502278
1801 1 0.400417 0.525053 0.501552
1868 1 0.4047 0.535941 0.501887
1937 1 0.391813 0.534876 0.501119
1870 1 0.417625 0.538785 0.502729
1802 1 0.41154 0.526123 0.501677
1732 1 0.423601 0.528759 0.503097
1871 1 0.42861 0.541691 0.502413
1804 1 0.447651 0.531544 0.503434
1734 1 0.43598 0.530165 0.502207
2152 1 0.441564 0.541623 0.50178
1874 1 0.452299 0.542538 0.501693
1733 1 0.459481 0.532196 0.501492
1739 1 0.472204 0.532292 0.501303
1746 1 0.465341 0.542912 0.500772
1680 1 0.477946 0.543739 0.501572
4414 1 0.497046 0.534285 0.500184
1607 1 0.484111 0.533563 0.500506
1762 1 0.0195652 0.545009 0.502999
1825 1 0.00940983 0.552602 0.503076
1846 1 0.0193283 0.558037 0.503272
1973 1 0.00982572 0.565042 0.50323
2187 1 0.0301579 0.553493 0.500213
2058 1 0.309081 0.552261 0.500087
1989 1 0.33747 0.567522 0.500504
1991 1 0.334532 0.554464 0.50136
2061 1 0.325553 0.564832 0.502012
1990 1 0.345668 0.559413 0.501596
1996 1 0.354012 0.549868 0.501304
2065 1 0.357385 0.561366 0.49975
2006 1 0.377663 0.554869 0.500945
2003 1 0.36653 0.552182 0.500508
2082 1 0.384237 0.566155 0.501257
2001 1 0.37016 0.563688 0.500771
1728 1 0.398094 0.546386 0.501705
1932 1 0.401676 0.55766 0.50227
2008 1 0.390895 0.555851 0.500234
2081 1 0.395983 0.568252 0.500945
2012 1 0.413466 0.5596 0.503035
1869 1 0.409722 0.548089 0.502527
1943 1 0.421434 0.551671 0.501426
1945 1 0.425701 0.562959 0.502503
1942 1 0.433171 0.551219 0.502496
2011 1 0.444813 0.552023 0.503436
1873 1 0.451118 0.563057 0.502756
2083 1 0.439089 0.56291 0.502471
2157 1 0.463992 0.563633 0.502056
4481 1 0.471389 0.55361 0.502629
1939 1 0.458843 0.552883 0.50212
1808 1 0.474701 0.565771 0.501395
1738 1 0.498898 0.56882 0.499894
1811 1 0.488593 0.564875 0.499844
1743 1 0.483314 0.555347 0.501159
2055 1 0.000682686 0.585109 0.503098
1832 1 0.0113911 0.577527 0.50273
2192 1 0.0221255 0.568501 0.500738
2130 1 0.313166 0.569772 0.500117
2195 1 0.331793 0.578983 0.501687
2264 1 0.319667 0.584769 0.50185
2000 1 0.349728 0.570221 0.501444
2205 1 0.363184 0.57152 0.501238
1994 1 0.343373 0.582225 0.501192
2002 1 0.357148 0.582399 0.500709
2129 1 0.368596 0.583563 0.500626
2138 1 0.375404 0.57386 0.50109
2339 1 0.380018 0.586569 0.49996
2071 1 0.386659 0.577635 0.499882
1999 1 0.400802 0.579722 0.50118
2079 1 0.406743 0.569987 0.50245
2078 1 0.393575 0.589432 0.501144
1944 1 0.411783 0.581676 0.502811
2014 1 0.418019 0.57215 0.502696
2072 1 0.42459 0.582973 0.502602
2007 1 0.431534 0.574016 0.502596
2151 1 0.443209 0.573295 0.502394
2084 1 0.448621 0.584352 0.501711
2142 1 0.435922 0.584306 0.502788
2147 1 0.454769 0.57465 0.502249
2158 1 0.471939 0.585731 0.501827
2149 1 0.466626 0.575338 0.501301
2222 1 0.461066 0.585233 0.500766
1875 1 0.490481 0.577195 0.500566
1740 1 0.479972 0.575579 0.501161
1872 1 0.483555 0.587368 0.501443
1812 1 0.494835 0.589838 0.500488
1975 1 0.000437828 0.602186 0.504022
2048 1 0.00796357 0.594279 0.501472
2261 1 0.00968338 0.609264 0.50221
2266 1 0.330647 0.594955 0.501071
2199 1 0.360907 0.593909 0.500673
2064 1 0.350067 0.592187 0.501195
2338 1 0.385641 0.598852 0.500337
2059 1 0.377971 0.606807 0.500365
2343 1 0.373265 0.595069 0.500753
2066 1 0.40513 0.591632 0.502059
2128 1 0.396658 0.602002 0.500518
2085 1 0.409676 0.603781 0.501563
2133 1 0.390449 0.611298 0.501724
2070 1 0.401262 0.613471 0.501908
2076 1 0.428732 0.594336 0.501914
1992 1 0.417702 0.593403 0.502202
2073 1 0.421504 0.603798 0.502723
2143 1 0.434527 0.605819 0.502347
2221 1 0.440379 0.595673 0.502959
2150 1 0.446611 0.605591 0.502388
2225 1 0.453517 0.595649 0.50184
2074 1 0.459124 0.606289 0.500605
2148 1 0.466041 0.595972 0.502122
2146 1 0.469128 0.607801 0.501714
2154 1 0.492414 0.611849 0.499762
1877 1 0.488842 0.60083 0.500017
2013 1 0.477184 0.598917 0.501945
2219 1 0.481302 0.609829 0.501304
2063 1 0.375738 0.628947 0.499809
2134 1 0.380565 0.618534 0.5008
2273 1 0.394504 0.621802 0.498559
2062 1 0.406445 0.62444 0.500341
2274 1 0.432887 0.627415 0.50027
2075 1 0.427239 0.613651 0.501787
2140 1 0.413266 0.613765 0.500297
2144 1 0.450265 0.618819 0.502805
2216 1 0.4398 0.61562 0.500964
2145 1 0.47448 0.619694 0.501291
2155 1 0.462092 0.618316 0.50155
2141 1 0.458013 0.630081 0.501168
2009 1 0.469327 0.630081 0.501167
2153 1 0.499068 0.623986 0.499551
2203 1 0.365579 0.6363 0.501959
2275 1 0.404235 0.647496 0.499155
2271 1 0.422784 0.63677 0.499618
2278 1 0.441861 0.650657 0.500871
2279 1 0.448486 0.638915 0.501843
2289 1 0.466833 0.653358 0.500155
2136 1 0.406422 0.659988 0.499601
2348 1 0.403624 0.673248 0.499626
2281 1 0.426845 0.670411 0.500341
2402 1 0.417691 0.676326 0.500986
2344 1 0.450389 0.670693 0.500708
2277 1 0.433106 0.660277 0.501486
2206 1 0.446919 0.660976 0.500429
2283 1 0.469757 0.666213 0.499953
2282 1 0.475679 0.676443 0.499721
2080 1 0.488568 0.677576 0.500394
2287 1 0.482656 0.665771 0.50012
2230 1 0.49526 0.667604 0.499745
2350 1 0.424204 0.690708 0.500967
2270 1 0.427848 0.704778 0.503067
2336 1 0.432435 0.682216 0.499499
2347 1 0.450981 0.695931 0.502484
2352 1 0.438043 0.693685 0.501097
2403 1 0.445447 0.681594 0.50139
2285 1 0.462565 0.696663 0.501013
2291 1 0.468213 0.684729 0.501205
2346 1 0.455968 0.686283 0.500415
2290 1 0.472583 0.697293 0.502991
2367 1 0.499467 0.699137 0.499872
2220 1 0.491895 0.68893 0.500621
2226 1 0.485877 0.697499 0.499927
2227 1 0.479651 0.687913 0.500785
2340 1 0.426963 0.72347 0.506067
2363 1 0.448961 0.717273 0.503477
2297 1 0.435027 0.71439 0.503993
2210 1 0.442835 0.705986 0.502848
2423 1 0.454099 0.727938 0.503106
2286 1 0.455974 0.706722 0.502555
2368 1 0.473426 0.717742 0.502662
2437 1 0.462855 0.717245 0.502113
2353 1 0.468729 0.707246 0.501775
2233 1 0.497394 0.721273 0.501951
2293 1 0.493445 0.710321 0.501835
2438 1 0.484948 0.719125 0.501006
2294 1 0.480373 0.706701 0.501311
2421 1 0.450937 0.7489 0.504289
2351 1 0.435082 0.737753 0.505329
2429 1 0.440555 0.726573 0.505355
2477 1 0.445747 0.736373 0.502415
2292 1 0.47024 0.739798 0.50365
2298 1 0.466141 0.728743 0.50334
2354 1 0.459411 0.73938 0.502652
2236 1 0.482447 0.741751 0.503221
2232 1 0.490969 0.731108 0.502216
2305 1 0.49466 0.74232 0.502352
2356 1 0.478138 0.729896 0.503253
2426 1 0.453279 0.766743 0.505188
2355 1 0.439111 0.7556 0.504122
2373 1 0.474936 0.751537 0.503283
2295 1 0.470573 0.76388 0.503523
2473 1 0.463763 0.753227 0.503838
2302 1 0.486993 0.752548 0.501689
2284 1 0.482029 0.761987 0.503483
2360 1 0.493368 0.763989 0.50324
2422 1 0.468966 0.794284 0.504665
2406 1 0.461807 0.78068 0.505999
2364 1 0.474527 0.774819 0.5038
2296 1 0.479397 0.784892 0.505398
2304 1 0.498851 0.776767 0.502532
2425 1 0.491586 0.784567 0.503297
2414 1 0.487863 0.773267 0.503989
2288 1 0.468355 0.808365 0.504482
2413 1 0.492263 0.807926 0.505973
2411 1 0.499921 0.797102 0.504394
2499 1 0.485666 0.794718 0.504238
2416 1 0.478724 0.806999 0.505761
2377 1 0.475301 0.823027 0.50401
5330 1 0.48753 0.81984 0.503123
2436 1 0.490285 0.836579 0.501013
2376 1 0.499414 0.830714 0.502348
2410 1 0.478521 0.837452 0.501548
2643 1 0.472975 0.976957 0.501365
2579 1 0.480576 0.96559 0.499944
2699 1 0.442867 0.981441 0.50095
47 1 0.465476 0.987856 0.501553
2573 1 0.4822 0.997725 0.500195
2518 1 0.510178 0.0151336 0.498712
2509 1 0.516817 0.00462909 0.499737
2778 1 0.504872 0.00202275 0.49854
2655 1 0.532035 0.00595859 0.498288
2654 1 0.544705 0.0074671 0.498004
2650 1 0.536021 0.0187014 0.498808
2656 1 0.52273 0.0156737 0.497605
5403 1 0.556198 0.00907277 0.498029
2588 1 0.561512 0.0207806 0.497222
2719 1 0.547175 0.0197014 0.497384
5263 1 0.564906 -0.00124091 0.498081
2516 1 0.569336 0.0117005 0.498225
5339 1 0.582798 0.00971766 0.49774
5397 1 0.575308 0.0213063 0.497581
5404 1 0.587199 0.0232873 0.496754
5405 1 0.592518 0.0110225 0.494777
5340 1 0.598354 0.000890484 0.49496
5542 1 0.603206 0.0138323 0.494907
5406 1 0.611205 0.00401629 0.496049
2814 1 0.616059 0.0144402 0.495964
5477 1 0.624581 0.00525116 0.495944
2816 1 0.629404 0.0156551 0.495241
2815 1 0.63646 0.00515137 0.494554
2889 1 0.641909 0.0164209 0.494873
5545 1 0.649183 0.00506524 0.493826
5551 1 0.652976 0.0185767 0.494995
5552 1 0.659547 0.00859918 0.49483
2826 1 0.664574 0.0186251 0.493971
5560 1 0.676139 0.0208389 0.493649
2824 1 0.672766 0.0103321 0.493162
5559 1 0.666037 -0.000585173 0.492124
2891 1 0.684334 0.0110261 0.493007
2827 1 0.69633 0.0119202 0.492626
2830 1 0.702265 0.00105734 0.493885
5564 1 0.688782 0.0224436 0.492532
2828 1 0.701531 0.0235131 0.494142
5562 1 0.690281 0.000964404 0.492743
2905 1 0.71965 0.0136876 0.495
2901 1 0.707133 0.012694 0.493964
5566 1 0.71638 0.00327483 0.494149
5498 1 0.727294 0.00539323 0.494269
2838 1 0.733571 0.0153165 0.496424
5571 1 0.738367 0.00490795 0.496088
2834 1 0.743871 0.0150997 0.494018
2847 1 0.767668 0.0177443 0.496694
2841 1 0.751181 0.00593402 0.495723
5577 1 0.75527 0.0181305 0.495829
5508 1 0.763589 0.00720503 0.495925
2990 1 0.787312 0.00983861 0.496992
5358 1 0.775435 0.00851647 0.496862
2921 1 0.779628 0.0204742 0.495649
2850 1 0.795115 0.000226952 0.497198
2915 1 0.812277 0.0129837 0.496572
2920 1 0.799144 0.0134844 0.496907
2852 1 0.806801 0.00102251 0.497533
2855 1 0.818821 0.00279976 0.496919
2932 1 0.823552 0.0145111 0.49661
2927 1 0.836437 0.014259 0.495864
2865 1 0.831484 0.00353692 0.497893
5600 1 0.861287 0.0160532 0.49897
5250 1 0.856085 0.0055577 0.498077
5582 1 0.848509 0.0161492 0.498909
5583 1 0.843921 0.00480792 0.498381
2522 1 0.881474 0.00856301 0.498298
2453 1 0.875094 0.0186942 0.498072
2733 1 0.868517 0.00807796 0.497166
2591 1 0.887172 0.0194772 0.499675
5316 1 0.901894 0.000909375 0.497349
5246 1 0.907358 0.013416 0.497716
2390 1 0.893943 0.00927339 0.498287
2383 1 0.914547 0.00282672 0.496455
2384 1 0.919065 0.0141937 0.49687
2398 1 0.926714 0.00127978 0.496629
2393 1 0.932111 0.0120187 0.497082
2463 1 0.947704 0.0135058 0.496453
2462 1 0.938957 0.00122908 0.496805
2454 1 0.95005 0.00190652 0.49665
2397 1 0.963143 0.00366083 0.495469
2388 1 0.959258 0.0152538 0.495609
2535 1 0.994027 0.0239961 0.494593
2459 1 0.979419 0.0111405 0.49515
2712 1 0.521022 0.0366523 0.499269
2709 1 0.516073 0.0249108 0.499233
2721 1 0.50347 0.0240835 0.501259
2646 1 0.529246 0.0279139 0.498244
2728 1 0.534163 0.0388894 0.499662
2713 1 0.540516 0.029786 0.499271
2651 1 0.553002 0.0294736 0.497981
2727 1 0.568132 0.029234 0.49802
5467 1 0.559146 0.0386818 0.497409
2724 1 0.544991 0.0403432 0.49743
5333 1 0.580258 0.0319712 0.497044
5393 1 0.584196 0.0443033 0.498256
5324 1 0.573385 0.0409406 0.498735
5470 1 0.592428 0.0339225 0.497548
5468 1 0.598782 0.0221909 0.49674
5543 1 0.609572 0.0248077 0.495542
5475 1 0.596928 0.0459872 0.498092
5469 1 0.604528 0.0352668 0.496822
2886 1 0.615888 0.0354714 0.49591
5408 1 0.623062 0.0256607 0.495002
2820 1 0.627744 0.0370162 0.495402
2819 1 0.635601 0.0267739 0.495682
3031 1 0.640412 0.0383222 0.495551
3028 1 0.651344 0.0394899 0.495289
5556 1 0.645934 0.0293108 0.493851
2960 1 0.657968 0.028718 0.494052
2821 1 0.662184 0.0416199 0.493493
2896 1 0.674982 0.0405602 0.493953
2890 1 0.669064 0.0303014 0.494897
2893 1 0.680633 0.0310446 0.495216
2973 1 0.687265 0.0416443 0.493977
2892 1 0.697904 0.0449537 0.494257
2829 1 0.695078 0.0327919 0.493847
2831 1 0.705946 0.0339796 0.492694
2835 1 0.712895 0.0233407 0.493458
2899 1 0.718296 0.0338752 0.49405
2843 1 0.725245 0.0243634 0.495267
2840 1 0.74223 0.0384719 0.495572
2907 1 0.730376 0.0352194 0.494023
2903 1 0.737145 0.0258196 0.494765
5575 1 0.748079 0.0277982 0.495464
2844 1 0.766566 0.038772 0.495215
2906 1 0.755023 0.0397009 0.4948
5502 1 0.760262 0.0283208 0.495281
2993 1 0.789724 0.0231455 0.496724
5572 1 0.773447 0.029104 0.495745
5578 1 0.790541 0.0444713 0.49664
5576 1 0.777325 0.0429095 0.496132
2848 1 0.78451 0.0345974 0.497336
5510 1 0.803239 0.0229619 0.497004
2862 1 0.81544 0.0247736 0.495803
2996 1 0.807758 0.0344601 0.496623
2991 1 0.795768 0.0328859 0.495893
2918 1 0.802711 0.0454028 0.49633
2930 1 0.813813 0.0443384 0.49609
2995 1 0.828455 0.0261724 0.497444
3001 1 0.820828 0.0346182 0.497053
3004 1 0.833633 0.0364755 0.498087
2858 1 0.826785 0.0464655 0.49727
5592 1 0.841083 0.0267919 0.497845
2935 1 0.857471 0.0388721 0.498771
2734 1 0.852775 0.0271748 0.49906
2933 1 0.844261 0.0375227 0.50014
1 1 0.865369 0.0279239 0.49874
5599 1 0.878101 0.0303759 0.498886
76 1 0.868567 0.0389706 0.499737
6 1 0.881205 0.0417226 0.498802
2527 1 0.898091 0.0232294 0.499765
2455 1 0.891453 0.0328093 0.499359
5460 1 0.904114 0.0352097 0.498559
2594 1 0.894817 0.0439482 0.498822
2661 1 0.912616 0.0241219 0.499061
5459 1 0.909507 0.0465264 0.499977
2321 1 0.923816 0.0251886 0.497173
2526 1 0.930274 0.0383218 0.498319
2387 1 0.936855 0.0224521 0.496841
2593 1 0.952317 0.0262095 0.495708
2532 1 0.943331 0.0322201 0.497561
2533 1 0.953635 0.0378738 0.495722
2599 1 0.941973 0.0438049 0.495801
2461 1 0.962723 0.0322375 0.494929
2386 1 0.966438 0.045919 0.494751
2465 1 0.97371 0.0369547 0.495609
2392 1 0.970831 0.0213273 0.495786
2460 1 0.992124 0.0396556 0.494006
2540 1 0.980873 0.02903 0.494462
2590 1 0.520165 0.0570783 0.500019
2796 1 0.511582 0.0673172 0.499091
5535 1 0.544061 0.062164 0.497939
2726 1 0.526355 0.0468143 0.499052
5325 1 0.5317 0.0596395 0.4991
2657 1 0.550913 0.0499152 0.497863
2660 1 0.564594 0.0496791 0.498597
5322 1 0.557308 0.0601279 0.499668
5394 1 0.588743 0.054141 0.499853
5391 1 0.580657 0.0630581 0.49845
5474 1 0.57609 0.0534879 0.498009
2884 1 0.608808 0.0446931 0.497967
5472 1 0.600532 0.0573464 0.498009
2813 1 0.60719 0.0679371 0.498812
2818 1 0.613989 0.0563531 0.496791
2887 1 0.620017 0.0466382 0.496238
5548 1 0.632147 0.0491613 0.495462
2888 1 0.625647 0.057443 0.496985
2882 1 0.617842 0.0682279 0.497536
3025 1 0.637381 0.0592453 0.496732
3029 1 0.648932 0.0614058 0.494299
3027 1 0.643991 0.0499737 0.495145
3105 1 0.656059 0.0510009 0.495846
3030 1 0.659784 0.0625157 0.497204
2898 1 0.679085 0.0526896 0.495186
2962 1 0.666912 0.0517717 0.494811
2894 1 0.67256 0.0632681 0.495666
3176 1 0.6968 0.066 0.493867
2961 1 0.689702 0.0545056 0.493416
2895 1 0.683596 0.0651974 0.494895
2832 1 0.702623 0.055346 0.494361
2964 1 0.710143 0.046931 0.494821
2977 1 0.723368 0.0452531 0.494541
3035 1 0.709518 0.067406 0.495002
3040 1 0.716463 0.0565938 0.493985
2971 1 0.720845 0.0687798 0.494548
2967 1 0.734512 0.0464702 0.493474
2900 1 0.728628 0.0566086 0.493597
2978 1 0.746401 0.0490341 0.496118
2917 1 0.739607 0.0589544 0.493822
2972 1 0.73202 0.0693363 0.494048
2911 1 0.763366 0.0627985 0.49476
2908 1 0.757906 0.0518068 0.4953
2910 1 0.752308 0.0615234 0.493632
2842 1 0.769132 0.0514906 0.494669
2914 1 0.781719 0.0538197 0.496199
2916 1 0.787919 0.0642856 0.496669
2845 1 0.775053 0.0632397 0.495565
3059 1 0.796682 0.0552756 0.495719
2931 1 0.807813 0.0555525 0.496184
3005 1 0.81265 0.0663919 0.495056
2919 1 0.801265 0.0662436 0.495961
2867 1 0.818259 0.0559513 0.497628
2859 1 0.8317 0.0571633 0.497541
2997 1 0.838412 0.047219 0.498382
2666 1 0.849686 0.0474808 0.497858
2937 1 0.842788 0.056754 0.497177
2860 1 0.854908 0.060012 0.497998
75 1 0.861645 0.0509825 0.497838
2857 1 0.868382 0.0625457 0.498662
5597 1 0.880575 0.0627178 0.499108
2663 1 0.873468 0.0525729 0.498191
2451 1 0.886053 0.0533701 0.498625
2731 1 0.89923 0.0536881 0.499851
2595 1 0.904663 0.065313 0.498382
5386 1 0.921989 0.0452026 0.498501
2457 1 0.925117 0.0593718 0.498174
2665 1 0.915997 0.0683333 0.498212
2523 1 0.912869 0.056909 0.498364
2524 1 0.932141 0.0509129 0.496833
2528 1 0.936037 0.0633112 0.496933
2529 1 0.944161 0.0544779 0.496932
2530 1 0.951268 0.065938 0.495893
2674 1 0.954984 0.0489836 0.495828
2608 1 0.973715 0.0544199 0.495343
2600 1 0.963461 0.0590572 0.495472
2603 1 0.973282 0.0660182 0.494021
2399 1 0.983169 0.0459827 0.494933
2671 1 0.983853 0.0594306 0.494696
2328 1 0.994473 0.0521308 0.492959
2394 1 0.994855 0.0657838 0.494619
5533 1 0.521055 0.0893854 0.499528
5392 1 0.529351 0.0803032 0.499575
5395 1 0.537305 0.0714788 0.500077
2802 1 0.535048 0.0923085 0.498651
5462 1 0.524481 0.0687373 0.499037
5464 1 0.542259 0.0824132 0.499965
5402 1 0.561729 0.0708808 0.497518
2801 1 0.554285 0.0807345 0.498436
2805 1 0.566668 0.0829219 0.498438
5540 1 0.573082 0.0732169 0.499921
2806 1 0.578742 0.0831943 0.498163
5536 1 0.585713 0.0740787 0.498588
2808 1 0.591583 0.0860154 0.498552
2883 1 0.598583 0.0767654 0.499537
2811 1 0.603881 0.0884035 0.497839
2957 1 0.611427 0.0793012 0.499062
2812 1 0.615479 0.089953 0.49805
2885 1 0.629933 0.0686833 0.497223
2956 1 0.636252 0.0805217 0.496788
2954 1 0.623493 0.0811318 0.497722
3106 1 0.641678 0.0709356 0.496926
2963 1 0.653798 0.0717102 0.495558
3094 1 0.647938 0.0820069 0.496394
3103 1 0.659732 0.0839824 0.494568
3038 1 0.670883 0.0846241 0.495592
2966 1 0.676759 0.0754153 0.496348
3037 1 0.665409 0.0728467 0.495267
3179 1 0.683849 0.0854131 0.495116
3033 1 0.695451 0.0858016 0.495524
3032 1 0.702192 0.0768699 0.495661
2909 1 0.689223 0.0764192 0.495563
3107 1 0.706667 0.0867644 0.495631
2968 1 0.714157 0.077144 0.494878
3034 1 0.717177 0.0880859 0.49703
2970 1 0.725697 0.0785022 0.496567
2976 1 0.744907 0.0697253 0.495592
2974 1 0.738422 0.0787549 0.495233
2904 1 0.748975 0.0822785 0.495789
3115 1 0.729308 0.0890378 0.496175
3039 1 0.740587 0.0923797 0.49661
3043 1 0.7555 0.072424 0.49349
2913 1 0.766858 0.0737697 0.495925
2979 1 0.760381 0.0835904 0.494405
3053 1 0.792855 0.0747399 0.495903
2981 1 0.773053 0.0841551 0.494267
2912 1 0.784507 0.0837855 0.495978
2924 1 0.779263 0.0735261 0.495894
3061 1 0.798761 0.0864779 0.496692
3063 1 0.812192 0.0880681 0.4958
2987 1 0.805789 0.0772359 0.495325
2992 1 0.825004 0.0666738 0.496308
3065 1 0.819024 0.0787459 0.494641
2998 1 0.837669 0.0689173 0.496252
3002 1 0.830842 0.0787637 0.497442
3052 1 0.82359 0.0892535 0.495845
3006 1 0.860038 0.0702613 0.498011
3000 1 0.848714 0.069385 0.497719
2934 1 0.853949 0.0799998 0.498392
3078 1 0.841835 0.0804993 0.497483
5598 1 0.866807 0.0817896 0.49805
2664 1 0.886373 0.0734444 0.498765
2866 1 0.873429 0.0727699 0.498761
3009 1 0.878262 0.0826661 0.498558
2737 1 0.898839 0.0910875 0.49722
2735 1 0.907951 0.0806539 0.497323
2668 1 0.897123 0.0760309 0.499173
73 1 0.889683 0.085136 0.497659
2597 1 0.928456 0.0707682 0.497607
2456 1 0.919974 0.0781566 0.496539
2738 1 0.921666 0.0896628 0.49665
151 1 0.931595 0.0827145 0.495102
2531 1 0.950938 0.079012 0.495661
2741 1 0.939547 0.0744878 0.496105
2667 1 0.94276 0.087672 0.496487
288 1 0.962053 0.0724222 0.494848
2669 1 0.973299 0.0765488 0.49608
149 1 0.963698 0.0850064 0.494756
80 1 0.974484 0.0888904 0.495609
2602 1 0.98416 0.0705675 0.496028
2672 1 0.99439 0.0779708 0.494988
148 1 0.984754 0.0842137 0.497357
9 1 0.99672 0.0892151 0.49731
2729 1 0.507318 0.110088 0.499667
5463 1 0.517766 0.111408 0.49881
2658 1 0.516293 0.099678 0.498487
2799 1 0.539738 0.103091 0.499005
201 1 0.53189 0.112713 0.498389
137 1 0.527328 0.10141 0.500264
2804 1 0.564477 0.104448 0.498757
2807 1 0.55198 0.104107 0.499098
2797 1 0.548264 0.0921651 0.499049
5534 1 0.559852 0.0939211 0.499207
2878 1 0.576173 0.106362 0.499059
3016 1 0.588323 0.105919 0.498174
2880 1 0.58245 0.0951804 0.498655
5539 1 0.571125 0.09374 0.498894
5541 1 0.59541 0.0977306 0.498918
2881 1 0.60039 0.109036 0.498374
2958 1 0.607212 0.0995714 0.497987
3023 1 0.612341 0.11042 0.497567
2953 1 0.628781 0.0911329 0.497406
2876 1 0.632315 0.101577 0.496033
3024 1 0.620103 0.100989 0.497532
2949 1 0.62547 0.111089 0.495973
3026 1 0.641182 0.0926658 0.496808
2959 1 0.653073 0.0940204 0.49511
3157 1 0.64529 0.102174 0.494372
3095 1 0.658131 0.106117 0.494065
3163 1 0.638005 0.111724 0.495942
3101 1 0.676391 0.0958696 0.495157
3088 1 0.67056 0.10565 0.494102
3096 1 0.664429 0.0950165 0.494355
3098 1 0.68237 0.106234 0.496073
3109 1 0.687837 0.0963601 0.495255
3036 1 0.699083 0.097876 0.496225
3172 1 0.69343 0.10748 0.49651
2965 1 0.703957 0.11029 0.4963
3118 1 0.723176 0.100769 0.496261
3253 1 0.715422 0.110068 0.495773
3110 1 0.710737 0.098859 0.497352
3117 1 0.72862 0.111992 0.497364
3046 1 0.747243 0.102261 0.496169
3042 1 0.735103 0.101187 0.495391
3045 1 0.740659 0.112021 0.49548
2975 1 0.753498 0.09169 0.494992
3050 1 0.758433 0.103213 0.49552
2980 1 0.766482 0.094183 0.494954
2982 1 0.773746 0.103545 0.495013
3049 1 0.752652 0.113096 0.495473
2985 1 0.779492 0.0938172 0.495996
3057 1 0.784988 0.105515 0.497275
2994 1 0.792136 0.0967459 0.496519
3071 1 0.796921 0.108089 0.498079
2999 1 0.809139 0.110711 0.497371
2988 1 0.804721 0.0982757 0.4969
2984 1 0.816133 0.0990812 0.495825
3069 1 0.835347 0.0915457 0.497289
3070 1 0.827412 0.100725 0.495677
3075 1 0.819889 0.110421 0.497258
3147 1 0.840131 0.103551 0.497307
2868 1 0.857667 0.0913459 0.496243
2936 1 0.847053 0.0912048 0.497211
72 1 0.851935 0.102837 0.498074
3145 1 0.863042 0.102307 0.49661
2928 1 0.857363 0.113194 0.497749
3008 1 0.875173 0.102815 0.496631
3077 1 0.869665 0.0920938 0.496865
4 1 0.882958 0.0931888 0.497771
2870 1 0.898723 0.102491 0.497389
2940 1 0.888873 0.106117 0.496105
2525 1 0.910139 0.0932117 0.496912
77 1 0.922655 0.0995077 0.495938
2598 1 0.911616 0.105124 0.497405
3148 1 0.922123 0.112569 0.497163
141 1 0.932837 0.09393 0.495655
211 1 0.944329 0.0988946 0.495623
213 1 0.933163 0.106587 0.495764
8 1 0.954564 0.0912607 0.496211
147 1 0.94483 0.110433 0.496385
74 1 0.953843 0.103863 0.49842
79 1 0.964455 0.0973302 0.496638
289 1 0.965215 0.10947 0.497407
146 1 0.97492 0.102416 0.495623
153 1 0.984184 0.0957787 0.497334
10 1 0.997024 0.101578 0.497383
287 1 0.985791 0.108579 0.497229
220 1 0.996797 0.112927 0.495575
2941 1 0.517197 0.134386 0.498785
2803 1 0.512147 0.122555 0.499759
198 1 0.504963 0.131005 0.498654
68 1 0.542683 0.134696 0.496877
5531 1 0.543157 0.114818 0.499012
207 1 0.523124 0.121766 0.49857
67 1 0.536873 0.125286 0.499126
2875 1 0.529279 0.133561 0.497553
2871 1 0.562319 0.12611 0.497982
2809 1 0.54791 0.124961 0.497402
5532 1 0.555189 0.115315 0.498389
2873 1 0.568494 0.115491 0.497813
2948 1 0.580045 0.116526 0.499216
2872 1 0.585658 0.129436 0.49779
2879 1 0.573815 0.126849 0.497345
2877 1 0.590945 0.117812 0.497375
2951 1 0.609491 0.132058 0.497556
2810 1 0.604041 0.120171 0.497365
2947 1 0.597341 0.129779 0.497438
2955 1 0.616636 0.121898 0.496306
2952 1 0.628069 0.123342 0.496064
3083 1 0.621568 0.133541 0.496267
3313 1 0.633061 0.134858 0.49628
3085 1 0.650134 0.115254 0.495117
3020 1 0.64029 0.123702 0.495621
2950 1 0.653881 0.127877 0.494871
3019 1 0.645591 0.135364 0.495568
3090 1 0.661825 0.116922 0.493784
3164 1 0.666122 0.126784 0.495715
3022 1 0.678448 0.128358 0.496137
3093 1 0.674773 0.116735 0.495889
3167 1 0.689272 0.128173 0.495965
3180 1 0.701126 0.130251 0.496204
3099 1 0.685503 0.116688 0.494785
3243 1 0.696341 0.118949 0.497045
3041 1 0.708015 0.12112 0.496802
3114 1 0.713376 0.131769 0.495803
3108 1 0.720527 0.120039 0.497286
3188 1 0.726073 0.133024 0.49715
2902 1 0.73303 0.122831 0.497567
3256 1 0.745162 0.122733 0.497314
3184 1 0.73848 0.134438 0.497612
2983 1 0.76507 0.114116 0.495876
3120 1 0.757218 0.124864 0.495503
3122 1 0.772029 0.125391 0.496234
3257 1 0.751329 0.136659 0.497825
3056 1 0.777899 0.114807 0.496202
2986 1 0.782739 0.125729 0.498098
3054 1 0.790188 0.117186 0.497487
3128 1 0.792849 0.129478 0.496809
3051 1 0.777191 0.136682 0.497164
3062 1 0.806165 0.131001 0.49631
3055 1 0.801933 0.12105 0.497101
3066 1 0.813656 0.121293 0.496229
3131 1 0.820653 0.133728 0.496752
3067 1 0.832432 0.113871 0.497595
3133 1 0.832525 0.134618 0.496912
3204 1 0.825086 0.123609 0.497083
3130 1 0.838633 0.12488 0.498516
3003 1 0.845917 0.113393 0.497121
3074 1 0.851337 0.12501 0.497646
3138 1 0.84388 0.135068 0.49834
3073 1 0.861906 0.123768 0.497697
2939 1 0.880915 0.114028 0.496651
3149 1 0.869609 0.132351 0.497033
3206 1 0.879452 0.126138 0.497366
3010 1 0.868515 0.113889 0.497152
2596 1 0.903214 0.114451 0.497598
2736 1 0.901455 0.126957 0.496167
216 1 0.891767 0.132109 0.497729
3068 1 0.891198 0.120515 0.497294
2869 1 0.914435 0.132593 0.495462
143 1 0.924739 0.125422 0.495386
71 1 0.913648 0.120467 0.495377
285 1 0.945357 0.123485 0.497402
215 1 0.934869 0.13009 0.496122
142 1 0.933904 0.117988 0.496001
3208 1 0.946042 0.13571 0.497392
145 1 0.95438 0.115613 0.497037
217 1 0.974609 0.116009 0.495888
144 1 0.965647 0.122244 0.498031
282 1 0.956019 0.128466 0.497321
293 1 0.968042 0.135491 0.498573
219 1 0.978474 0.127982 0.496186
360 1 0.988447 0.120653 0.497505
223 1 0.998402 0.125984 0.498371
290 1 0.98893 0.133269 0.498532
134 1 0.514905 0.152306 0.499164
208 1 0.523894 0.145981 0.499105
344 1 0.509121 0.14266 0.498695
135 1 0.534996 0.143865 0.498191
206 1 0.541048 0.156791 0.498524
138 1 0.528029 0.156577 0.49666
210 1 0.554313 0.13591 0.497123
2942 1 0.567058 0.139181 0.497772
209 1 0.553496 0.157553 0.496366
205 1 0.545285 0.147771 0.496595
2944 1 0.559564 0.147572 0.49693
3084 1 0.578887 0.140552 0.497423
3017 1 0.572387 0.151343 0.495873
2945 1 0.583733 0.151102 0.497069
3018 1 0.590803 0.139527 0.496442
3156 1 0.606598 0.152291 0.494933
3015 1 0.603298 0.141735 0.496449
3011 1 0.594625 0.150573 0.496448
3170 1 0.613899 0.143745 0.496834
3238 1 0.630808 0.156133 0.495288
3162 1 0.619641 0.153599 0.496485
3169 1 0.626282 0.144054 0.496776
3168 1 0.655646 0.156551 0.495069
3173 1 0.651315 0.144616 0.495911
3240 1 0.638181 0.144953 0.495461
3086 1 0.643844 0.155642 0.496428
3091 1 0.659266 0.137423 0.495403
3247 1 0.670619 0.13793 0.494826
3312 1 0.66396 0.147714 0.496121
3174 1 0.676074 0.149191 0.49522
3166 1 0.683117 0.139557 0.496342
3111 1 0.687794 0.149979 0.495584
3104 1 0.698839 0.152125 0.496583
3097 1 0.694704 0.140074 0.49605
3182 1 0.711519 0.153624 0.496002
3177 1 0.723645 0.15417 0.496124
3175 1 0.706848 0.14279 0.495611
3183 1 0.719554 0.14338 0.496729
3181 1 0.731409 0.144277 0.497466
3398 1 0.744058 0.145803 0.497863
3112 1 0.735689 0.155123 0.498552
3113 1 0.75007 0.158577 0.497959
3178 1 0.764122 0.136621 0.497486
3044 1 0.754787 0.14733 0.499229
3047 1 0.7683 0.147558 0.497497
2969 1 0.760999 0.158388 0.498154
3195 1 0.779965 0.148699 0.498314
3119 1 0.787535 0.140147 0.496986
3196 1 0.772137 0.158946 0.499894
3121 1 0.792446 0.150811 0.498837
3125 1 0.80493 0.15159 0.497922
3197 1 0.812055 0.142431 0.498399
3265 1 0.815885 0.154155 0.498447
3060 1 0.800214 0.141177 0.496621
3139 1 0.836052 0.145247 0.49841
3127 1 0.823868 0.143292 0.498941
3273 1 0.840382 0.157446 0.498081
3058 1 0.829139 0.154678 0.498849
3203 1 0.86023 0.150383 0.49774
3142 1 0.856584 0.137353 0.499034
3064 1 0.847802 0.147302 0.498779
3143 1 0.870058 0.143724 0.498676
2938 1 0.881473 0.139465 0.496848
3140 1 0.870897 0.156959 0.497679
3216 1 0.881848 0.151914 0.498129
2 1 0.893027 0.143664 0.495684
3007 1 0.902823 0.150354 0.495698
212 1 0.90363 0.138329 0.496234
214 1 0.892521 0.156696 0.496683
359 1 0.924743 0.13882 0.496709
354 1 0.92503 0.149318 0.496761
3079 1 0.913338 0.144304 0.49655
3211 1 0.913468 0.155511 0.496898
3072 1 0.945749 0.148179 0.497565
3150 1 0.936101 0.142286 0.495873
3144 1 0.935516 0.154852 0.49925
3215 1 0.9564 0.140557 0.497857
218 1 0.979282 0.140408 0.498931
3080 1 0.96683 0.147455 0.499187
3355 1 0.956621 0.154093 0.498079
281 1 0.978463 0.152164 0.499615
353 1 0.989265 0.14566 0.498683
361 1 0.999033 0.138873 0.498669
3213 1 0.998731 0.151724 0.500243
283 1 0.987703 0.157454 0.500391
203 1 0.508771 0.162772 0.501362
3366 1 0.536037 0.177076 0.499113
204 1 0.53087 0.165934 0.499031
346 1 0.545169 0.169418 0.497359
202 1 0.565308 0.159777 0.498643
418 1 0.550136 0.179387 0.499444
274 1 0.557004 0.169376 0.497218
485 1 0.562039 0.180668 0.497902
419 1 0.569688 0.171264 0.498605
3081 1 0.588374 0.16176 0.496022
2946 1 0.57606 0.161995 0.497397
489 1 0.582999 0.172007 0.497199
279 1 0.575365 0.182559 0.498897
3222 1 0.600416 0.162621 0.496709
276 1 0.594836 0.173172 0.49626
3089 1 0.607177 0.173534 0.496354
3021 1 0.612519 0.163917 0.494807
3161 1 0.629711 0.175816 0.496519
3171 1 0.625057 0.165044 0.495908
3155 1 0.619125 0.174463 0.498135
3092 1 0.63643 0.166441 0.497597
3311 1 0.64923 0.167558 0.495884
3244 1 0.654785 0.177893 0.496938
3242 1 0.641974 0.176574 0.497318
3317 1 0.66708 0.158383 0.494945
3241 1 0.673222 0.169593 0.49632
3250 1 0.661165 0.168164 0.496167
3102 1 0.680607 0.160874 0.49575
3381 1 0.667198 0.18015 0.497149
3316 1 0.684713 0.17134 0.495867
3165 1 0.696423 0.173278 0.496145
3246 1 0.691743 0.16109 0.495433
3248 1 0.703895 0.161956 0.496763
3249 1 0.720529 0.17557 0.497834
3392 1 0.715592 0.164509 0.497577
3255 1 0.70844 0.174446 0.495901
3186 1 0.741087 0.166144 0.498523
3332 1 0.745629 0.177653 0.49963
3251 1 0.733303 0.176149 0.49731
3254 1 0.726983 0.165659 0.496808
3406 1 0.764981 0.168432 0.499153
3326 1 0.753385 0.168528 0.499336
3258 1 0.758334 0.179435 0.499075
3185 1 0.770297 0.181689 0.498594
3191 1 0.784374 0.16018 0.499318
3048 1 0.777084 0.170338 0.498602
3329 1 0.791542 0.171307 0.50019
3192 1 0.796713 0.161577 0.498779
3334 1 0.809355 0.162329 0.499094
3336 1 0.802411 0.172943 0.499385
3414 1 0.815242 0.174517 0.500293
3129 1 0.835376 0.169224 0.49877
3275 1 0.825768 0.175336 0.498482
3124 1 0.821784 0.164624 0.497853
3134 1 0.850525 0.163259 0.497819
3205 1 0.858302 0.178304 0.497622
3076 1 0.861846 0.162672 0.497906
3271 1 0.846021 0.174941 0.498553
3279 1 0.869711 0.169729 0.497712
3135 1 0.881105 0.163818 0.497932
3347 1 0.879364 0.177152 0.498419
351 1 0.903249 0.163045 0.497879
3284 1 0.899728 0.174699 0.498209
3281 1 0.889749 0.170904 0.496693
3349 1 0.913397 0.168537 0.497731
3146 1 0.923776 0.162353 0.497193
3346 1 0.914878 0.179286 0.498895
3348 1 0.924384 0.17426 0.498972
3359 1 0.93489 0.166244 0.496703
3209 1 0.945289 0.160761 0.498477
3141 1 0.945849 0.172032 0.497639
3286 1 0.933844 0.178885 0.498275
3210 1 0.956061 0.165486 0.499618
3212 1 0.968244 0.159067 0.50036
3217 1 0.989226 0.169323 0.500589
3365 1 0.541791 0.188093 0.498424
3151 1 0.523154 0.19742 0.49944
3507 1 0.530187 0.188118 0.499073
3225 1 0.56714 0.190515 0.498403
350 1 0.555458 0.189204 0.498653
275 1 0.548632 0.198607 0.501003
273 1 0.586775 0.182442 0.49699
3297 1 0.586058 0.204305 0.498687
3299 1 0.581636 0.192975 0.498806
3224 1 0.572285 0.201308 0.499114
3082 1 0.593304 0.194294 0.498037
277 1 0.605072 0.193915 0.497789
2943 1 0.599665 0.184013 0.497527
3013 1 0.611395 0.184053 0.496632
3087 1 0.630178 0.196358 0.497852
3233 1 0.622537 0.186261 0.49733
3159 1 0.637048 0.18645 0.497347
3291 1 0.616521 0.19464 0.497647
3319 1 0.653471 0.199959 0.499543
3315 1 0.648482 0.188772 0.498701
3158 1 0.64132 0.198584 0.498815
3309 1 0.662847 0.190741 0.499312
3252 1 0.679336 0.181803 0.496991
3380 1 0.674351 0.192864 0.497802
3318 1 0.664605 0.202695 0.498636
3384 1 0.677222 0.203443 0.498501
3100 1 0.690698 0.183943 0.497519
3391 1 0.685947 0.193764 0.497888
3325 1 0.702239 0.184701 0.49556
3385 1 0.696851 0.193542 0.497421
3320 1 0.708276 0.195707 0.497615
3245 1 0.713977 0.184611 0.498493
3395 1 0.720429 0.19565 0.49804
3321 1 0.727061 0.186255 0.498265
3323 1 0.744793 0.19927 0.497451
3461 1 0.732507 0.198021 0.498204
3331 1 0.739594 0.189081 0.498135
3259 1 0.764116 0.191846 0.499161
3324 1 0.77096 0.202964 0.499226
3476 1 0.757816 0.20034 0.498305
3327 1 0.751489 0.188451 0.497064
3190 1 0.778688 0.190311 0.499018
3194 1 0.802099 0.191678 0.499639
3126 1 0.836402 0.181371 0.49902
3274 1 0.848365 0.186283 0.49884
3415 1 0.859531 0.191748 0.499022
3202 1 0.849928 0.198935 0.500464
3357 1 0.879222 0.189325 0.498631
3200 1 0.870065 0.196332 0.49966
3272 1 0.880794 0.200847 0.499424
3413 1 0.868929 0.184817 0.49915
3277 1 0.889726 0.181928 0.500019
3136 1 0.90197 0.196894 0.498324
3132 1 0.903345 0.186196 0.498411
3429 1 0.890154 0.193112 0.499143
562 1 0.913274 0.19268 0.499423
3137 1 0.922903 0.197864 0.499503
3282 1 0.923379 0.186719 0.500099
3350 1 0.935743 0.202875 0.500346
3288 1 0.945234 0.184416 0.498056
3152 1 0.540355 0.209327 0.500618
3305 1 0.591107 0.214161 0.498214
3014 1 0.583364 0.224744 0.500154
3223 1 0.57083 0.222347 0.500454
3226 1 0.598131 0.204272 0.498949
3509 1 0.595149 0.22474 0.499137
3239 1 0.608757 0.205715 0.49773
3308 1 0.603399 0.21617 0.497819
3234 1 0.606319 0.227145 0.499406
3237 1 0.614756 0.217511 0.49843
3230 1 0.626496 0.217112 0.498626
3227 1 0.634039 0.20768 0.499369
3301 1 0.621736 0.206378 0.49763
3231 1 0.637826 0.220874 0.499347
3229 1 0.64602 0.209977 0.498085
3388 1 0.657606 0.212812 0.499241
3585 1 0.649354 0.221504 0.499102
3445 1 0.669168 0.213102 0.499916
3376 1 0.66252 0.221922 0.499689
3382 1 0.682029 0.214664 0.499261
3387 1 0.689518 0.203838 0.499003
3390 1 0.701046 0.205969 0.498057
3389 1 0.693798 0.214974 0.499339
3452 1 0.706233 0.21754 0.500339
3397 1 0.713566 0.207028 0.499354
3386 1 0.719255 0.217889 0.499906
3399 1 0.725091 0.206183 0.499748
3465 1 0.741405 0.220723 0.499493
3463 1 0.730841 0.218381 0.499735
3467 1 0.74884 0.210622 0.498579
3459 1 0.736498 0.209188 0.496979
3469 1 0.765352 0.223009 0.498625
3330 1 0.753114 0.222123 0.498597
3401 1 0.761389 0.212166 0.49775
3189 1 0.77332 0.214634 0.499893
3260 1 0.796569 0.206424 0.499833
3472 1 0.778096 0.22578 0.499409
3475 1 0.785478 0.21405 0.498963
3466 1 0.789144 0.227247 0.498894
3261 1 0.797717 0.219868 0.499872
3473 1 0.809434 0.224446 0.499035
3405 1 0.817184 0.206935 0.499945
3412 1 0.859875 0.216549 0.498596
3344 1 0.850216 0.22363 0.500473
3337 1 0.871906 0.220725 0.500738
3268 1 0.882657 0.212129 0.499178
3276 1 0.8932 0.204327 0.49893
3345 1 0.904553 0.224034 0.500467
3423 1 0.894263 0.21767 0.498622
3496 1 0.924218 0.22243 0.500283
3356 1 0.912877 0.203692 0.500018
3354 1 0.913511 0.216012 0.498738
3343 1 0.926074 0.209045 0.499501
496 1 0.959141 0.22621 0.500875
3369 1 0.600149 0.236229 0.498924
3228 1 0.60168 0.248174 0.498892
3310 1 0.61956 0.228486 0.498089
3012 1 0.623582 0.239078 0.499459
3375 1 0.634815 0.243043 0.499551
3370 1 0.631267 0.228913 0.497087
3517 1 0.641396 0.233137 0.498377
3449 1 0.647181 0.24295 0.498903
3235 1 0.654231 0.232242 0.49817
3588 1 0.65828 0.24219 0.499982
3374 1 0.677788 0.2354 0.500139
3593 1 0.716277 0.239622 0.498944
3526 1 0.707448 0.249777 0.49937
3458 1 0.727059 0.240017 0.500323
3474 1 0.745213 0.231897 0.498984
3322 1 0.737403 0.241076 0.499898
3393 1 0.733363 0.230032 0.499509
3537 1 0.749227 0.242738 0.499591
3477 1 0.75749 0.233292 0.498997
3400 1 0.762192 0.2433 0.500555
3328 1 0.76944 0.234558 0.498729
3403 1 0.774638 0.244842 0.497898
3479 1 0.783866 0.236988 0.497629
3464 1 0.799354 0.233582 0.498042
3342 1 0.79748 0.24466 0.499448
3333 1 0.820093 0.243242 0.500797
3491 1 0.840416 0.241418 0.499076
3338 1 0.861036 0.228569 0.499517
3563 1 0.862649 0.240894 0.498862
3629 1 0.884385 0.248931 0.500629
3494 1 0.873204 0.245109 0.49987
3565 1 0.915552 0.22834 0.501073
564 1 0.928491 0.248951 0.500009
3424 1 0.918019 0.240602 0.500268
3430 1 0.937342 0.24072 0.499402
3236 1 0.595816 0.259016 0.499514
3511 1 0.612837 0.249977 0.500035
3379 1 0.654104 0.254079 0.499366
3160 1 0.646917 0.263332 0.499684
3378 1 0.642283 0.253384 0.498633
3450 1 0.669581 0.267943 0.499419
3448 1 0.676414 0.256499 0.499611
3737 1 0.680977 0.268448 0.499407
3516 1 0.688496 0.258214 0.498784
3670 1 0.693911 0.268229 0.497581
3590 1 0.720338 0.252014 0.499265
3594 1 0.726383 0.263168 0.499835
3453 1 0.713217 0.261355 0.497959
3592 1 0.706055 0.270803 0.498662
3396 1 0.732558 0.252999 0.499284
3661 1 0.749442 0.266472 0.4993
3394 1 0.738449 0.263382 0.498408
3522 1 0.743412 0.254134 0.499888
3545 1 0.766519 0.253716 0.498721
3597 1 0.754132 0.255315 0.499632
3527 1 0.761178 0.266117 0.498837
3407 1 0.788035 0.248826 0.498305
3532 1 0.776729 0.269743 0.498877
3617 1 0.777602 0.256632 0.499692
3541 1 0.787483 0.264018 0.498561
3486 1 0.807754 0.249782 0.499953
3549 1 0.799481 0.257428 0.498753
3535 1 0.799863 0.269431 0.500218
3558 1 0.819164 0.255393 0.500079
3546 1 0.829545 0.261433 0.498214
3421 1 0.840226 0.255115 0.500055
3341 1 0.832567 0.273581 0.498307
3624 1 0.862937 0.265242 0.499429
3685 1 0.853151 0.270128 0.499277
3488 1 0.842183 0.264476 0.498681
3420 1 0.86229 0.252536 0.498916
3694 1 0.873503 0.268603 0.498036
3487 1 0.883211 0.261765 0.499603
3564 1 0.897071 0.266362 0.500132
3638 1 0.908939 0.272876 0.498977
704 1 0.917613 0.253593 0.49926
3693 1 0.918471 0.266439 0.499343
3569 1 0.929232 0.260736 0.499029
3498 1 0.93867 0.254003 0.498789
3500 1 0.939197 0.266784 0.499378
632 1 0.94917 0.258125 0.499245
771 1 0.96102 0.262644 0.499966
3377 1 0.6132 0.271846 0.500003
3646 1 0.616281 0.283688 0.500955
3584 1 0.654594 0.285864 0.49995
3652 1 0.640618 0.283167 0.500506
3521 1 0.678379 0.289158 0.497997
3519 1 0.6627 0.276888 0.499106
3663 1 0.666649 0.287358 0.500873
3596 1 0.674359 0.279457 0.500264
3457 1 0.69831 0.282073 0.497735
3805 1 0.686979 0.279204 0.499323
3667 1 0.689819 0.290465 0.498138
3742 1 0.702619 0.294426 0.497805
3444 1 0.718391 0.271489 0.498316
3600 1 0.71038 0.282127 0.498782
3524 1 0.722457 0.282621 0.49862
3673 1 0.715209 0.293166 0.498317
3598 1 0.727755 0.293925 0.497913
3589 1 0.731353 0.273679 0.497988
3528 1 0.734414 0.284492 0.497176
3533 1 0.742895 0.27639 0.497938
3613 1 0.747466 0.286674 0.49671
3602 1 0.754794 0.277862 0.497957
3554 1 0.75976 0.289025 0.495862
3402 1 0.768233 0.278002 0.497172
3536 1 0.770639 0.291679 0.495697
3478 1 0.790698 0.276768 0.498384
3530 1 0.780174 0.282785 0.497502
3552 1 0.790553 0.28991 0.498364
3619 1 0.78091 0.295707 0.49735
3529 1 0.80994 0.274294 0.499739
3340 1 0.811805 0.285448 0.49917
3543 1 0.802304 0.293894 0.497585
3470 1 0.800332 0.281168 0.500204
3698 1 0.835612 0.284794 0.499557
3559 1 0.823696 0.291653 0.498236
3560 1 0.823087 0.278774 0.498992
3765 1 0.852976 0.282666 0.499064
3768 1 0.856323 0.295181 0.498506
3490 1 0.876444 0.281492 0.498447
3692 1 0.865692 0.289087 0.498973
3759 1 0.877145 0.293536 0.498127
3484 1 0.865273 0.2772 0.498061
3492 1 0.886892 0.273077 0.498825
3684 1 0.888723 0.285183 0.498099
3623 1 0.898656 0.279541 0.499088
3630 1 0.90909 0.286443 0.498872
3634 1 0.929415 0.273016 0.499059
3774 1 0.919432 0.290872 0.498551
3636 1 0.940058 0.290478 0.499715
842 1 0.961537 0.288608 0.499973
3635 1 0.971748 0.279957 0.499166
3587 1 0.676447 0.31012 0.498918
3662 1 0.670693 0.298974 0.500241
3812 1 0.683122 0.300022 0.498109
3666 1 0.68757 0.313147 0.499584
3671 1 0.698844 0.315216 0.498016
3660 1 0.695346 0.303934 0.499214
3665 1 0.707756 0.305149 0.498502
3814 1 0.71971 0.304471 0.49782
3668 1 0.711275 0.315579 0.498414
3595 1 0.74086 0.296893 0.496169
3531 1 0.733809 0.305744 0.498047
3607 1 0.745184 0.307593 0.496204
3743 1 0.724605 0.314811 0.497507
3454 1 0.740189 0.317809 0.496949
3599 1 0.754555 0.299555 0.495142
3687 1 0.770399 0.302648 0.497257
3468 1 0.759842 0.309842 0.495716
3544 1 0.773072 0.313826 0.494897
3538 1 0.793182 0.30084 0.497942
3539 1 0.781856 0.307835 0.497234
3618 1 0.79417 0.312525 0.495408
3622 1 0.814343 0.299132 0.499892
3553 1 0.814739 0.30902 0.496929
3615 1 0.803925 0.30562 0.497782
3620 1 0.834871 0.296649 0.498108
3481 1 0.835893 0.310661 0.498571
3557 1 0.825035 0.304246 0.49808
3408 1 0.825867 0.316797 0.497208
3689 1 0.845916 0.304233 0.498808
3688 1 0.856482 0.309297 0.498399
3695 1 0.846508 0.317645 0.497712
3561 1 0.877049 0.305655 0.500031
3766 1 0.868456 0.313446 0.499389
3556 1 0.865573 0.301565 0.499267
3983 1 0.878402 0.318228 0.499507
3771 1 0.910258 0.299756 0.499823
3628 1 0.889235 0.298055 0.498723
3773 1 0.899259 0.304826 0.499783
3912 1 0.888439 0.309779 0.500012
3913 1 0.922049 0.318008 0.49943
3770 1 0.921021 0.303202 0.499301
3697 1 0.912512 0.311363 0.498757
3841 1 0.932708 0.310744 0.500098
3707 1 0.951899 0.308395 0.49886
3704 1 0.940871 0.302188 0.49911
3705 1 0.961697 0.300316 0.499872
847 1 0.972186 0.305554 0.499642
844 1 0.98266 0.298459 0.499727
3869 1 0.648476 0.328289 0.501249
3800 1 0.639948 0.338292 0.50048
3659 1 0.680388 0.321542 0.49842
3658 1 0.673665 0.332211 0.498768
3734 1 0.686354 0.333749 0.498293
3873 1 0.700583 0.335166 0.49655
3881 1 0.69212 0.324328 0.498683
3804 1 0.704568 0.32536 0.498934
3738 1 0.718103 0.325165 0.497653
3882 1 0.712395 0.3359 0.497986
3740 1 0.724403 0.33729 0.498145
3669 1 0.731129 0.325984 0.497299
3739 1 0.741642 0.330137 0.497782
3601 1 0.747424 0.340848 0.496413
3525 1 0.751649 0.317828 0.496806
3747 1 0.752921 0.330313 0.495061
3534 1 0.763587 0.321317 0.497363
3745 1 0.764358 0.333261 0.495115
3610 1 0.773632 0.326598 0.495355
3621 1 0.783689 0.320087 0.496158
3825 1 0.774987 0.338551 0.494267
3614 1 0.785313 0.331767 0.49442
3681 1 0.794798 0.324256 0.495724
3752 1 0.805569 0.315997 0.496564
3603 1 0.795461 0.336484 0.495619
3833 1 0.815754 0.335436 0.494968
3482 1 0.816339 0.324634 0.49699
3611 1 0.805365 0.328498 0.496317
3555 1 0.837448 0.323052 0.497238
3832 1 0.826793 0.327841 0.496528
3836 1 0.837591 0.333902 0.49667
3758 1 0.828347 0.340926 0.496374
3542 1 0.857403 0.320383 0.499227
3691 1 0.859947 0.332769 0.498721
3764 1 0.848774 0.328716 0.498209
3690 1 0.847474 0.340566 0.497505
3696 1 0.868965 0.325624 0.499669
3699 1 0.869292 0.339497 0.500413
3701 1 0.881914 0.330852 0.499946
3920 1 0.900908 0.315428 0.499373
3702 1 0.899933 0.328737 0.500076
3843 1 0.89139 0.337077 0.498557
3834 1 0.889909 0.322537 0.499647
3842 1 0.91198 0.323644 0.499417
4054 1 0.913695 0.33633 0.500034
3708 1 0.933883 0.322666 0.499443
3706 1 0.954806 0.322535 0.49895
3849 1 0.964531 0.326509 0.499859
3709 1 0.976192 0.332628 0.499728
3850 1 0.996028 0.329802 0.499767
913 1 0.985736 0.337005 0.500499
3780 1 0.985254 0.323284 0.498522
3863 1 0.637011 0.360372 0.500008
3941 1 0.648703 0.361944 0.499153
3877 1 0.654923 0.350889 0.498774
3801 1 0.675404 0.342985 0.497768
3809 1 0.667682 0.352178 0.499452
3807 1 0.661303 0.361399 0.500423
3731 1 0.678442 0.353928 0.499641
3796 1 0.690083 0.344587 0.498581
3808 1 0.704098 0.345565 0.499186
3811 1 0.690013 0.356447 0.496866
3815 1 0.704528 0.357689 0.498219
3880 1 0.716697 0.360437 0.497565
3746 1 0.715704 0.347866 0.498729
3606 1 0.73369 0.340728 0.496843
3749 1 0.727321 0.35141 0.497417
3604 1 0.741633 0.351254 0.495434
3678 1 0.728888 0.362834 0.496106
3540 1 0.754346 0.350537 0.495221
3753 1 0.766734 0.356635 0.493077
3608 1 0.763891 0.344627 0.493342
3741 1 0.754975 0.363141 0.495272
3612 1 0.777044 0.349725 0.493479
3682 1 0.77744 0.362277 0.49482
3751 1 0.786281 0.343794 0.495454
3827 1 0.787523 0.356456 0.495125
3754 1 0.798174 0.348064 0.495306
3821 1 0.797344 0.361508 0.493785
3548 1 0.806143 0.34135 0.496226
3755 1 0.808154 0.353438 0.495621
3683 1 0.817846 0.346724 0.495456
3829 1 0.81702 0.359486 0.494532
3897 1 0.827758 0.354092 0.496307
3700 1 0.838952 0.346724 0.495319
3762 1 0.838335 0.35884 0.496115
3609 1 0.85787 0.345669 0.498476
3686 1 0.860317 0.359259 0.499091
3760 1 0.849131 0.352572 0.4978
3626 1 0.880303 0.343787 0.49961
3772 1 0.882054 0.35585 0.498755
3838 1 0.870479 0.351305 0.499945
3908 1 0.902317 0.341732 0.498903
3906 1 0.891155 0.348918 0.500211
3899 1 0.902745 0.352766 0.499333
3902 1 0.89218 0.361265 0.499407
3777 1 0.996362 0.342733 0.500388
3935 1 0.652416 0.372428 0.500293
3948 1 0.664429 0.372816 0.498617
3929 1 0.67764 0.376142 0.498243
3806 1 0.671951 0.364067 0.498876
4028 1 0.667497 0.385401 0.498374
3883 1 0.696246 0.36719 0.498129
3885 1 0.689853 0.376918 0.497798
3879 1 0.684329 0.365724 0.498438
3963 1 0.701435 0.380295 0.498821
3810 1 0.708116 0.369764 0.49761
3748 1 0.721403 0.372885 0.497507
3893 1 0.715501 0.382642 0.497334
3677 1 0.733203 0.373244 0.49644
3674 1 0.743001 0.380171 0.494073
3813 1 0.743107 0.36424 0.495309
3891 1 0.73026 0.384699 0.495498
3675 1 0.765723 0.368932 0.493391
3672 1 0.754757 0.375193 0.495175
3744 1 0.766418 0.380604 0.494057
3605 1 0.776283 0.373935 0.494657
3822 1 0.786563 0.368665 0.4946
3616 1 0.788756 0.380281 0.495027
3888 1 0.777934 0.386306 0.493082
3679 1 0.799306 0.373463 0.494764
3892 1 0.808573 0.36703 0.494701
3826 1 0.808428 0.380176 0.495001
3965 1 0.819623 0.373063 0.495372
3901 1 0.828176 0.365542 0.495615
3967 1 0.829806 0.378811 0.496621
3898 1 0.840077 0.372628 0.496082
3968 1 0.840803 0.38402 0.496616
3761 1 0.849268 0.365445 0.496813
3757 1 0.859323 0.372144 0.499517
3972 1 0.849957 0.379073 0.498161
3905 1 0.86035 0.384013 0.498298
3911 1 0.870483 0.363762 0.498589
3896 1 0.881328 0.368468 0.499776
3835 1 0.87076 0.377634 0.498886
3828 1 0.881496 0.381193 0.49924
3904 1 0.891266 0.373913 0.500275
3971 1 0.90272 0.381027 0.499922
3955 1 0.664458 0.405936 0.498594
3878 1 0.661776 0.395267 0.498832
3949 1 0.673644 0.396294 0.499197
3886 1 0.680872 0.387474 0.49782
3818 1 0.692632 0.389962 0.498218
3817 1 0.697213 0.399866 0.498744
3816 1 0.683723 0.399781 0.498241
3884 1 0.705329 0.390894 0.497142
4029 1 0.719275 0.393464 0.497275
3820 1 0.711441 0.401483 0.498903
3960 1 0.722671 0.405102 0.495484
3890 1 0.73126 0.397033 0.495748
3750 1 0.743144 0.392382 0.495233
3676 1 0.745848 0.402783 0.496208
4033 1 0.75567 0.386491 0.49594
3823 1 0.767051 0.392732 0.494205
3889 1 0.765659 0.40522 0.495527
3680 1 0.756814 0.398262 0.495461
4111 1 0.786311 0.404056 0.49472
3819 1 0.777059 0.397722 0.494616
3958 1 0.787998 0.391975 0.494961
3824 1 0.79929 0.385448 0.495781
3830 1 0.809265 0.39267 0.495089
4105 1 0.808024 0.404883 0.49552
4036 1 0.798986 0.397529 0.494106
3831 1 0.818212 0.38517 0.49584
4031 1 0.818372 0.398312 0.496023
3895 1 0.828342 0.390547 0.49603
4039 1 0.829613 0.403148 0.495343
4040 1 0.84012 0.397002 0.496395
4115 1 0.841489 0.409559 0.496793
3975 1 0.850162 0.390381 0.497908
4045 1 0.852435 0.403471 0.497063
4108 1 0.860838 0.395865 0.498318
3977 1 0.873229 0.402402 0.497571
3970 1 0.883708 0.392515 0.498699
3976 1 0.862876 0.407791 0.497366
3978 1 0.872261 0.389483 0.499106
3840 1 0.884067 0.407418 0.498852
3973 1 0.892683 0.400104 0.499491
4049 1 0.902827 0.393377 0.49969
4023 1 0.657486 0.415907 0.498323
3953 1 0.676604 0.409743 0.497807
4165 1 0.673 0.429292 0.497811
3952 1 0.66851 0.418628 0.499098
4024 1 0.661509 0.4276 0.499738
4168 1 0.680252 0.420144 0.49966
4096 1 0.701395 0.410402 0.499324
4021 1 0.692906 0.421205 0.499505
4167 1 0.704217 0.422658 0.49949
4087 1 0.690141 0.409788 0.496941
4098 1 0.715921 0.423747 0.498975
3887 1 0.713811 0.4128 0.498365
4099 1 0.726055 0.416341 0.497707
4163 1 0.726911 0.429055 0.499291
4027 1 0.748201 0.430879 0.496554
3961 1 0.734275 0.409928 0.495437
4097 1 0.738524 0.424649 0.498679
4026 1 0.744662 0.413914 0.496345
4035 1 0.767399 0.428757 0.495007
3956 1 0.756344 0.411894 0.496854
3959 1 0.756413 0.422815 0.495718
4107 1 0.766537 0.416829 0.494663
3894 1 0.776867 0.411818 0.495281
4187 1 0.789708 0.429478 0.494448
4034 1 0.787459 0.417214 0.494702
4106 1 0.777761 0.423488 0.495203
4177 1 0.79846 0.41058 0.495973
3957 1 0.809833 0.417346 0.495392
3964 1 0.810865 0.428743 0.495369
3966 1 0.798804 0.422641 0.495721
3756 1 0.819118 0.41055 0.495327
4037 1 0.830747 0.41453 0.495825
4042 1 0.832264 0.426468 0.496487
3962 1 0.821461 0.422409 0.495102
3974 1 0.842634 0.421318 0.49725
4043 1 0.853628 0.415411 0.497972
4114 1 0.852399 0.426988 0.497822
4120 1 0.862905 0.422315 0.498245
3982 1 0.87354 0.413719 0.498903
3909 1 0.883518 0.419915 0.499268
3996 1 0.539661 0.443663 0.500364
3872 1 0.658415 0.447781 0.498282
3951 1 0.653337 0.435786 0.499619
3868 1 0.64678 0.446769 0.499566
4094 1 0.678373 0.440681 0.499236
4018 1 0.670971 0.449551 0.498688
4093 1 0.665062 0.438961 0.497923
3954 1 0.686235 0.430695 0.498741
4154 1 0.683557 0.451648 0.498859
4091 1 0.699714 0.434406 0.499071
4022 1 0.689827 0.441739 0.499216
4086 1 0.723291 0.442085 0.498918
4095 1 0.711004 0.434859 0.498846
4159 1 0.704383 0.4462 0.498568
4092 1 0.747608 0.454923 0.497885
4025 1 0.737581 0.448532 0.499404
4162 1 0.737354 0.436988 0.497811
4101 1 0.748372 0.441616 0.496972
4231 1 0.726386 0.453796 0.499508
4241 1 0.769073 0.440443 0.495635
4300 1 0.759258 0.434758 0.495993
4102 1 0.757481 0.449261 0.495605
4243 1 0.789111 0.453833 0.495621
4164 1 0.778266 0.435489 0.495262
4032 1 0.789909 0.441494 0.495225
4038 1 0.778787 0.44718 0.495953
4104 1 0.799708 0.447195 0.495642
4174 1 0.810244 0.440254 0.496956
4181 1 0.800567 0.434412 0.495852
4235 1 0.811218 0.45232 0.496199
4255 1 0.82238 0.434258 0.495986
4182 1 0.832396 0.440009 0.497373
4254 1 0.834578 0.451819 0.49603
4103 1 0.821166 0.445298 0.497459
4257 1 0.853659 0.439097 0.498221
4110 1 0.842719 0.445153 0.498112
4109 1 0.854254 0.450473 0.497643
4113 1 0.843023 0.433037 0.498376
4041 1 0.865933 0.444564 0.498741
4044 1 0.864161 0.433741 0.498508
4189 1 0.876373 0.438165 0.498722
1393 1 0.500931 0.458144 0.500004
4074 1 0.623653 0.47542 0.49996
4221 1 0.632033 0.46611 0.499946
3947 1 0.626344 0.454909 0.50039
4076 1 0.618545 0.463823 0.500442
4083 1 0.638906 0.456478 0.499668
4009 1 0.651098 0.457263 0.499385
4075 1 0.644492 0.469051 0.49916
3936 1 0.6556 0.469114 0.498219
3942 1 0.673616 0.460768 0.499261
4153 1 0.677988 0.47199 0.498464
4017 1 0.663259 0.457749 0.498532
4228 1 0.667315 0.471489 0.498913
4020 1 0.686423 0.463041 0.499407
4224 1 0.690137 0.47531 0.499534
3876 1 0.697716 0.465614 0.499379
4100 1 0.737644 0.460759 0.499733
4237 1 0.748729 0.466249 0.498625
4155 1 0.740136 0.473273 0.49983
4030 1 0.759619 0.47246 0.498042
4171 1 0.769618 0.466535 0.495852
4232 1 0.759662 0.460317 0.497537
4172 1 0.768866 0.453501 0.496455
4170 1 0.790829 0.467003 0.496603
4236 1 0.781087 0.47266 0.496741
4169 1 0.780015 0.460478 0.496188
4184 1 0.811718 0.476396 0.498083
4180 1 0.801635 0.472841 0.497476
4326 1 0.810386 0.46347 0.497888
4173 1 0.799975 0.459936 0.496941
4321 1 0.822575 0.459571 0.496934
4258 1 0.834987 0.466038 0.498504
4185 1 0.82172 0.470441 0.498507
4251 1 0.843798 0.457767 0.498872
4046 1 0.855942 0.463924 0.499522
4395 1 0.846464 0.470942 0.498521
4118 1 0.86851 0.469947 0.499958
4259 1 0.866508 0.457015 0.498481
4329 1 0.888557 0.458975 0.500639
4403 1 0.898565 0.463391 0.500716
4194 1 0.887695 0.470524 0.499925
1470 1 0.510103 0.481911 0.500136
4273 1 0.522429 0.484538 0.499598
4134 1 0.538241 0.497293 0.501175
1540 1 0.534184 0.48638 0.49934
4064 1 0.564867 0.500505 0.50011
4081 1 0.583413 0.493588 0.49979
4211 1 0.607334 0.495177 0.500204
4281 1 0.596119 0.49366 0.499953
3946 1 0.635411 0.478329 0.499964
4286 1 0.620257 0.496325 0.500453
4005 1 0.614282 0.484338 0.499413
3937 1 0.647844 0.480382 0.499058
4293 1 0.678453 0.496464 0.499119
4082 1 0.665198 0.493995 0.499386
4288 1 0.672117 0.485837 0.499084
4225 1 0.660793 0.480703 0.499289
4361 1 0.683287 0.484919 0.498557
4289 1 0.690891 0.498909 0.500818
4368 1 0.701404 0.477537 0.49956
4226 1 0.695263 0.486864 0.499178
4375 1 0.701184 0.498798 0.497999
4299 1 0.726242 0.490635 0.500099
4298 1 0.707099 0.488118 0.500388
4304 1 0.749462 0.479216 0.498684
4230 1 0.739228 0.485379 0.499357
4229 1 0.727839 0.478585 0.498803
4310 1 0.770923 0.490862 0.497878
4377 1 0.760472 0.497839 0.499576
4371 1 0.770754 0.476838 0.498873
4233 1 0.760042 0.484464 0.498031
4306 1 0.749071 0.491951 0.498618
4249 1 0.781475 0.496593 0.498503
4238 1 0.78008 0.484247 0.497457
4179 1 0.790589 0.478885 0.497122
4319 1 0.792367 0.491261 0.498613
4461 1 0.802397 0.496363 0.498873
4526 1 0.813579 0.489243 0.498975
4183 1 0.802565 0.484233 0.498638
4253 1 0.834591 0.477355 0.498603
4458 1 0.823228 0.483111 0.497685
2659 1 0.509308 0.0354758 0.500598
5 1 0.915986 0.0352174 0.499259
2652 1 0.506091 0.0563685 0.50031
65 1 0.501488 0.0454997 0.499983
2576 1 0.513819 0.0470074 0.499903
2782 1 0.500255 0.0676055 0.500008
2723 1 0.538523 0.049951 0.500185
5466 1 0.569969 0.0611302 0.500398
5538 1 0.591929 0.0651679 0.499199
2592 1 0.892347 0.0648013 0.499388
2795 1 0.505812 0.0779994 0.50036
2874 1 0.51029 0.0897314 0.500723
2798 1 0.516888 0.078163 0.499954
5537 1 0.550219 0.0706331 0.500284
2794 1 0.503675 0.0985302 0.500591
199 1 0.502745 0.152252 0.501277
200 1 0.500556 0.172346 0.502073
139 1 0.51321 0.174753 0.499966
140 1 0.519276 0.164693 0.499646
488 1 0.525275 0.17586 0.500554
3335 1 0.78339 0.180877 0.500579
3264 1 0.808792 0.182626 0.50097
3351 1 0.954939 0.17817 0.499357
3219 1 0.966852 0.171776 0.499254
3290 1 0.978488 0.176718 0.501177
355 1 0.997466 0.17525 0.502834
357 1 0.999471 0.164026 0.500468
434 1 0.988904 0.18173 0.5016
3283 1 0.977454 0.165232 0.499774
347 1 0.506095 0.182801 0.50125
345 1 0.510717 0.194217 0.500316
349 1 0.519202 0.185885 0.500514
3367 1 0.536595 0.199646 0.50002
278 1 0.56119 0.200751 0.499795
3193 1 0.789715 0.193237 0.500383
3116 1 0.782271 0.202317 0.49953
3187 1 0.795426 0.181702 0.5003
3263 1 0.815781 0.191435 0.499853
3123 1 0.806528 0.201483 0.501018
3199 1 0.837518 0.192973 0.499527
3411 1 0.827566 0.199808 0.500653
3198 1 0.826377 0.188736 0.501531
3266 1 0.86129 0.203784 0.499031
3353 1 0.934625 0.191436 0.499695
3280 1 0.945914 0.196606 0.501113
3360 1 0.967353 0.183707 0.500338
3287 1 0.96685 0.195587 0.500329
424 1 0.956 0.190401 0.500307
3207 1 0.955814 0.203149 0.500174
498 1 0.997759 0.198709 0.503402
507 1 0.999476 0.186501 0.503548
421 1 0.976912 0.188304 0.501702
3285 1 0.988693 0.193426 0.50246
428 1 0.977477 0.200693 0.501687
3436 1 0.504762 0.204495 0.501677
3296 1 0.516301 0.205966 0.500221
3643 1 0.509855 0.216199 0.501387
3294 1 0.501956 0.226664 0.501565
3504 1 0.514614 0.227676 0.501551
3363 1 0.522327 0.21779 0.501686
3434 1 0.534704 0.219428 0.501026
3300 1 0.528705 0.208546 0.500995
3221 1 0.546088 0.220127 0.501033
3439 1 0.553591 0.209784 0.499919
3364 1 0.557862 0.221265 0.501385
3298 1 0.565774 0.211363 0.499617
3153 1 0.57871 0.213294 0.499618
3455 1 0.674129 0.224705 0.500288
3591 1 0.685068 0.225893 0.50085
3520 1 0.698695 0.225678 0.501005
3262 1 0.806717 0.213178 0.500877
3410 1 0.828415 0.224101 0.500582
3409 1 0.818497 0.217388 0.500307
3417 1 0.840256 0.217695 0.500469
3483 1 0.829637 0.211696 0.500663
3485 1 0.840157 0.204554 0.500582
3267 1 0.850397 0.211628 0.500324
3419 1 0.883824 0.223266 0.499624
3269 1 0.871131 0.209567 0.499072
3201 1 0.902576 0.210173 0.499242
3278 1 0.945845 0.209904 0.500129
568 1 0.947325 0.221855 0.500465
3426 1 0.936109 0.215083 0.499854
3289 1 0.967388 0.209035 0.501398
423 1 0.957386 0.215037 0.500059
494 1 0.969784 0.220306 0.500684
493 1 0.980272 0.212174 0.502678
567 1 0.999823 0.212338 0.503824
640 1 1.0016 0.22403 0.502846
497 1 0.989318 0.205763 0.501354
705 1 0.990479 0.2178 0.502525
566 1 0.980299 0.224991 0.50241
3644 1 0.5008 0.248054 0.501718
3501 1 0.508553 0.237756 0.502177
3576 1 0.520085 0.239486 0.502221
3505 1 0.511809 0.250975 0.502166
3368 1 0.527364 0.228499 0.501666
3571 1 0.537893 0.230507 0.500971
3579 1 0.531431 0.2398 0.502518
3302 1 0.54383 0.240823 0.501551
3506 1 0.550464 0.231924 0.501075
3293 1 0.563757 0.231033 0.501946
3295 1 0.556565 0.242436 0.501994
3442 1 0.568103 0.243894 0.502133
3373 1 0.575551 0.232869 0.500484
3154 1 0.580703 0.244604 0.500468
3303 1 0.591826 0.246819 0.500775
280 1 0.587704 0.236265 0.499837
3232 1 0.61341 0.236782 0.499516
3451 1 0.666034 0.234824 0.499704
3518 1 0.669532 0.24603 0.499878
3446 1 0.691064 0.236601 0.50007
3523 1 0.683283 0.245801 0.500416
3314 1 0.701695 0.238148 0.500803
3456 1 0.695515 0.248871 0.500157
3460 1 0.709349 0.229581 0.499717
3462 1 0.72165 0.227873 0.499965
3418 1 0.819034 0.230798 0.499876
3404 1 0.809369 0.238744 0.500704
3550 1 0.829485 0.236384 0.500548
3551 1 0.838991 0.229685 0.501648
3339 1 0.83052 0.249185 0.501254
3416 1 0.849809 0.247106 0.499025
3425 1 0.851316 0.236251 0.50142
3497 1 0.884547 0.237104 0.499884
3422 1 0.874364 0.231808 0.499409
3499 1 0.906938 0.249282 0.499401
3562 1 0.895994 0.24272 0.50037
3493 1 0.90631 0.23687 0.500486
3567 1 0.893852 0.2302 0.500473
3495 1 0.926839 0.234642 0.499647
3358 1 0.936242 0.227896 0.500221
3427 1 0.946702 0.234858 0.500976
631 1 0.948594 0.246164 0.500853
495 1 0.958252 0.237898 0.500164
422 1 0.970003 0.231628 0.502403
561 1 0.969457 0.24391 0.501863
492 1 0.991266 0.241994 0.501286
3352 1 0.980986 0.237858 0.503695
491 1 0.990763 0.230581 0.50361
3575 1 0.515921 0.261717 0.502083
3572 1 0.504779 0.26038 0.502046
3512 1 0.50908 0.27062 0.504118
3440 1 0.534646 0.25205 0.502348
3714 1 0.540868 0.263408 0.50378
3642 1 0.523448 0.25139 0.503152
3651 1 0.528158 0.262948 0.502375
3583 1 0.547016 0.252329 0.502455
3432 1 0.558676 0.25447 0.502646
3437 1 0.552025 0.264845 0.503684
3649 1 0.565328 0.263997 0.502586
3438 1 0.576962 0.265296 0.502662
3508 1 0.572783 0.254364 0.503112
3510 1 0.584286 0.255891 0.501506
3441 1 0.588922 0.267943 0.500841
3715 1 0.601233 0.270158 0.501658
3306 1 0.606813 0.259526 0.500655
1049 1 0.618883 0.260723 0.501014
3307 1 0.626389 0.251938 0.500893
3443 1 0.633781 0.260919 0.501143
3586 1 0.657826 0.266794 0.500663
3383 1 0.665542 0.256014 0.501062
3515 1 0.701558 0.260159 0.499536
3471 1 0.809662 0.261509 0.500316
3547 1 0.820173 0.267623 0.500509
3480 1 0.852071 0.257601 0.500531
3270 1 0.872751 0.257613 0.499254
3627 1 0.895412 0.255085 0.500643
3633 1 0.906972 0.261547 0.500108
841 1 0.951067 0.270866 0.499936
706 1 0.971732 0.269419 0.501729
703 1 0.971451 0.256694 0.501212
3428 1 0.959664 0.251446 0.501276
702 1 0.980686 0.250031 0.502063
637 1 0.98142 0.262168 0.502161
633 1 0.992025 0.255477 0.501294
772 1 0.991843 0.267733 0.501405
770 1 0.520205 0.274007 0.50247
3641 1 0.515058 0.285195 0.502873
840 1 0.503172 0.281551 0.503868
1045 1 0.507453 0.292377 0.50292
906 1 0.525802 0.285076 0.503483
910 1 0.537781 0.284688 0.504678
3647 1 0.532366 0.274122 0.50319
3581 1 0.544614 0.274585 0.504443
3577 1 0.559082 0.27517 0.504602
3580 1 0.549928 0.284519 0.504554
3648 1 0.564521 0.285251 0.502865
975 1 0.556791 0.29312 0.505728
3718 1 0.569689 0.274052 0.50324
3713 1 0.575396 0.285422 0.502717
3513 1 0.58273 0.276501 0.501255
3372 1 0.585572 0.288765 0.501785
3786 1 0.605112 0.281442 0.50191
3717 1 0.59406 0.279321 0.501098
977 1 0.598034 0.292478 0.500403
3655 1 0.609683 0.293779 0.50201
3853 1 0.635907 0.293787 0.501412
3788 1 0.623115 0.294288 0.501703
3582 1 0.628258 0.28465 0.499924
3721 1 0.625959 0.271766 0.501212
3578 1 0.649689 0.275433 0.500972
3447 1 0.638128 0.272182 0.501116
3489 1 0.84276 0.276479 0.500857
3763 1 0.845187 0.291935 0.50091
3625 1 0.899438 0.290995 0.498924
701 1 0.918996 0.278838 0.499884
3632 1 0.929144 0.285543 0.499922
3568 1 0.938723 0.278968 0.499484
3566 1 0.950055 0.282889 0.499064
3570 1 0.960621 0.276184 0.499686
3847 1 0.97241 0.29272 0.500772
843 1 0.99421 0.291736 0.499108
773 1 0.993434 0.279939 0.500766
3640 1 0.983977 0.286829 0.500105
3639 1 0.983302 0.273664 0.501212
834 1 0.500664 0.302938 0.504623
3645 1 0.520477 0.295511 0.501847
978 1 0.51359 0.30427 0.503342
976 1 0.50441 0.315028 0.50382
905 1 0.518059 0.317544 0.502599
1189 1 0.539307 0.308388 0.504265
3785 1 0.533156 0.295965 0.503185
974 1 0.525939 0.306115 0.503241
3783 1 0.54511 0.295727 0.504562
1180 1 0.529389 0.318124 0.504819
3304 1 0.565907 0.297166 0.501808
1047 1 0.556061 0.304844 0.504026
1042 1 0.551854 0.314679 0.505514
1253 1 0.562368 0.316706 0.50392
3371 1 0.57149 0.308493 0.504656
3711 1 0.576978 0.297867 0.503501
1050 1 0.581632 0.308285 0.501932
3787 1 0.589008 0.299548 0.502097
3514 1 0.593531 0.310917 0.501816
3716 1 0.601512 0.303344 0.501779
3789 1 0.60642 0.313946 0.503276
3732 1 0.613926 0.303655 0.50227
3725 1 0.619451 0.314304 0.503394
3729 1 0.625996 0.305565 0.501619
3875 1 0.632452 0.315854 0.501232
3784 1 0.652455 0.306402 0.500737
3719 1 0.647276 0.29521 0.501592
3654 1 0.639439 0.305012 0.501062
3656 1 0.644653 0.315851 0.501441
3653 1 0.659052 0.297135 0.501243
3664 1 0.664269 0.309014 0.500157
3631 1 0.929702 0.297472 0.499056
3703 1 0.944116 0.316111 0.500305
3637 1 0.950378 0.294807 0.500637
3710 1 0.963924 0.313482 0.499407
780 1 0.994649 0.317861 0.49987
915 1 0.983894 0.310992 0.500603
636 1 0.992726 0.305066 0.500738
909 1 0.509388 0.325429 0.503597
1107 1 0.501528 0.335937 0.504751
1111 1 0.512494 0.337293 0.505607
904 1 0.521321 0.328319 0.505598
1179 1 0.541193 0.321218 0.505613
908 1 0.533601 0.331276 0.505725
1036 1 0.524748 0.34081 0.505582
1175 1 0.545215 0.33408 0.50584
1183 1 0.553183 0.325649 0.505066
1251 1 0.558291 0.336923 0.505824
3782 1 0.566822 0.327944 0.504654
980 1 0.575003 0.319471 0.503841
3712 1 0.587452 0.320292 0.503763
3852 1 0.579843 0.330581 0.504521
3923 1 0.570798 0.339542 0.505098
3781 1 0.591859 0.331676 0.503546
3720 1 0.598011 0.321987 0.50448
3727 1 0.603125 0.333929 0.503835
3803 1 0.611804 0.324123 0.501528
3874 1 0.615745 0.335424 0.503006
3865 1 0.624148 0.325528 0.502264
3871 1 0.627383 0.336838 0.501534
3728 1 0.636035 0.326797 0.501005
3723 1 0.655853 0.316274 0.500444
3736 1 0.651958 0.339084 0.498884
3657 1 0.663294 0.339957 0.499281
3650 1 0.659917 0.327877 0.499272
3735 1 0.669254 0.320837 0.500245
3775 1 0.923482 0.328982 0.499358
3779 1 0.944858 0.327057 0.50023
3769 1 0.933936 0.334899 0.499905
3845 1 0.965608 0.338146 0.500242
1051 1 0.955694 0.333525 0.499674
911 1 0.974548 0.319664 0.500305
1108 1 0.518585 0.350115 0.505101
1043 1 0.505894 0.347895 0.505647
1109 1 0.509731 0.358741 0.506317
1113 1 0.522438 0.361627 0.505109
1112 1 0.537116 0.342728 0.504301
1182 1 0.529878 0.352316 0.504809
1185 1 0.54174 0.353959 0.505408
1046 1 0.551162 0.345828 0.505671
1115 1 0.554667 0.357136 0.504746
1044 1 0.562791 0.347158 0.503955
1117 1 0.567444 0.360794 0.504649
3858 1 0.583504 0.341165 0.504613
1188 1 0.574077 0.350451 0.50452
3866 1 0.585703 0.352133 0.503936
3851 1 0.57884 0.361954 0.505781
3726 1 0.611374 0.356073 0.503607
3733 1 0.598955 0.354089 0.503801
3730 1 0.595794 0.343247 0.50389
3799 1 0.606281 0.345457 0.504179
3939 1 0.631928 0.347649 0.50104
3798 1 0.625399 0.358026 0.501638
3864 1 0.620272 0.346398 0.501868
3793 1 0.643362 0.34983 0.499588
3839 1 0.922866 0.353985 0.501486
3987 1 0.923384 0.341071 0.501013
3900 1 0.913252 0.348622 0.501748
3767 1 0.911523 0.361135 0.501164
3910 1 0.942742 0.351881 0.50144
3914 1 0.932424 0.34757 0.502173
3846 1 0.944064 0.339953 0.500674
3837 1 0.932445 0.360645 0.501175
3916 1 0.954673 0.357772 0.500767
3917 1 0.956218 0.345107 0.500644
1127 1 0.965931 0.363048 0.502364
3848 1 0.965358 0.351521 0.501323
981 1 0.975828 0.35623 0.501797
3778 1 0.975808 0.344653 0.500323
1059 1 0.996008 0.35662 0.500432
3844 1 0.986678 0.3508 0.500354
985 1 0.986054 0.364442 0.502299
1254 1 0.502527 0.369638 0.504908
1258 1 0.514575 0.370707 0.505416
966 1 0.508952 0.381114 0.504084
1177 1 0.519477 0.382064 0.505097
3997 1 0.527582 0.3741 0.504827
1119 1 0.535499 0.364516 0.505105
3926 1 0.539134 0.3777 0.50483
1040 1 0.546476 0.366778 0.504484
3921 1 0.559812 0.370213 0.504311
1326 1 0.563919 0.381849 0.505148
1118 1 0.551322 0.379289 0.503745
3925 1 0.571545 0.372295 0.503861
3855 1 0.583772 0.373285 0.503871
3854 1 0.575421 0.383044 0.504048
1048 1 0.587771 0.386013 0.50241
1120 1 0.592734 0.363264 0.503235
3930 1 0.6082 0.377276 0.501628
3722 1 0.595495 0.376324 0.50317
3933 1 0.604664 0.36721 0.50343
3861 1 0.599294 0.386583 0.500518
3795 1 0.632652 0.381103 0.502303
3859 1 0.626299 0.370045 0.502477
3857 1 0.615588 0.365772 0.501783
3802 1 0.61948 0.379503 0.500934
3927 1 0.642434 0.384189 0.500814
3950 1 0.655586 0.385285 0.500664
3862 1 0.640151 0.371434 0.500662
3969 1 0.901243 0.367415 0.500447
3986 1 0.922907 0.367018 0.501394
1053 1 0.923598 0.379984 0.500913
3903 1 0.912246 0.373383 0.500798
987 1 0.944966 0.379324 0.502104
3984 1 0.944091 0.363511 0.501996
3776 1 0.933312 0.373019 0.501073
982 1 0.955697 0.369642 0.502103
991 1 0.976179 0.369256 0.501205
1193 1 0.966374 0.375863 0.502681
3919 1 0.95623 0.382256 0.501344
1122 1 0.997189 0.369088 0.501672
1126 1 0.977402 0.380186 0.50212
983 1 0.987856 0.375666 0.502412
1201 1 0.999197 0.381159 0.501254
1173 1 0.500004 0.391426 0.505412
1246 1 0.51505 0.405268 0.502152
1247 1 0.511687 0.393098 0.504693
1104 1 0.5028 0.402129 0.503984
1321 1 0.530512 0.387096 0.503387
1323 1 0.524538 0.397003 0.504267
1176 1 0.536972 0.399443 0.503774
1249 1 0.527798 0.407556 0.502219
1114 1 0.543155 0.38902 0.502812
3924 1 0.549286 0.401278 0.502934
3995 1 0.554838 0.391282 0.502647
1325 1 0.561023 0.402602 0.501844
3928 1 0.567721 0.391634 0.502376
1259 1 0.572123 0.403783 0.502943
1190 1 0.57961 0.395014 0.501763
1257 1 0.583541 0.406985 0.501955
3856 1 0.592124 0.398149 0.501763
3797 1 0.603282 0.39797 0.5019
4073 1 0.595061 0.408188 0.502003
1186 1 0.606185 0.408426 0.501162
4078 1 0.610027 0.389119 0.500956
4001 1 0.615696 0.399376 0.501532
3792 1 0.628304 0.401803 0.500627
3724 1 0.622611 0.388931 0.500675
3790 1 0.634129 0.392576 0.499253
3867 1 0.651961 0.405467 0.499821
3860 1 0.648446 0.395153 0.499888
3945 1 0.640292 0.404236 0.500946
4055 1 0.904097 0.405254 0.500315
3980 1 0.891552 0.384706 0.500942
4122 1 0.913933 0.386263 0.499873
4059 1 0.91437 0.397776 0.500371
3990 1 0.925306 0.393599 0.500418
4047 1 0.925357 0.405277 0.502256
4051 1 0.933505 0.385003 0.500442
3989 1 0.945072 0.391158 0.50198
4192 1 0.935907 0.398207 0.500704
3915 1 0.946734 0.404087 0.503182
1196 1 0.957725 0.406921 0.502003
4052 1 0.967431 0.400678 0.502872
1123 1 0.967908 0.388142 0.50254
1202 1 0.956069 0.394019 0.502557
4121 1 0.998544 0.39325 0.501884
1268 1 0.998836 0.404556 0.503003
4053 1 0.988711 0.387275 0.501881
1200 1 0.977639 0.405497 0.504252
3988 1 0.978336 0.393099 0.503335
1128 1 0.987571 0.399752 0.502898
1320 1 0.511653 0.426455 0.50184
1250 1 0.505434 0.41427 0.502155
4065 1 0.519103 0.417103 0.502434
4131 1 0.524442 0.429441 0.501594
1260 1 0.541632 0.411558 0.503476
1256 1 0.531722 0.420225 0.502258
1324 1 0.545119 0.423336 0.501978
1396 1 0.552945 0.413738 0.503177
1184 1 0.564067 0.415916 0.502136
1116 1 0.557669 0.425796 0.501556
3992 1 0.568812 0.426542 0.50345
1187 1 0.575987 0.416569 0.501819
3932 1 0.580254 0.427397 0.502736
4004 1 0.5871 0.418419 0.50238
4006 1 0.60497 0.431798 0.501711
3791 1 0.594003 0.428633 0.502201
4008 1 0.599729 0.418638 0.502164
3993 1 0.611216 0.420239 0.501868
4003 1 0.633458 0.414087 0.500514
3931 1 0.619742 0.412895 0.500705
3794 1 0.624074 0.423485 0.501908
3938 1 0.637916 0.425285 0.501034
4015 1 0.650756 0.425075 0.500194
3870 1 0.644908 0.415114 0.501155
3981 1 0.885047 0.432048 0.499245
3907 1 0.874216 0.425814 0.499701
4193 1 0.894072 0.424646 0.500511
4125 1 0.904808 0.418743 0.500878
4060 1 0.907312 0.432589 0.501638
3979 1 0.893899 0.412289 0.499061
4129 1 0.92488 0.417605 0.501652
4057 1 0.91595 0.424637 0.50253
1199 1 0.926007 0.430162 0.501571
1121 1 0.914975 0.411689 0.500388
4261 1 0.936219 0.410362 0.501954
1191 1 0.937411 0.422883 0.502139
4126 1 0.948798 0.428774 0.502453
1125 1 0.947157 0.41604 0.503545
1265 1 0.969981 0.425162 0.504161
1195 1 0.95897 0.420076 0.50339
4058 1 0.96665 0.411878 0.504888
1341 1 0.998968 0.416656 0.502674
4127 1 0.980062 0.430356 0.503417
1266 1 0.988389 0.412198 0.504005
1275 1 0.98899 0.424219 0.503706
1401 1 0.978541 0.41808 0.503288
1328 1 0.520323 0.451549 0.500667
1318 1 0.503787 0.435648 0.501545
1388 1 0.514581 0.439901 0.49998
1389 1 0.508177 0.449783 0.502093
1465 1 0.532153 0.452414 0.500365
1255 1 0.535399 0.431657 0.501257
4067 1 0.526192 0.441357 0.501827
4069 1 0.56489 0.447915 0.501159
1322 1 0.548805 0.434537 0.501231
1329 1 0.561085 0.436529 0.501062
1397 1 0.552329 0.445028 0.501185
4061 1 0.585717 0.439675 0.503466
3994 1 0.573735 0.438467 0.502243
4000 1 0.589882 0.450557 0.502529
3999 1 0.576808 0.450057 0.503712
4002 1 0.602129 0.452808 0.501619
3991 1 0.597177 0.442427 0.502822
3934 1 0.610815 0.442521 0.501936
4014 1 0.623041 0.444548 0.500721
4016 1 0.634214 0.446008 0.501311
3940 1 0.630066 0.434708 0.500059
4077 1 0.614123 0.453129 0.500849
4012 1 0.616863 0.432538 0.501785
4019 1 0.642535 0.435956 0.500837
4156 1 0.69475 0.453656 0.499337
4088 1 0.714559 0.450218 0.50085
4188 1 0.87666 0.451627 0.4994
4399 1 0.89522 0.43716 0.500649
4190 1 0.886709 0.44535 0.500789
4116 1 0.896425 0.450212 0.501837
4119 1 0.907054 0.443996 0.502119
4124 1 0.929267 0.444015 0.502132
4056 1 0.918279 0.44877 0.501935
4048 1 0.917812 0.436668 0.501454
4264 1 0.950296 0.454133 0.503468
1262 1 0.939967 0.44638 0.501849
4337 1 0.937394 0.433853 0.503099
4197 1 0.95031 0.441002 0.502143
4407 1 0.960229 0.44505 0.50466
1473 1 0.971873 0.450212 0.503997
1261 1 0.970384 0.437454 0.503747
1192 1 0.95952 0.43295 0.503272
4130 1 0.980525 0.443141 0.504164
1197 1 0.990399 0.436147 0.503981
1333 1 0.992056 0.447957 0.502554
4137 1 0.516965 0.471117 0.499725
1398 1 0.503851 0.471679 0.501105
1461 1 0.512291 0.460896 0.501285
1469 1 0.524469 0.462174 0.500095
1327 1 0.528967 0.474088 0.500239
1463 1 0.537016 0.465168 0.499822
1330 1 0.544467 0.455087 0.500154
4013 1 0.561086 0.469113 0.500762
4071 1 0.555859 0.45737 0.501838
4275 1 0.549455 0.468349 0.501222
3922 1 0.573072 0.470358 0.501885
4143 1 0.579508 0.460256 0.501503
3944 1 0.585342 0.472776 0.50148
4213 1 0.567436 0.459053 0.502024
1395 1 0.593152 0.4618 0.50181
4010 1 0.598068 0.473003 0.500581
4068 1 0.606292 0.462915 0.501482
4011 1 0.609919 0.473777 0.500839
4157 1 0.726781 0.466298 0.497347
4089 1 0.707089 0.458502 0.499573
4158 1 0.71074 0.469889 0.500113
4222 1 0.718541 0.462123 0.500819
4324 1 0.857944 0.476779 0.500094
4325 1 0.878608 0.475425 0.501491
4330 1 0.878179 0.462993 0.500249
4334 1 0.907851 0.456622 0.501856
4336 1 0.898117 0.474351 0.501839
4191 1 0.929492 0.455097 0.502236
4123 1 0.908446 0.46819 0.50243
4050 1 0.917884 0.460311 0.501434
4404 1 0.920162 0.475221 0.502434
4262 1 0.929196 0.468303 0.502616
4338 1 0.938512 0.460704 0.504382
4200 1 0.951391 0.465729 0.504487
1471 1 0.941199 0.47251 0.503676
4269 1 0.973235 0.474827 0.504974
4128 1 0.962112 0.45731 0.504375
4270 1 0.962225 0.470227 0.503826
1402 1 0.972793 0.46258 0.504426
1477 1 0.982365 0.45472 0.503993
1336 1 0.992729 0.46044 0.503965
1332 1 0.993978 0.473424 0.505446
1478 1 0.98344 0.468135 0.505189
4201 1 0.503344 0.493086 0.500752
4135 1 0.515806 0.493891 0.501157
4133 1 0.526741 0.496183 0.500308
4063 1 0.542397 0.476212 0.501085
4139 1 0.565988 0.480285 0.501253
4062 1 0.553951 0.479054 0.501117
4066 1 0.558268 0.49005 0.499972
4277 1 0.551399 0.498994 0.500974
4203 1 0.545756 0.487414 0.500679
4141 1 0.591308 0.48417 0.500319
4209 1 0.576317 0.481101 0.500412
4219 1 0.571381 0.492083 0.502213
4147 1 0.602626 0.483922 0.500793
3943 1 0.626784 0.487133 0.499434
4007 1 0.631496 0.49839 0.501506
4294 1 0.652869 0.491174 0.499623
4291 1 0.638798 0.488657 0.50069
4301 1 0.717552 0.4808 0.501009
4369 1 0.716452 0.496419 0.500136
4297 1 0.73837 0.497237 0.499611
4393 1 0.825022 0.493952 0.499467
4318 1 0.83571 0.489635 0.500216
4256 1 0.845024 0.480989 0.500772
4320 1 0.856464 0.488944 0.501079
4390 1 0.846259 0.493557 0.500873
4473 1 0.866747 0.495337 0.501166
4405 1 0.867408 0.482368 0.500582
4332 1 0.877943 0.487646 0.501092
4400 1 0.909343 0.48038 0.50147
4333 1 0.898693 0.48729 0.500907
4117 1 0.887634 0.482244 0.501981
4474 1 0.88895 0.494222 0.501198
4331 1 0.899391 0.499681 0.502459
4335 1 0.921415 0.498925 0.502491
4186 1 0.920071 0.487052 0.503598
4195 1 0.909475 0.492235 0.502145
4409 1 0.932336 0.480168 0.503754
1331 1 0.952078 0.478422 0.504645
4199 1 0.932141 0.493148 0.502574
4263 1 0.942999 0.484729 0.50558
4265 1 0.952161 0.49035 0.503594
4196 1 0.942499 0.497844 0.504887
1615 1 0.974183 0.499643 0.504329
1474 1 0.973673 0.48784 0.503662
4267 1 0.963199 0.482649 0.504736
4268 1 0.963269 0.495265 0.503867
1621 1 0.995308 0.499011 0.504205
1620 1 0.984914 0.491541 0.504181
1264 1 0.983349 0.48057 0.505133
1549 1 0.994717 0.485637 0.504151
4418 1 0.5328 0.507791 0.498631
4210 1 0.544712 0.508554 0.499495
4280 1 0.560183 0.522392 0.499571
4138 1 0.555708 0.5098 0.499868
4346 1 0.548705 0.521018 0.499289
4207 1 0.568028 0.511425 0.499807
4142 1 0.572884 0.5222 0.498869
4070 1 0.576973 0.503049 0.500482
4145 1 0.588949 0.503037 0.500223
4218 1 0.642872 0.499927 0.500709
4296 1 0.683124 0.508312 0.499662
4437 1 0.707983 0.517104 0.499299
4160 1 0.718994 0.510779 0.500348
4305 1 0.738935 0.509427 0.50026
4376 1 0.738209 0.522925 0.499961
4175 1 0.771535 0.504529 0.499151
4386 1 0.760619 0.509141 0.499252
4307 1 0.749408 0.504049 0.499925
4455 1 0.759091 0.521795 0.499413
4178 1 0.780975 0.510146 0.498878
4250 1 0.792314 0.503788 0.49779
4317 1 0.791711 0.515406 0.498697
4239 1 0.78089 0.521742 0.499897
4247 1 0.813657 0.500119 0.49822
4460 1 0.8035 0.507588 0.498771
4463 1 0.813887 0.513183 0.499395
4327 1 0.802815 0.52085 0.499228
4323 1 0.836117 0.501102 0.500308
4322 1 0.824477 0.507178 0.499154
4328 1 0.86753 0.506903 0.50073
4204 1 0.539448 0.529726 0.499083
1610 1 0.53291 0.539557 0.4988
4206 1 0.55303 0.532666 0.498976
4342 1 0.556664 0.542885 0.498506
4348 1 0.565325 0.533966 0.498955
1749 1 0.54485 0.540212 0.498765
4345 1 0.570538 0.544796 0.498337
4415 1 0.577456 0.532549 0.498563
3998 1 0.585306 0.524884 0.49986
4347 1 0.583125 0.545168 0.498185
4090 1 0.728577 0.53004 0.499349
4308 1 0.749456 0.528626 0.498831
4309 1 0.771082 0.528751 0.500182
4176 1 0.791607 0.5276 0.498867
4242 1 0.803898 0.533484 0.499784
4402 1 0.847425 0.534145 0.499483
4482 1 0.517764 0.558953 0.498645
1882 1 0.514055 0.547661 0.500662
4487 1 0.53013 0.561406 0.498671
4490 1 0.542998 0.560548 0.497857
4627 1 0.538652 0.551366 0.498805
4344 1 0.525584 0.549778 0.498183
4629 1 0.565641 0.566555 0.498488
4485 1 0.550098 0.551619 0.497504
4558 1 0.563051 0.553341 0.49712
4484 1 0.554924 0.564136 0.49759
4423 1 0.586048 0.558252 0.4985
4351 1 0.574631 0.557682 0.498347
4208 1 0.593611 0.546879 0.500117
4350 1 0.606665 0.548319 0.499922
4421 1 0.597907 0.557858 0.49807
4392 1 0.804492 0.544548 0.499319
4483 1 0.515664 0.58138 0.498833
1881 1 0.522177 0.570391 0.499745
1748 1 0.520049 0.593005 0.499618
1810 1 0.50304 0.580842 0.500683
1813 1 0.50727 0.591228 0.498147
1880 1 0.529363 0.582929 0.498578
1820 1 0.541446 0.584454 0.498254
1814 1 0.534895 0.572919 0.497709
4622 1 0.546732 0.573566 0.498094
4556 1 0.563906 0.587872 0.497157
4413 1 0.552016 0.585503 0.498158
4703 1 0.558395 0.575258 0.496513
4559 1 0.57862 0.569362 0.497951
4699 1 0.58363 0.580038 0.498503
4561 1 0.57679 0.588798 0.497755
4701 1 0.570313 0.578214 0.497773
4353 1 0.594701 0.581376 0.497594
4080 1 0.612227 0.572577 0.499704
4144 1 0.618888 0.582455 0.498527
4285 1 0.631314 0.585356 0.498478
4359 1 0.643412 0.586442 0.499222
1744 1 0.512926 0.601441 0.499299
2223 1 0.50143 0.601804 0.500069
1959 1 0.517355 0.612628 0.498225
1736 1 0.53707 0.606652 0.498394
1815 1 0.525204 0.60271 0.499535
1817 1 0.53372 0.593237 0.499522
1818 1 0.545783 0.596326 0.498939
4553 1 0.548968 0.607295 0.498301
4557 1 0.56228 0.607466 0.497785
4412 1 0.556754 0.597089 0.497132
4486 1 0.570294 0.598923 0.49877
4416 1 0.589427 0.591667 0.499421
4555 1 0.581704 0.599872 0.497556
4693 1 0.586267 0.613693 0.49879
1890 1 0.57336 0.611628 0.498936
4775 1 0.594291 0.602699 0.499108
4563 1 0.605773 0.605184 0.499993
4488 1 0.600669 0.593319 0.498602
4700 1 0.612544 0.595076 0.49886
4427 1 0.623269 0.593573 0.500194
4424 1 0.636671 0.595703 0.500308
4428 1 0.62962 0.605593 0.498783
4564 1 0.653372 0.608362 0.500396
4152 1 0.647946 0.59719 0.5002
4497 1 0.641793 0.608223 0.498597
4431 1 0.661312 0.598488 0.500685
1941 1 0.503055 0.635165 0.500416
1816 1 0.523474 0.627829 0.499539
1809 1 0.511513 0.622424 0.49967
1949 1 0.515619 0.635858 0.498008
1885 1 0.530149 0.616311 0.49932
1750 1 0.541509 0.617422 0.49919
2027 1 0.53578 0.627832 0.498785
1886 1 0.560799 0.631628 0.498006
1887 1 0.554753 0.618853 0.498468
4625 1 0.54849 0.628442 0.499441
4623 1 0.565801 0.620326 0.49787
4626 1 0.577307 0.623124 0.49723
4551 1 0.571682 0.634011 0.498409
4630 1 0.591115 0.625346 0.498335
4554 1 0.582999 0.634562 0.498933
4425 1 0.611173 0.617118 0.499895
4694 1 0.60253 0.626587 0.499605
4692 1 0.595541 0.636749 0.499057
4426 1 0.616236 0.627782 0.499579
4708 1 0.622695 0.617567 0.500518
4356 1 0.634832 0.617742 0.498865
4633 1 0.647874 0.619573 0.499704
4430 1 0.639186 0.629617 0.498646
4494 1 0.651544 0.631013 0.49936
4571 1 0.672017 0.622012 0.499592
4499 1 0.675986 0.632802 0.498616
4569 1 0.658919 0.621155 0.498982
4504 1 0.685064 0.621812 0.499848
1879 1 0.509608 0.647246 0.498616
2156 1 0.501643 0.656502 0.499814
1883 1 0.521974 0.647648 0.499187
1878 1 0.514732 0.658741 0.497302
1952 1 0.528103 0.638345 0.499707
1955 1 0.542034 0.637975 0.499006
1951 1 0.533258 0.649488 0.498494
2020 1 0.54537 0.650233 0.499521
1888 1 0.553239 0.64068 0.499587
1960 1 0.564492 0.644268 0.498443
1884 1 0.557693 0.653801 0.49892
4696 1 0.576777 0.644413 0.49832
4624 1 0.582638 0.656391 0.499022
2025 1 0.570072 0.656112 0.498768
4762 1 0.588078 0.646388 0.498809
2096 1 0.595389 0.656759 0.49835
4420 1 0.600926 0.646739 0.498493
4695 1 0.606163 0.657705 0.497104
4705 1 0.615201 0.650671 0.49763
4698 1 0.621395 0.639346 0.499272
4565 1 0.6273 0.650261 0.498125
4492 1 0.634008 0.639989 0.498231
4638 1 0.651749 0.652645 0.497885
4429 1 0.639128 0.649909 0.497118
4493 1 0.658629 0.642377 0.498662
4500 1 0.662607 0.653809 0.497636
4709 1 0.670712 0.643914 0.499024
4566 1 0.674288 0.655396 0.499243
4788 1 0.692157 0.645681 0.500064
2160 1 0.506554 0.667675 0.498889
1953 1 0.519153 0.668722 0.499051
2088 1 0.511609 0.68029 0.499158
2228 1 0.4995 0.679658 0.499352
1957 1 0.526237 0.65877 0.498573
1946 1 0.539456 0.660276 0.49838
2091 1 0.544896 0.6711 0.496878
2016 1 0.523012 0.680652 0.498779
1947 1 0.531311 0.671072 0.497881
1889 1 0.556375 0.674484 0.498916
1958 1 0.562842 0.665881 0.499325
2023 1 0.549815 0.662927 0.499618
2090 1 0.568285 0.67673 0.497762
4765 1 0.587814 0.666317 0.497574
2022 1 0.575364 0.66624 0.49864
4761 1 0.579142 0.676791 0.497801
4767 1 0.605247 0.68046 0.497824
4706 1 0.600402 0.667657 0.498105
4697 1 0.610974 0.671969 0.497852
4841 1 0.592546 0.678382 0.497904
4631 1 0.61699 0.661021 0.49668
4702 1 0.629491 0.661455 0.497252
4712 1 0.623647 0.671699 0.497042
4850 1 0.636568 0.672286 0.496777
4781 1 0.653682 0.665166 0.496156
4635 1 0.648649 0.675654 0.497719
4562 1 0.643288 0.662088 0.497592
4632 1 0.66018 0.675237 0.496376
4508 1 0.66646 0.665728 0.499393
4647 1 0.67263 0.676038 0.498094
4505 1 0.679986 0.665138 0.499682
4570 1 0.683928 0.677424 0.499641
4568 1 0.691728 0.666726 0.499765
4582 1 0.695858 0.678392 0.500822
1954 1 0.537139 0.682345 0.498087
1948 1 0.542831 0.693743 0.500134
2087 1 0.530577 0.690872 0.500498
2229 1 0.523587 0.700415 0.499013
2019 1 0.549178 0.683941 0.498557
2028 1 0.553222 0.696031 0.498411
4691 1 0.560692 0.686883 0.498471
2017 1 0.565644 0.697732 0.497576
2029 1 0.571678 0.688092 0.498375
4764 1 0.57718 0.698633 0.497293
4831 1 0.58443 0.68804 0.497669
4766 1 0.589349 0.698727 0.498513
2097 1 0.601517 0.69985 0.49778
4777 1 0.610382 0.691764 0.497383
2030 1 0.595953 0.688408 0.497095
4776 1 0.615315 0.702141 0.497948
4774 1 0.617666 0.682233 0.497827
4704 1 0.629023 0.682903 0.497996
4636 1 0.634528 0.693906 0.496104
4842 1 0.622823 0.693689 0.497248
4639 1 0.652492 0.687079 0.497265
4643 1 0.641116 0.68569 0.497273
4849 1 0.646767 0.696558 0.496788
4780 1 0.658381 0.696702 0.496815
4859 1 0.669729 0.697973 0.497943
4719 1 0.677568 0.687526 0.49808
4650 1 0.665999 0.686124 0.497214
4514 1 0.689552 0.687742 0.499186
4641 1 0.682875 0.699271 0.497687
4722 1 0.695333 0.699072 0.499747
4726 1 0.702546 0.686949 0.500339
4656 1 0.714087 0.689826 0.500317
2238 1 0.517172 0.71281 0.499716
2021 1 0.529156 0.714001 0.500536
2164 1 0.545155 0.704967 0.499411
2307 1 0.552357 0.7165 0.500063
1956 1 0.565502 0.718669 0.49993
2024 1 0.545235 0.727296 0.499541
4832 1 0.571764 0.708675 0.49849
4837 1 0.576527 0.719031 0.498958
4833 1 0.583867 0.709151 0.497546
4843 1 0.587996 0.720561 0.497783
4772 1 0.601342 0.722817 0.498607
4763 1 0.608883 0.711408 0.498003
4770 1 0.595908 0.71193 0.49859
4785 1 0.61238 0.724498 0.499676
4787 1 0.626755 0.704626 0.498241
4637 1 0.632432 0.714179 0.497967
4713 1 0.625619 0.725248 0.499794
4778 1 0.620224 0.714668 0.498667
4707 1 0.638032 0.705463 0.498264
4782 1 0.650456 0.706866 0.497996
4644 1 0.643443 0.71652 0.497851
4642 1 0.637283 0.728005 0.498258
4715 1 0.656347 0.716972 0.498557
4851 1 0.676997 0.710391 0.499268
4646 1 0.663707 0.707875 0.498795
4498 1 0.668416 0.718688 0.49889
4796 1 0.680746 0.721508 0.500064
4797 1 0.692081 0.720918 0.49935
4583 1 0.688617 0.710194 0.499144
4584 1 0.710664 0.710821 0.50037
2098 1 0.54309 0.749252 0.49998
2161 1 0.539266 0.736172 0.498426
4977 1 0.556265 0.72939 0.499851
4975 1 0.561935 0.739948 0.499037
2167 1 0.550005 0.73956 0.500676
4835 1 0.567154 0.730058 0.499263
4771 1 0.584659 0.742271 0.500095
4844 1 0.573398 0.740697 0.498491
4904 1 0.580459 0.730606 0.498136
4978 1 0.568297 0.750536 0.500513
4918 1 0.60955 0.744791 0.499762
4710 1 0.597369 0.74505 0.497827
4768 1 0.592859 0.733426 0.498756
4790 1 0.629597 0.737172 0.499611
4846 1 0.617655 0.734426 0.499394
4921 1 0.634925 0.748947 0.499219
4923 1 0.648818 0.727461 0.497884
4648 1 0.643288 0.738419 0.498257
4718 1 0.65566 0.737646 0.498962
4717 1 0.648856 0.748773 0.499875
4640 1 0.662355 0.728627 0.497975
4714 1 0.674544 0.730451 0.497793
4926 1 0.667893 0.739997 0.498571
4789 1 0.659833 0.748545 0.498814
4645 1 0.680609 0.742683 0.498687
4798 1 0.686535 0.731086 0.499491
4866 1 0.698172 0.731812 0.500055
4976 1 0.560392 0.761237 0.500298
4836 1 0.548101 0.761397 0.500063
4906 1 0.554057 0.773163 0.499872
4847 1 0.579435 0.753078 0.498281
4845 1 0.571621 0.761693 0.501022
4916 1 0.596799 0.765104 0.499806
4848 1 0.614798 0.756166 0.499771
4927 1 0.622881 0.76796 0.500361
4856 1 0.633847 0.768763 0.499356
4929 1 0.658626 0.77099 0.50067
4711 1 0.672233 0.751281 0.500045
4791 1 0.665386 0.760576 0.500216
4572 1 0.677637 0.764013 0.499522
4655 1 0.697001 0.753574 0.500608
4996 1 0.689831 0.763684 0.500027
4817 1 0.843281 0.766402 0.499649
2170 1 0.546934 0.781969 0.49996
4908 1 0.577061 0.774941 0.500918
4840 1 0.59976 0.79732 0.498958
4999 1 0.655772 0.793467 0.50102
5144 1 0.680232 0.79577 0.499562
4931 1 0.676536 0.782993 0.498842
4997 1 0.694713 0.775613 0.499829
4857 1 0.683761 0.774197 0.500174
4874 1 0.726324 0.786265 0.500334
4933 1 0.714566 0.786435 0.500257
5007 1 0.749823 0.787661 0.499029
4812 1 0.737172 0.787021 0.497864
5228 1 0.772665 0.790739 0.498595
5161 1 0.784939 0.792885 0.498391
5168 1 0.808726 0.793964 0.49937
5237 1 0.828242 0.786771 0.499675
5098 1 0.821241 0.796703 0.498685
2241 1 0.841898 0.787057 0.499662
5184 1 0.563154 0.815712 0.500127
5113 1 0.569053 0.806979 0.500357
5055 1 0.575548 0.817213 0.500088
5063 1 0.672161 0.804484 0.500163
5062 1 0.66595 0.81486 0.499533
4804 1 0.68517 0.806906 0.499216
5212 1 0.692467 0.796818 0.499348
5281 1 0.690687 0.817904 0.499289
5071 1 0.698015 0.806773 0.497764
4867 1 0.710972 0.807712 0.498048
4944 1 0.717795 0.797096 0.498762
5217 1 0.706033 0.798 0.499192
4935 1 0.722523 0.808939 0.498287
4864 1 0.734233 0.810446 0.497397
4868 1 0.742668 0.798327 0.498316
5229 1 0.746428 0.808906 0.498517
4934 1 0.730538 0.797864 0.498011
5009 1 0.75284 0.799295 0.498343
5157 1 0.76479 0.79983 0.497151
5158 1 0.770132 0.812518 0.497634
5077 1 0.758402 0.810006 0.498499
5088 1 0.776773 0.802212 0.498682
5083 1 0.782876 0.812266 0.498018
5223 1 0.795113 0.814034 0.497205
5236 1 0.8133 0.805557 0.499113
5295 1 0.806525 0.815685 0.497907
5232 1 0.801779 0.806124 0.499775
5107 1 0.827656 0.806643 0.49904
5105 1 0.840836 0.80738 0.498133
5231 1 0.8198 0.816008 0.498568
5177 1 0.832182 0.817925 0.499327
4959 1 0.847341 0.797589 0.500496
2243 1 0.863312 0.809939 0.499354
2449 1 0.538159 0.83441 0.499842
4980 1 0.562123 0.836832 0.499619
4909 1 0.587215 0.816928 0.500244
5048 1 0.587761 0.841262 0.500718
5058 1 0.580804 0.827099 0.499084
4981 1 0.598072 0.818406 0.499293
5061 1 0.59286 0.829737 0.500011
4858 1 0.634979 0.822606 0.50013
4992 1 0.615793 0.832222 0.499443
4854 1 0.647543 0.825996 0.499238
5209 1 0.654139 0.836614 0.499844
5133 1 0.665223 0.838678 0.499954
5141 1 0.671306 0.827532 0.49999
5142 1 0.676867 0.837733 0.499083
4990 1 0.660012 0.825716 0.499394
4861 1 0.702504 0.818534 0.498234
5070 1 0.682456 0.827239 0.499127
5072 1 0.688261 0.837004 0.499111
5215 1 0.696407 0.828958 0.499872
5136 1 0.700984 0.839813 0.498987
5073 1 0.714981 0.819174 0.498314
5216 1 0.722324 0.830292 0.499048
5213 1 0.709691 0.82985 0.498674
5279 1 0.715576 0.841185 0.499833
4998 1 0.72832 0.820747 0.49669
5003 1 0.73406 0.831876 0.498147
4865 1 0.738627 0.821354 0.499423
5004 1 0.751103 0.819872 0.498981
5086 1 0.763036 0.823 0.498735
5079 1 0.756674 0.832523 0.499514
5084 1 0.768169 0.83296 0.498554
5367 1 0.780546 0.833797 0.498551
5227 1 0.775683 0.822607 0.498204
5369 1 0.787682 0.823181 0.498204
5291 1 0.792284 0.835313 0.497594
5371 1 0.799293 0.825164 0.498869
5304 1 0.816606 0.839086 0.498334
5305 1 0.805032 0.835173 0.497418
5303 1 0.811525 0.825747 0.497932
5378 1 0.836674 0.828996 0.49804
4818 1 0.823297 0.827904 0.49839
5102 1 0.828942 0.839158 0.498638
5100 1 0.844662 0.819757 0.498558
2252 1 0.860132 0.832783 0.500107
5101 1 0.871017 0.824287 0.500679
2362 1 0.513918 0.863246 0.499106
2493 1 0.522202 0.853316 0.500075
2428 1 0.533052 0.854799 0.497052
4974 1 0.541144 0.845907 0.49887
4973 1 0.566801 0.848205 0.500647
2443 1 0.547607 0.856398 0.498515
5471 1 0.554406 0.846239 0.499186
5188 1 0.583716 0.862898 0.500556
5119 1 0.611782 0.845588 0.499474
4983 1 0.591054 0.852906 0.500029
5126 1 0.623415 0.845796 0.499474
5131 1 0.663851 0.858888 0.499492
5140 1 0.676547 0.858756 0.498752
5278 1 0.68308 0.848606 0.499552
5285 1 0.687641 0.860385 0.499291
5218 1 0.694624 0.849471 0.498777
5002 1 0.727314 0.842177 0.499153
5075 1 0.708343 0.851384 0.498746
5076 1 0.714001 0.862972 0.498204
5001 1 0.720653 0.853703 0.498895
4937 1 0.73906 0.842936 0.49884
5147 1 0.73239 0.853622 0.497917
5008 1 0.744832 0.854653 0.498189
4936 1 0.750051 0.841757 0.497962
5293 1 0.767387 0.853942 0.497201
5085 1 0.761163 0.843562 0.497693
5082 1 0.755174 0.854939 0.498132
5292 1 0.785565 0.845875 0.497124
5156 1 0.772426 0.84386 0.497463
5440 1 0.791593 0.857032 0.496704
5224 1 0.779635 0.856013 0.496506
5374 1 0.798639 0.845847 0.496418
5302 1 0.810364 0.849234 0.498526
5308 1 0.81597 0.862287 0.497362
5445 1 0.803121 0.859345 0.496971
5170 1 0.84192 0.841966 0.499129
5178 1 0.834663 0.852981 0.498938
5172 1 0.822878 0.851961 0.498378
5307 1 0.827711 0.862553 0.497932
5377 1 0.839426 0.863364 0.497815
2311 1 0.845772 0.85435 0.500387
2247 1 0.858059 0.853021 0.499709
5106 1 0.851658 0.863881 0.499486
2186 1 0.878298 0.84653 0.500298
2319 1 0.865481 0.844881 0.500463
2567 1 0.500232 0.886086 0.498256
2635 1 0.518338 0.874338 0.498576
2427 1 0.506232 0.872208 0.498286
2358 1 0.539879 0.866536 0.498883
2568 1 0.546198 0.879687 0.499208
2494 1 0.53315 0.878321 0.499758
2365 1 0.525628 0.886255 0.498141
2496 1 0.52706 0.866583 0.498088
2375 1 0.558091 0.880098 0.498564
5260 1 0.563078 0.870043 0.500025
2505 1 0.551104 0.867547 0.499839
5127 1 0.65745 0.868455 0.500216
5199 1 0.64932 0.877786 0.500286
5351 1 0.67413 0.879746 0.498928
5211 1 0.668569 0.869003 0.499465
5280 1 0.682098 0.870714 0.498214
5210 1 0.686474 0.882503 0.499119
5282 1 0.694624 0.872754 0.498673
5214 1 0.697483 0.883166 0.496851
5074 1 0.72507 0.863974 0.497335
5006 1 0.706401 0.871583 0.49851
5421 1 0.71062 0.883128 0.497338
5148 1 0.718258 0.873895 0.495875
5354 1 0.723005 0.885685 0.496241
5152 1 0.736888 0.865431 0.497695
5425 1 0.729606 0.874512 0.497713
5005 1 0.748731 0.866117 0.49801
5153 1 0.742415 0.874941 0.496429
5149 1 0.735987 0.885916 0.496639
5151 1 0.753681 0.876238 0.49673
5226 1 0.766059 0.877775 0.496893
5301 1 0.77287 0.864803 0.495895
5290 1 0.760726 0.865199 0.497013
5150 1 0.784649 0.867704 0.496231
5300 1 0.778206 0.877289 0.496628
5366 1 0.790622 0.880883 0.496184
5438 1 0.795652 0.870055 0.495852
5589 1 0.802556 0.88118 0.496693
5296 1 0.806489 0.871577 0.497111
5096 1 0.81363 0.881961 0.497622
5309 1 0.821593 0.873153 0.49767
5313 1 0.833226 0.872921 0.498575
5239 1 0.826008 0.883832 0.498113
5519 1 0.837645 0.884643 0.498783
5382 1 0.84508 0.874867 0.498232
5376 1 0.855781 0.874312 0.499613
5449 1 0.848925 0.887208 0.499781
5242 1 0.864736 0.865547 0.498609
5380 1 0.866983 0.87723 0.499776
5180 1 0.876376 0.870399 0.499833
2253 1 0.885538 0.880346 0.499201
2645 1 0.517933 0.895972 0.499143
2504 1 0.511918 0.906258 0.498448
2498 1 0.504735 0.896317 0.498411
2511 1 0.523285 0.908318 0.498222
2439 1 0.542107 0.900258 0.497856
2440 1 0.529626 0.897994 0.499062
2503 1 0.539623 0.887693 0.499211
2450 1 0.551253 0.890989 0.498444
2442 1 0.553069 0.90258 0.498536
5329 1 0.565566 0.903793 0.497725
5254 1 0.578694 0.903862 0.498506
5182 1 0.590111 0.906362 0.499531
5256 1 0.572737 0.894188 0.499246
5261 1 0.603025 0.907572 0.499593
5187 1 0.596676 0.896841 0.499459
5266 1 0.614955 0.910548 0.499489
5116 1 0.62821 0.909737 0.498639
5130 1 0.646463 0.899243 0.499035
5276 1 0.658627 0.899791 0.499175
5207 1 0.671421 0.901169 0.49875
5350 1 0.678257 0.890994 0.497834
5348 1 0.683071 0.902693 0.496573
5283 1 0.690891 0.893154 0.49695
5424 1 0.696214 0.903307 0.494969
5221 1 0.703358 0.893941 0.497266
5287 1 0.720892 0.905294 0.496154
5426 1 0.715296 0.895013 0.496162
5423 1 0.708777 0.90393 0.495016
5504 1 0.729762 0.895933 0.495983
5355 1 0.748761 0.887437 0.496702
5225 1 0.740644 0.897093 0.495819
5284 1 0.745056 0.908761 0.496287
5219 1 0.733292 0.90725 0.49588
5353 1 0.753023 0.898538 0.497494
5297 1 0.760329 0.888213 0.497686
5294 1 0.771401 0.887759 0.496079
5080 1 0.764837 0.89972 0.496922
5154 1 0.776093 0.898646 0.497457
5289 1 0.782657 0.889009 0.496798
5518 1 0.795444 0.890865 0.497257
5513 1 0.788367 0.901787 0.498467
5590 1 0.80013 0.903799 0.497545
5520 1 0.812217 0.90299 0.498594
5240 1 0.806913 0.893519 0.497062
5515 1 0.818589 0.893883 0.498323
5446 1 0.830466 0.894445 0.498361
5306 1 0.82361 0.90623 0.499869
5375 1 0.836257 0.906405 0.497669
5238 1 0.861531 0.88688 0.498913
5447 1 0.855487 0.897577 0.499088
5452 1 0.847658 0.906975 0.498949
5389 1 0.86262 0.907431 0.498388
2245 1 0.874376 0.88612 0.499172
2317 1 0.881803 0.896281 0.498719
5379 1 0.868415 0.897549 0.497817
5310 1 0.886551 0.90723 0.497003
5311 1 0.907316 0.905886 0.499341
2312 1 0.894608 0.894355 0.500392
2582 1 0.519909 0.929656 0.497908
2583 1 0.509049 0.926696 0.498436
2501 1 0.503323 0.915778 0.498748
2506 1 0.516738 0.917475 0.500016
2371 1 0.534709 0.909141 0.499028
2584 1 0.526195 0.918928 0.49691
2517 1 0.53108 0.930027 0.497805
2372 1 0.539297 0.921123 0.497622
2520 1 0.55845 0.913554 0.498395
5251 1 0.551944 0.924323 0.498949
2380 1 0.562813 0.923829 0.498042
5112 1 0.545923 0.911716 0.497683
5255 1 0.571204 0.914147 0.498996
5275 1 0.58766 0.927935 0.498986
5120 1 0.575639 0.925516 0.498469
5118 1 0.584067 0.917339 0.500306
5122 1 0.607378 0.917967 0.497846
5331 1 0.594537 0.917165 0.498513
5124 1 0.612854 0.929278 0.49687
5271 1 0.599371 0.92911 0.498401
5197 1 0.632572 0.92036 0.498003
5198 1 0.625468 0.930161 0.496949
5200 1 0.620714 0.919867 0.497264
5344 1 0.636691 0.932545 0.497467
5269 1 0.639612 0.909316 0.498713
5349 1 0.652482 0.910902 0.499745
5557 1 0.657969 0.920728 0.497599
5206 1 0.645234 0.919799 0.49758
5561 1 0.649641 0.93112 0.496478
5488 1 0.675512 0.912016 0.49739
5201 1 0.663969 0.910622 0.497891
5203 1 0.668435 0.92298 0.497057
5419 1 0.679842 0.923014 0.495724
5277 1 0.660992 0.93243 0.495767
5499 1 0.700117 0.915748 0.495848
5417 1 0.687873 0.913463 0.495828
5491 1 0.691999 0.925037 0.495421
5420 1 0.706598 0.925008 0.496476
5430 1 0.72572 0.916941 0.495051
5286 1 0.713013 0.914862 0.495356
5432 1 0.718164 0.925857 0.495366
5503 1 0.731402 0.927869 0.49653
5222 1 0.742662 0.930247 0.49478
5362 1 0.737769 0.918313 0.496
5365 1 0.749614 0.919879 0.497373
5220 1 0.756749 0.910243 0.49624
5078 1 0.769642 0.911309 0.497504
5437 1 0.761379 0.923155 0.497814
5516 1 0.774677 0.923316 0.497843
5580 1 0.781401 0.91259 0.497026
5370 1 0.793146 0.91255 0.496974
5512 1 0.786433 0.924886 0.499432
5444 1 0.798056 0.925688 0.498089
5442 1 0.806097 0.916539 0.498213
5521 1 0.811895 0.927628 0.498048
5588 1 0.835098 0.928714 0.497958
5372 1 0.823316 0.927505 0.499112
5517 1 0.829365 0.91639 0.499502
5234 1 0.817537 0.916592 0.497615
5450 1 0.840594 0.919339 0.497862
5453 1 0.847808 0.928901 0.498544
5451 1 0.852709 0.917682 0.498428
5448 1 0.859187 0.930518 0.497536
5244 1 0.873994 0.91207 0.497175
2256 1 0.88261 0.920783 0.498134
5318 1 0.872313 0.929231 0.49832
5315 1 0.864284 0.919482 0.498352
5108 1 0.899511 0.924049 0.498355
2382 1 0.895589 0.913204 0.500251
5248 1 0.912505 0.922879 0.49884
2508 1 0.502033 0.936257 0.498635
2441 1 0.514551 0.940429 0.497686
2444 1 0.51965 0.951752 0.499068
2433 1 0.507449 0.948841 0.500326
2514 1 0.544882 0.931892 0.49663
2585 1 0.538575 0.941778 0.496933
2586 1 0.526146 0.941057 0.497951
2580 1 0.531675 0.951563 0.49704
5253 1 0.542872 0.954475 0.497789
2519 1 0.557385 0.935345 0.497788
5252 1 0.561578 0.946743 0.497439
2515 1 0.549622 0.943337 0.49821
5117 1 0.569217 0.935551 0.498999
5337 1 0.580911 0.938015 0.497299
5191 1 0.585062 0.948769 0.496845
5264 1 0.573308 0.947978 0.496384
5485 1 0.592553 0.938356 0.498037
5267 1 0.609266 0.948679 0.495572
5190 1 0.597565 0.949624 0.496215
5270 1 0.605018 0.939432 0.497635
5202 1 0.629256 0.942171 0.496232
5343 1 0.622509 0.951751 0.495394
5411 1 0.617785 0.940025 0.49762
5268 1 0.63403 0.952885 0.496645
5484 1 0.653213 0.942085 0.49508
5346 1 0.640984 0.942479 0.496427
5487 1 0.646432 0.95237 0.495139
5476 1 0.6581 0.952976 0.494369
5204 1 0.673668 0.933854 0.495216
5489 1 0.678817 0.94567 0.496202
5273 1 0.665234 0.944235 0.495017
5205 1 0.685054 0.935703 0.494897
5501 1 0.691857 0.945033 0.495635
5563 1 0.699485 0.934409 0.496495
5500 1 0.704229 0.945305 0.494883
5422 1 0.716364 0.947336 0.495753
5567 1 0.723203 0.936327 0.495261
5506 1 0.710519 0.935782 0.495222
5497 1 0.728098 0.949132 0.496668
5363 1 0.734704 0.940338 0.495999
5360 1 0.746572 0.941115 0.496877
5431 1 0.739736 0.951425 0.497177
5368 1 0.754591 0.932948 0.496926
5288 1 0.767897 0.932904 0.497579
5427 1 0.75228 0.952907 0.497586
5357 1 0.76048 0.942205 0.497134
5359 1 0.777425 0.954753 0.498328
5364 1 0.771979 0.943478 0.497391
5435 1 0.780623 0.935759 0.49868
5594 1 0.791001 0.935042 0.497217
5433 1 0.7849 0.945682 0.498284
5579 1 0.796399 0.946186 0.499764
5585 1 0.80803 0.948216 0.498718
5587 1 0.803217 0.935818 0.498911
2861 1 0.815601 0.938791 0.498058
5584 1 0.828618 0.939904 0.497774
2926 1 0.820817 0.949862 0.499089
5530 1 0.832873 0.951348 0.49778
5523 1 0.839523 0.941053 0.496889
5524 1 0.844878 0.950396 0.497615
5525 1 0.851837 0.939838 0.497487
5455 1 0.856952 0.952478 0.497987
5320 1 0.886018 0.931035 0.498558
5176 1 0.866517 0.940496 0.497703
5314 1 0.869212 0.952495 0.498403
5457 1 0.882318 0.952716 0.497974
5243 1 0.877967 0.94022 0.497002
5245 1 0.898421 0.936457 0.498104
5317 1 0.890436 0.944563 0.49871
2316 1 0.905228 0.951336 0.496863
2244 1 0.912395 0.93956 0.498779
2434 1 0.51674 0.973501 0.498703
2446 1 0.51135 0.959929 0.498176
2512 1 0.505163 0.969321 0.498082
2581 1 0.522727 0.963408 0.497953
2513 1 0.535381 0.963638 0.499091
5399 1 0.539968 0.975491 0.498237
2644 1 0.52769 0.975283 0.49871
5181 1 0.553787 0.955874 0.496114
5334 1 0.564589 0.95775 0.497387
2587 1 0.546811 0.96513 0.49798
5262 1 0.552509 0.977229 0.497137
5401 1 0.558967 0.967895 0.49756
5189 1 0.57729 0.958353 0.495899
5265 1 0.571534 0.968058 0.496441
5338 1 0.583568 0.969113 0.496457
5194 1 0.59062 0.958071 0.4955
5335 1 0.605222 0.958803 0.496238
5342 1 0.608192 0.971424 0.49514
5272 1 0.596198 0.969589 0.496591
5544 1 0.615698 0.96094 0.495846
5546 1 0.619176 0.972826 0.494703
5414 1 0.627815 0.961711 0.495097
5415 1 0.632007 0.972714 0.49551
5345 1 0.639959 0.962876 0.494818
5547 1 0.655791 0.975963 0.493294
5480 1 0.644572 0.973279 0.495324
5481 1 0.651715 0.963284 0.493748
5416 1 0.674963 0.964843 0.494647
5410 1 0.662758 0.965462 0.493638
5486 1 0.669795 0.954512 0.495025
5482 1 0.695643 0.957623 0.495427
5495 1 0.688353 0.965902 0.493698
5490 1 0.701649 0.969682 0.495855
5558 1 0.684065 0.954846 0.494723
5428 1 0.721119 0.958929 0.495074
5493 1 0.708632 0.959791 0.494856
2837 1 0.72621 0.971189 0.495594
5565 1 0.713932 0.969483 0.494896
5429 1 0.746344 0.962774 0.497027
5356 1 0.732501 0.960296 0.496577
5361 1 0.737934 0.971767 0.495868
5509 1 0.765629 0.95359 0.497953
2849 1 0.769957 0.965789 0.498006
5507 1 0.762582 0.974932 0.497471
5436 1 0.758062 0.963887 0.496449
5434 1 0.750564 0.97291 0.497013
5514 1 0.789542 0.95596 0.498866
5441 1 0.782771 0.965977 0.498737
2856 1 0.793551 0.968048 0.498798
2853 1 0.816984 0.970477 0.498398
5586 1 0.79933 0.958007 0.498298
2851 1 0.804815 0.969135 0.49712
5443 1 0.81315 0.959445 0.498337
5529 1 0.829644 0.970753 0.49778
5595 1 0.824873 0.960476 0.497986
5312 1 0.837961 0.961383 0.498125
5522 1 0.854272 0.974037 0.497446
5591 1 0.842167 0.972091 0.497668
5527 1 0.849943 0.962534 0.498219
5454 1 0.863221 0.964902 0.498352
5387 1 0.881428 0.97528 0.498097
2458 1 0.886017 0.965386 0.496771
5385 1 0.874948 0.96316 0.498506
5388 1 0.868716 0.974925 0.497948
2381 1 0.898019 0.967693 0.497849
5390 1 0.894204 0.957437 0.496843
5319 1 0.909987 0.969527 0.497207
5458 1 0.925294 0.972779 0.496747
5110 1 0.918343 0.95775 0.498357
2577 1 0.508353 0.981459 0.498725
2779 1 0.513321 0.993146 0.498667
2711 1 0.522077 0.985294 0.49901
2780 1 0.501241 0.991512 0.49899
2578 1 0.526867 0.995383 0.499302
2653 1 0.539473 0.995992 0.49861
5332 1 0.565304 0.977271 0.497972
5465 1 0.55818 0.986582 0.498585
5398 1 0.55174 0.997516 0.498418
5326 1 0.545972 0.985727 0.498815
5473 1 0.587497 0.999818 0.495893
5341 1 0.576242 0.980061 0.4962
5274 1 0.588121 0.979255 0.496612
5396 1 0.582586 0.989445 0.496729
5336 1 0.576484 1.00074 0.495921
5192 1 0.569429 0.987857 0.497974
5409 1 0.593661 0.99105 0.49564
5412 1 0.606502 0.992496 0.495539
5479 1 0.600236 0.981766 0.496118
5413 1 0.614402 0.982738 0.495042
2817 1 0.631161 0.994403 0.493672
5407 1 0.619338 0.993158 0.495776
5483 1 0.62687 0.983198 0.495504
2897 1 0.654674 0.996119 0.494008
5478 1 0.648829 0.985098 0.493808
5550 1 0.643579 0.994225 0.494703
2822 1 0.637385 0.983219 0.493688
2823 1 0.678594 0.998971 0.492603
5553 1 0.673115 0.98979 0.49403
5555 1 0.661564 0.986088 0.493818
5554 1 0.66859 0.975047 0.49451
5418 1 0.681851 0.97754 0.493345
5549 1 0.694188 0.97927 0.494201
5496 1 0.69771 0.991002 0.493698
2825 1 0.686091 0.988854 0.494046
2836 1 0.710645 0.992764 0.494092
5494 1 0.717531 0.980224 0.495009
2833 1 0.722004 0.992712 0.495487
5492 1 0.703889 0.980668 0.495288
5568 1 0.734897 0.994313 0.495121
5573 1 0.741129 0.983412 0.495519
2839 1 0.746689 0.993366 0.495398
5570 1 0.729616 0.983193 0.495602
5569 1 0.764933 0.986282 0.496809
2846 1 0.753942 0.983504 0.495975
2922 1 0.770244 0.997876 0.497505
5505 1 0.758041 0.995702 0.495349
5574 1 0.783243 0.999406 0.496082
2925 1 0.774243 0.976483 0.497973
5439 1 0.77654 0.988932 0.496273
2989 1 0.789053 0.99015 0.498641
5511 1 0.78539 0.978301 0.498089
2923 1 0.796657 0.978848 0.497572
5581 1 0.809476 0.980677 0.497892
2854 1 0.814603 0.990756 0.49654
2929 1 0.801597 0.989987 0.497478
5528 1 0.833799 0.982922 0.497247
2863 1 0.821482 0.980559 0.497335
2864 1 0.839347 0.994428 0.497164
5593 1 0.826295 0.992044 0.497566
5383 1 0.86426 0.996409 0.498456
5596 1 0.851965 0.995152 0.497838
2662 1 0.846764 0.98499 0.497579
5384 1 0.859159 0.984269 0.497395
2732 1 0.87132 0.986054 0.498345
5526 1 0.883418 0.987979 0.498215
2318 1 0.875609 0.999572 0.497096
2452 1 0.892488 0.977517 0.497566
3 1 0.895414 0.989326 0.497507
5247 1 0.888021 0.999146 0.498029
2176 1 0.903247 0.981039 0.497748
2521 1 0.915957 0.981195 0.497357
2332 1 0.909212 0.99242 0.497594
5249 1 0.922465 0.990395 0.498462
2178 1 0.935125 0.991855 0.498628
2464 1 0.952469 0.988587 0.496231
2246 1 0.938572 0.980994 0.496558
4272 1 0.506806 0.503717 0.501131
4271 1 0.511054 0.514768 0.50056
1605 1 0.519686 0.506032 0.500863
4278 1 0.523664 0.516604 0.500324
4279 1 0.536279 0.518606 0.50036
4283 1 0.581083 0.513155 0.499796
4079 1 0.599922 0.505498 0.500601
4349 1 0.605513 0.516946 0.500497
4072 1 0.612762 0.506307 0.501335
4146 1 0.592661 0.514437 0.499934
4419 1 0.624457 0.507105 0.500997
4214 1 0.617874 0.517168 0.501192
4140 1 0.628354 0.520029 0.501026
4295 1 0.635531 0.509994 0.501356
4227 1 0.647113 0.510894 0.500954
4085 1 0.64024 0.520367 0.501167
4223 1 0.652269 0.523334 0.501832
4220 1 0.655425 0.503305 0.500023
4292 1 0.675933 0.515901 0.500921
4303 1 0.661781 0.515246 0.500167
4436 1 0.66816 0.504482 0.500681
4367 1 0.6882 0.520026 0.50207
4374 1 0.695114 0.50984 0.500636
4366 1 0.698853 0.522332 0.500705
4365 1 0.708296 0.505937 0.500834
4234 1 0.728163 0.502773 0.500161
4161 1 0.729461 0.51611 0.501371
4166 1 0.748634 0.516474 0.500586
4311 1 0.770518 0.516134 0.499977
4534 1 0.834273 0.512955 0.499792
4467 1 0.824613 0.51967 0.500888
4472 1 0.84634 0.509223 0.500514
4401 1 0.858439 0.51407 0.499918
4397 1 0.856482 0.502138 0.500543
4464 1 0.846407 0.522358 0.501433
4468 1 0.868661 0.519902 0.501544
4394 1 0.878735 0.513129 0.501159
4396 1 0.877955 0.499584 0.501808
4408 1 0.88775 0.505987 0.502447
4398 1 0.888973 0.518382 0.50096
4471 1 0.900077 0.512037 0.501644
4406 1 0.900396 0.524485 0.503137
1752 1 0.910765 0.519417 0.50329
4339 1 0.910214 0.504957 0.503909
1541 1 0.921178 0.509171 0.504611
4466 1 0.931764 0.505427 0.503801
4198 1 0.932548 0.516987 0.503318
1611 1 0.95272 0.503188 0.503787
4340 1 0.944024 0.522278 0.504421
4260 1 0.943808 0.508686 0.504118
4266 1 0.953501 0.515082 0.505502
1614 1 0.973469 0.514256 0.505359
1612 1 0.963346 0.507156 0.504847
1689 1 0.964149 0.521714 0.505663
1479 1 0.995987 0.512418 0.504141
1691 1 0.984727 0.516437 0.506069
1546 1 0.984568 0.506244 0.504561
1675 1 0.504468 0.524364 0.501085
1679 1 0.50746 0.536819 0.499789
4341 1 0.51991 0.537068 0.499797
4132 1 0.515861 0.525788 0.499837
4274 1 0.527714 0.52852 0.499493
4417 1 0.589272 0.535629 0.499897
4357 1 0.609472 0.528345 0.501307
4489 1 0.598396 0.527791 0.499829
4136 1 0.601902 0.538114 0.499756
4212 1 0.61384 0.539314 0.500327
4151 1 0.625275 0.540867 0.500035
4205 1 0.620375 0.528641 0.501426
4084 1 0.632032 0.531023 0.500235
4355 1 0.637256 0.541738 0.501537
4150 1 0.644701 0.531725 0.501705
4501 1 0.656725 0.534537 0.502844
4287 1 0.648375 0.542889 0.50222
4519 1 0.677098 0.528784 0.502228
4363 1 0.665266 0.526154 0.501877
4511 1 0.679294 0.54211 0.503411
4435 1 0.668074 0.537168 0.503327
4217 1 0.659761 0.546354 0.501945
4370 1 0.687331 0.532009 0.501899
4372 1 0.699435 0.534161 0.502052
4380 1 0.693081 0.543534 0.502742
4302 1 0.718918 0.522482 0.500754
4379 1 0.708851 0.528839 0.501356
4447 1 0.717707 0.537072 0.502095
4381 1 0.738535 0.53612 0.499711
4315 1 0.729309 0.54186 0.501009
4240 1 0.748964 0.54153 0.50053
4246 1 0.758497 0.533731 0.500441
4244 1 0.771098 0.541264 0.500011
4382 1 0.782501 0.534828 0.500333
4248 1 0.793547 0.540297 0.500305
4609 1 0.814552 0.539106 0.500084
4388 1 0.81411 0.525898 0.500478
4603 1 0.836032 0.527434 0.500307
4613 1 0.826013 0.547308 0.499714
4531 1 0.834699 0.53882 0.502289
4537 1 0.823834 0.533573 0.500512
4462 1 0.857588 0.538653 0.501396
4538 1 0.846953 0.544413 0.502131
4391 1 0.85754 0.525558 0.500569
4469 1 0.879534 0.525968 0.50212
4479 1 0.879645 0.537123 0.500877
4478 1 0.868286 0.53172 0.501011
4535 1 0.868823 0.544244 0.50164
1613 1 0.890024 0.541667 0.501417
4465 1 0.891095 0.530694 0.500719
4544 1 0.900826 0.537251 0.501864
4757 1 0.921261 0.522058 0.504112
1681 1 0.910517 0.531181 0.503001
4550 1 0.9118 0.542335 0.503194
1472 1 0.922788 0.534661 0.503641
1823 1 0.93276 0.528523 0.505155
1543 1 0.932963 0.541218 0.505586
1542 1 0.943085 0.535015 0.504334
1684 1 0.954108 0.527167 0.504416
1476 1 0.955505 0.53898 0.504347
1617 1 0.976282 0.525773 0.504742
1767 1 0.966091 0.53309 0.505158
1763 1 0.976255 0.538541 0.504568
1755 1 0.99511 0.523337 0.505635
1690 1 0.997886 0.53513 0.5053
1761 1 0.987051 0.530467 0.50427
1837 1 0.987047 0.542495 0.505267
4621 1 0.505914 0.55806 0.50077
1819 1 0.499992 0.545029 0.501204
4282 1 0.60936 0.559844 0.499885
4358 1 0.620779 0.561992 0.500041
4354 1 0.633719 0.563473 0.500658
4422 1 0.629519 0.552161 0.500667
4352 1 0.6168 0.550726 0.501279
4215 1 0.641206 0.55345 0.501186
4433 1 0.646453 0.565182 0.50225
4503 1 0.653008 0.554289 0.502234
4502 1 0.67562 0.558613 0.503371
4148 1 0.663585 0.558723 0.502805
4362 1 0.671151 0.548277 0.501616
4444 1 0.684579 0.566034 0.50119
4445 1 0.695609 0.554789 0.501957
4516 1 0.696484 0.567202 0.501953
4373 1 0.685416 0.553023 0.502435
4449 1 0.705299 0.546218 0.502225
4660 1 0.719694 0.560279 0.501324
4521 1 0.718065 0.548658 0.499408
4451 1 0.708113 0.558924 0.502094
4312 1 0.740673 0.548301 0.50149
4517 1 0.729845 0.566145 0.502828
4385 1 0.728962 0.554012 0.501869
4663 1 0.741019 0.560753 0.501174
4378 1 0.760341 0.546173 0.500391
4313 1 0.760903 0.560438 0.502166
4589 1 0.751308 0.566099 0.502617
4520 1 0.750473 0.554368 0.502948
4518 1 0.770937 0.554009 0.502
4453 1 0.772255 0.565266 0.501936
4112 1 0.780527 0.547504 0.501267
4527 1 0.783079 0.559776 0.501921
4528 1 0.792541 0.551527 0.500853
4245 1 0.79459 0.564789 0.501978
4612 1 0.815714 0.563957 0.502215
4599 1 0.804058 0.556473 0.50199
4541 1 0.814565 0.55218 0.500695
4539 1 0.824861 0.558247 0.501694
4611 1 0.836463 0.551611 0.502254
4547 1 0.837145 0.563936 0.502076
4545 1 0.858759 0.561618 0.501064
4475 1 0.859232 0.551131 0.500869
4477 1 0.846798 0.55606 0.500732
1751 1 0.881045 0.560939 0.501555
4410 1 0.879022 0.548943 0.501256
4470 1 0.870607 0.557077 0.501723
1822 1 0.902864 0.559853 0.502529
1682 1 0.890397 0.553764 0.502024
1821 1 0.90031 0.548068 0.502381
4759 1 0.89115 0.56538 0.503086
1544 1 0.914108 0.568114 0.504144
1685 1 0.922574 0.547126 0.504042
1758 1 0.911778 0.553494 0.503112
1754 1 0.923467 0.55997 0.504485
1618 1 0.943909 0.547617 0.504368
1766 1 0.933732 0.552401 0.505108
1616 1 0.935975 0.565255 0.504412
1770 1 0.944948 0.558873 0.504111
1694 1 0.966731 0.545158 0.504896
1699 1 0.955815 0.565421 0.504015
1688 1 0.956655 0.551597 0.505123
1963 1 0.967377 0.559111 0.504473
1896 1 0.977892 0.54983 0.505888
1969 1 0.977494 0.564897 0.504683
1967 1 0.99886 0.5602 0.505315
1829 1 0.99988 0.548613 0.505867
1764 1 0.988776 0.553896 0.505601
1824 1 0.988388 0.567694 0.504444
1742 1 0.511116 0.569951 0.499741
4560 1 0.589977 0.570628 0.499717
4216 1 0.607123 0.584032 0.500015
4491 1 0.601232 0.572138 0.499686
4284 1 0.626234 0.57487 0.500714
4149 1 0.638295 0.575083 0.500197
4441 1 0.658029 0.568812 0.501942
4575 1 0.656732 0.588306 0.500593
4434 1 0.649412 0.57733 0.501634
4438 1 0.671413 0.568746 0.50206
4506 1 0.682294 0.590083 0.501544
4439 1 0.675755 0.579644 0.502276
4432 1 0.66354 0.578491 0.500485
4364 1 0.669715 0.590233 0.501088
4442 1 0.699472 0.57972 0.5008
4443 1 0.688828 0.57807 0.50155
4448 1 0.694698 0.590147 0.502186
4661 1 0.707772 0.570684 0.503099
4515 1 0.721487 0.587012 0.50349
4512 1 0.718426 0.573531 0.502773
4440 1 0.710945 0.58261 0.502143
4658 1 0.738875 0.571347 0.502227
4387 1 0.72961 0.57853 0.503045
4593 1 0.740767 0.586421 0.502061
4314 1 0.762281 0.584252 0.501876
4389 1 0.76207 0.573029 0.500106
4588 1 0.750353 0.578096 0.502818
4452 1 0.773055 0.578582 0.502256
4316 1 0.784719 0.582907 0.503701
4252 1 0.783504 0.571225 0.502714
4529 1 0.796285 0.588403 0.503825
4457 1 0.773954 0.590374 0.502739
4459 1 0.795915 0.577447 0.502247
4605 1 0.806553 0.582438 0.502726
4679 1 0.805879 0.570096 0.501821
4607 1 0.816526 0.576655 0.502428
4533 1 0.81696 0.588318 0.502006
4614 1 0.825899 0.570433 0.501881
4689 1 0.838166 0.588155 0.502434
4619 1 0.83824 0.575772 0.502623
4542 1 0.827859 0.582131 0.502447
4543 1 0.849007 0.56821 0.501923
1753 1 0.858143 0.574331 0.501631
4683 1 0.847736 0.58095 0.502213
4476 1 0.858393 0.585215 0.500391
4480 1 0.868917 0.568282 0.501161
4686 1 0.882824 0.583067 0.50188
4687 1 0.879075 0.572714 0.502951
4751 1 0.870795 0.580077 0.502256
1827 1 0.902113 0.586649 0.50334
1683 1 0.902849 0.571738 0.502866
1892 1 0.89354 0.577688 0.50138
4823 1 0.89109 0.590394 0.501776
1757 1 0.925549 0.571867 0.503599
1686 1 0.922941 0.583766 0.504076
1687 1 0.912206 0.579898 0.502748
1893 1 0.935706 0.579369 0.503663
2037 1 0.946447 0.573547 0.50445
1970 1 0.947283 0.584591 0.504563
1899 1 0.957289 0.577 0.504216
1968 1 0.966428 0.571837 0.505014
2052 1 0.967979 0.585324 0.505092
1971 1 0.976607 0.577953 0.504743
1826 1 1.00005 0.57311 0.505122
2038 1 0.979509 0.593358 0.503139
1900 1 0.987269 0.581284 0.504626
2086 1 0.505199 0.612334 0.499236
4628 1 0.61817 0.605678 0.499697
4507 1 0.677988 0.611136 0.500388
4567 1 0.673623 0.600983 0.500333
4290 1 0.665932 0.611131 0.4997
4574 1 0.686685 0.601151 0.501179
4659 1 0.700028 0.60073 0.500296
4652 1 0.702556 0.613114 0.501349
4576 1 0.690698 0.61201 0.500211
4446 1 0.707062 0.593221 0.503675
4721 1 0.71314 0.605979 0.502247
4664 1 0.721541 0.599152 0.504171
4657 1 0.722162 0.611352 0.504978
4450 1 0.73189 0.592681 0.503862
4590 1 0.73354 0.604669 0.502909
4513 1 0.743596 0.597158 0.503217
4727 1 0.74491 0.610515 0.50374
4523 1 0.75369 0.591495 0.502532
4456 1 0.764179 0.599056 0.5018
4597 1 0.764417 0.609218 0.502314
4525 1 0.754561 0.603222 0.503505
4598 1 0.78546 0.608068 0.504127
4383 1 0.775068 0.602589 0.503813
4384 1 0.784175 0.594988 0.502923
4532 1 0.794515 0.600457 0.504075
4608 1 0.806723 0.595188 0.502803
4596 1 0.805487 0.605993 0.503377
4615 1 0.819036 0.600833 0.50379
4885 1 0.817836 0.613199 0.503224
4618 1 0.837442 0.59883 0.503192
4536 1 0.829091 0.607573 0.502751
4606 1 0.827981 0.593932 0.502307
4753 1 0.83869 0.61185 0.503204
4616 1 0.859589 0.598432 0.500854
4685 1 0.847338 0.605187 0.503861
4548 1 0.860058 0.609819 0.503
4546 1 0.84799 0.593069 0.502113
4549 1 0.870066 0.591187 0.500679
4755 1 0.882005 0.609326 0.501603
4758 1 0.87939 0.596249 0.501614
4829 1 0.870369 0.602884 0.502143
1898 1 0.904738 0.606747 0.50428
1891 1 0.891786 0.602384 0.502317
1756 1 0.901437 0.597173 0.501482
4688 1 0.913146 0.59052 0.50301
2039 1 0.924728 0.608923 0.50436
2041 1 0.915406 0.602762 0.503828
1966 1 0.925034 0.595296 0.504424
2102 1 0.935234 0.589102 0.50533
2105 1 0.935848 0.60219 0.505378
5109 1 0.946923 0.596696 0.505934
1897 1 0.946545 0.609975 0.50482
2042 1 0.958506 0.591357 0.50491
2111 1 0.956507 0.604192 0.505607
2189 1 0.967986 0.59777 0.505564
1910 1 0.968984 0.609626 0.505659
1978 1 0.992209 0.592618 0.504416
2262 1 0.978748 0.603432 0.50614
1828 1 0.989534 0.605547 0.504105
4769 1 0.598483 0.614816 0.50027
4495 1 0.628432 0.629839 0.499986
4496 1 0.664251 0.630758 0.500245
4581 1 0.687952 0.632944 0.501004
4573 1 0.696683 0.623351 0.501985
4510 1 0.700319 0.636709 0.503533
4580 1 0.722787 0.623548 0.504209
4651 1 0.713193 0.618645 0.502183
4724 1 0.711067 0.630004 0.502506
4522 1 0.743587 0.623084 0.502725
4524 1 0.744577 0.635517 0.50335
4586 1 0.732594 0.630534 0.50314
4662 1 0.732477 0.617771 0.502817
4530 1 0.755263 0.615339 0.502597
4670 1 0.765729 0.621451 0.503674
4602 1 0.765043 0.633837 0.50433
4667 1 0.754192 0.627489 0.503793
4454 1 0.773868 0.615565 0.50435
4665 1 0.775757 0.627616 0.504918
4600 1 0.785675 0.61989 0.505439
4601 1 0.788937 0.632308 0.505551
4684 1 0.798106 0.626932 0.504191
4681 1 0.795322 0.614466 0.504343
4741 1 0.808411 0.632886 0.504277
4678 1 0.80688 0.618783 0.504073
4540 1 0.818823 0.625835 0.505082
4682 1 0.839334 0.623233 0.504151
4617 1 0.830573 0.630878 0.504617
4610 1 0.827986 0.618143 0.505301
4620 1 0.840253 0.635494 0.503516
4680 1 0.85063 0.628327 0.502374
4825 1 0.860773 0.620857 0.501142
4967 1 0.8498 0.616978 0.503139
4821 1 0.860638 0.633288 0.502804
1895 1 0.87151 0.627466 0.502538
4760 1 0.881057 0.619675 0.501732
4899 1 0.8703 0.614933 0.502003
1894 1 0.882109 0.6317 0.504045
1760 1 0.9024 0.619985 0.504519
4830 1 0.892588 0.613814 0.502276
1964 1 0.892127 0.62569 0.502918
1965 1 0.902868 0.63311 0.504063
2033 1 0.912724 0.615573 0.505281
2106 1 0.912747 0.626784 0.504709
2040 1 0.924076 0.633958 0.506328
4968 1 0.923671 0.621583 0.504928
2050 1 0.934868 0.614182 0.505977
2255 1 0.935864 0.626966 0.506319
2043 1 0.946112 0.62101 0.505896
1902 1 0.944942 0.632839 0.506924
2049 1 0.957307 0.615775 0.506104
2183 1 0.956529 0.627568 0.507372
2120 1 0.968436 0.621828 0.506789
2051 1 0.975467 0.631387 0.506664
1901 1 0.98307 0.615114 0.506717
2054 1 0.993744 0.621192 0.503402
4773 1 0.608836 0.637252 0.499055
4360 1 0.64709 0.64148 0.499549
4578 1 0.6976 0.656877 0.499401
4725 1 0.702061 0.64854 0.503887
4634 1 0.680711 0.643219 0.499327
4577 1 0.686408 0.656956 0.501137
4579 1 0.722102 0.636207 0.503836
4509 1 0.711179 0.642819 0.501629
4591 1 0.722698 0.647669 0.502859
4585 1 0.711573 0.655541 0.501041
4668 1 0.735581 0.654437 0.502329
4666 1 0.734312 0.642841 0.50366
4587 1 0.746139 0.647398 0.503828
4604 1 0.746721 0.658698 0.50347
4733 1 0.755979 0.641025 0.502995
4740 1 0.756742 0.653212 0.503402
4737 1 0.765967 0.646149 0.505058
4743 1 0.767555 0.658169 0.504859
4734 1 0.777149 0.653233 0.504543
4674 1 0.785148 0.643932 0.503293
4739 1 0.774912 0.640193 0.505856
4671 1 0.795358 0.650273 0.504236
4746 1 0.799768 0.640302 0.503736
4953 1 0.808912 0.649547 0.503548
5023 1 0.82122 0.650709 0.504286
4748 1 0.820143 0.638005 0.504439
4815 1 0.830975 0.642658 0.504118
4675 1 0.829144 0.656367 0.503596
4676 1 0.842044 0.648509 0.504171
4897 1 0.850349 0.640583 0.503543
4822 1 0.851216 0.652943 0.50431
5032 1 0.860873 0.644704 0.503006
2032 1 0.862221 0.658263 0.503408
2031 1 0.882643 0.643752 0.503896
1961 1 0.871835 0.639356 0.503795
4961 1 0.871434 0.651177 0.502796
4827 1 0.882284 0.658963 0.503452
4756 1 0.893278 0.638181 0.502616
1962 1 0.89203 0.653522 0.503567
2104 1 0.902235 0.645681 0.504919
2114 1 0.903894 0.657416 0.504567
2036 1 0.915281 0.650849 0.504831
2044 1 0.913115 0.639168 0.504126
2405 1 0.926855 0.648414 0.50431
2188 1 0.925267 0.661803 0.505271
1974 1 0.936318 0.655434 0.504471
2184 1 0.934842 0.639292 0.506473
1976 1 0.944613 0.646282 0.505869
2260 1 0.957248 0.639757 0.506021
2329 1 0.967218 0.643353 0.507072
2185 1 0.955751 0.655589 0.506141
4720 1 0.703146 0.66647 0.500947
4735 1 0.724314 0.659067 0.501401
4594 1 0.714518 0.667402 0.500953
4654 1 0.720847 0.678947 0.501666
4799 1 0.708307 0.677453 0.499876
4595 1 0.741027 0.668127 0.50216
4877 1 0.728281 0.669215 0.501104
4806 1 0.73425 0.678186 0.502316
4592 1 0.747361 0.680758 0.50289
4738 1 0.752625 0.66838 0.504224
4872 1 0.764889 0.671561 0.503977
4673 1 0.787454 0.662387 0.504348
4808 1 0.775953 0.667264 0.504309
4729 1 0.784946 0.677109 0.502991
5019 1 0.795187 0.673019 0.503816
4672 1 0.799702 0.66077 0.504458
4669 1 0.8087 0.675101 0.504819
4957 1 0.81158 0.662575 0.504312
4750 1 0.819998 0.672065 0.505314
4677 1 0.829377 0.666881 0.504278
4754 1 0.832031 0.678758 0.505843
4819 1 0.839893 0.661242 0.503615
4820 1 0.841106 0.673871 0.503934
2103 1 0.852373 0.66555 0.504504
4900 1 0.852155 0.67843 0.505655
2035 1 0.861177 0.673391 0.503268
2034 1 0.871314 0.665676 0.503952
2115 1 0.884144 0.671796 0.504535
5033 1 0.872042 0.679099 0.503247
2191 1 0.904957 0.670641 0.50518
2190 1 0.892758 0.664794 0.504653
2171 1 0.8941 0.677123 0.504621
1972 1 0.91414 0.662553 0.504506
2109 1 0.918067 0.676059 0.504606
5175 1 0.931405 0.673734 0.503317
2047 1 0.945257 0.663776 0.504825
2162 1 0.511226 0.701549 0.500239
1876 1 0.516742 0.692157 0.500117
2303 1 0.50532 0.690365 0.500064
2234 1 0.534226 0.704178 0.498926
4728 1 0.70575 0.699131 0.50084
4730 1 0.717953 0.700424 0.500688
4732 1 0.726145 0.690762 0.50204
4731 1 0.738129 0.690527 0.502255
4871 1 0.730327 0.702158 0.501061
4801 1 0.742311 0.700845 0.50148
4810 1 0.759502 0.682755 0.503838
4807 1 0.753411 0.703851 0.503558
4736 1 0.750201 0.692293 0.5019
4805 1 0.762594 0.69459 0.50345
4809 1 0.771485 0.683844 0.504534
4744 1 0.782794 0.687703 0.504707
4884 1 0.774968 0.696313 0.504273
4956 1 0.78753 0.698005 0.504815
4895 1 0.797447 0.683626 0.505038
4752 1 0.808787 0.688176 0.504464
4892 1 0.812232 0.698323 0.504189
4891 1 0.799822 0.695437 0.504273
4749 1 0.821383 0.686734 0.504048
4814 1 0.827306 0.698617 0.503856
5031 1 0.839681 0.699406 0.503792
4824 1 0.839975 0.68862 0.504363
4898 1 0.850694 0.691013 0.50362
5034 1 0.85395 0.702067 0.504108
4964 1 0.861687 0.686296 0.503651
5104 1 0.865832 0.701233 0.503695
2107 1 0.874995 0.691354 0.504024
2110 1 0.885008 0.686268 0.503831
4890 1 0.888337 0.698447 0.504466
2177 1 0.897405 0.689451 0.503391
2108 1 0.907328 0.681439 0.503479
2259 1 0.901804 0.704624 0.503807
2113 1 0.911185 0.694216 0.503647
2122 1 0.926188 0.692797 0.504263
2018 1 0.505875 0.711355 0.500528
2015 1 0.511071 0.722385 0.500505
2299 1 0.522725 0.725172 0.499784
2235 1 0.534286 0.726499 0.499988
2231 1 0.540515 0.716656 0.499878
1950 1 0.560071 0.707464 0.499412
4870 1 0.704243 0.72105 0.49981
4795 1 0.699574 0.710822 0.499903
4793 1 0.717147 0.721491 0.500871
4947 1 0.722243 0.712223 0.501466
4800 1 0.733919 0.713548 0.501152
5021 1 0.741591 0.724294 0.501291
4875 1 0.728557 0.723505 0.502159
4653 1 0.747134 0.713515 0.501573
4949 1 0.755292 0.724382 0.501164
4879 1 0.768545 0.706076 0.502264
4880 1 0.760953 0.714655 0.502685
5013 1 0.76658 0.727242 0.502665
4813 1 0.791526 0.710351 0.50393
4742 1 0.785505 0.720249 0.503804
4803 1 0.772931 0.717322 0.502457
4954 1 0.780125 0.70822 0.503285
4886 1 0.798801 0.721851 0.503344
4955 1 0.804152 0.706751 0.506144
5097 1 0.80979 0.718608 0.5035
4893 1 0.818974 0.708843 0.503204
4747 1 0.820408 0.722684 0.50299
4889 1 0.832105 0.72367 0.502138
4888 1 0.831741 0.713124 0.503534
5030 1 0.854592 0.717493 0.502964
4828 1 0.844111 0.7244 0.503113
5028 1 0.844374 0.711117 0.503944
4816 1 0.862308 0.727336 0.502834
5038 1 0.878168 0.704497 0.505184
4962 1 0.867514 0.715155 0.504331
5174 1 0.879171 0.720196 0.503987
2117 1 0.88926 0.710802 0.504204
2254 1 0.905358 0.719092 0.503851
4965 1 0.892012 0.72418 0.504331
2327 1 0.914717 0.707729 0.501939
2306 1 0.507114 0.744557 0.502479
2166 1 0.514171 0.733804 0.500946
2163 1 0.518236 0.746348 0.501875
2301 1 0.502475 0.733086 0.500172
2026 1 0.525211 0.736002 0.500646
2169 1 0.531704 0.745186 0.499078
4779 1 0.605141 0.735227 0.499824
4915 1 0.623067 0.7469 0.499087
4928 1 0.702307 0.743053 0.500331
4792 1 0.69134 0.741509 0.499973
4873 1 0.710388 0.731797 0.50069
4948 1 0.715131 0.74336 0.500155
4649 1 0.722268 0.733508 0.501952
4723 1 0.728274 0.744804 0.501066
4882 1 0.741047 0.745129 0.500874
5011 1 0.73513 0.735539 0.501839
5010 1 0.747357 0.734265 0.50182
4950 1 0.764524 0.746281 0.501605
4940 1 0.758481 0.735691 0.502446
4942 1 0.751516 0.746569 0.502091
4878 1 0.771355 0.738094 0.501821
4952 1 0.778707 0.728755 0.502655
4876 1 0.789994 0.729754 0.503087
5015 1 0.783075 0.740503 0.501626
5087 1 0.777126 0.750468 0.502277
5020 1 0.801668 0.732705 0.502365
5094 1 0.808337 0.742211 0.502909
4951 1 0.795795 0.74165 0.502738
5233 1 0.814355 0.731608 0.502615
4745 1 0.819824 0.742781 0.501404
4826 1 0.826743 0.734304 0.502117
5093 1 0.834917 0.74396 0.502304
5027 1 0.838383 0.733947 0.502687
2112 1 0.851155 0.734072 0.501691
5024 1 0.846399 0.744129 0.50212
4887 1 0.857122 0.743609 0.501189
4960 1 0.874014 0.731521 0.501788
5029 1 0.86956 0.742085 0.500837
5035 1 0.883993 0.741264 0.501748
4966 1 0.900544 0.749736 0.50201
2179 1 0.894179 0.735645 0.502418
5103 1 0.90855 0.734073 0.503201
4972 1 0.499429 0.753816 0.502196
2093 1 0.518024 0.767543 0.501325
2165 1 0.505317 0.76657 0.502345
2300 1 0.510648 0.756572 0.501058
2094 1 0.523742 0.757441 0.500561
5115 1 0.530222 0.769041 0.50132
2095 1 0.534837 0.756174 0.499522
2099 1 0.541853 0.770005 0.500786
2100 1 0.555676 0.750686 0.499541
4910 1 0.583644 0.763682 0.500067
4905 1 0.610973 0.766413 0.500779
4917 1 0.601758 0.754662 0.499992
4839 1 0.589669 0.753986 0.499416
4919 1 0.627866 0.757909 0.499822
4783 1 0.65377 0.75945 0.499428
5000 1 0.646239 0.76957 0.500741
4852 1 0.641922 0.759068 0.500688
4930 1 0.702323 0.764491 0.498577
4716 1 0.68355 0.75312 0.500278
4802 1 0.709261 0.754791 0.501463
4869 1 0.713352 0.764752 0.499631
4945 1 0.720986 0.754628 0.499677
4938 1 0.725771 0.765464 0.500532
4863 1 0.732968 0.755661 0.501282
5081 1 0.744497 0.75711 0.501621
4941 1 0.738898 0.767281 0.50022
5016 1 0.750363 0.767695 0.500772
4881 1 0.757263 0.756525 0.501489
4883 1 0.768884 0.759966 0.50239
5017 1 0.762203 0.769041 0.500901
4943 1 0.790047 0.751316 0.503121
5159 1 0.780787 0.760437 0.503298
5155 1 0.773836 0.770515 0.501262
5012 1 0.786866 0.7703 0.502207
5163 1 0.811429 0.773784 0.501469
5167 1 0.798863 0.772459 0.502173
4811 1 0.795557 0.76149 0.502669
4958 1 0.815048 0.753392 0.502558
5165 1 0.803285 0.751637 0.502746
5092 1 0.807593 0.763262 0.501501
5230 1 0.819819 0.764531 0.501919
4894 1 0.839864 0.754571 0.501136
5173 1 0.831598 0.764739 0.501065
5164 1 0.827685 0.754135 0.501596
5090 1 0.851543 0.756612 0.500426
5171 1 0.857745 0.767627 0.500916
4963 1 0.86388 0.754779 0.499702
5162 1 0.877331 0.75186 0.50102
5025 1 0.870838 0.766912 0.500077
5095 1 0.882143 0.766642 0.499895
5022 1 0.898375 0.767828 0.502821
4970 1 0.888812 0.756077 0.499733
2240 1 0.518308 0.787858 0.503204
2361 1 0.505271 0.787572 0.503572
2435 1 0.510514 0.777957 0.50273
2168 1 0.523221 0.77822 0.502793
4903 1 0.541855 0.79225 0.500677
2309 1 0.528804 0.79012 0.501632
2237 1 0.534711 0.780143 0.500394
5051 1 0.560278 0.783031 0.500577
4982 1 0.563569 0.795687 0.499883
4901 1 0.55291 0.792672 0.501409
5044 1 0.565998 0.772014 0.500265
4907 1 0.588224 0.775498 0.50014
5047 1 0.570823 0.784734 0.500291
4971 1 0.582035 0.785815 0.499706
4913 1 0.595765 0.785661 0.499681
4838 1 0.601129 0.774435 0.499817
5128 1 0.606669 0.785502 0.50003
4922 1 0.613441 0.77632 0.500693
4991 1 0.631625 0.790265 0.501107
4911 1 0.619312 0.788096 0.499448
4784 1 0.626671 0.778724 0.499779
5143 1 0.644055 0.792603 0.500823
4855 1 0.651384 0.782099 0.500302
4925 1 0.639833 0.780428 0.501239
4860 1 0.668872 0.792509 0.500205
4862 1 0.664633 0.781448 0.50058
4994 1 0.670405 0.772114 0.501678
5146 1 0.700519 0.78698 0.498877
4932 1 0.688779 0.786134 0.499632
5067 1 0.70754 0.775634 0.49962
4794 1 0.720876 0.775459 0.499482
4946 1 0.743469 0.777408 0.500185
4939 1 0.733081 0.776654 0.501249
5089 1 0.756493 0.778285 0.499985
5091 1 0.761359 0.789794 0.500289
5018 1 0.768976 0.780122 0.500763
5298 1 0.792035 0.783751 0.501332
5299 1 0.780449 0.780595 0.500887
5373 1 0.797107 0.792776 0.499284
5166 1 0.817092 0.783757 0.500448
5235 1 0.80393 0.783351 0.50135
5026 1 0.825766 0.774317 0.499828
4896 1 0.837715 0.77745 0.499972
2314 1 0.861544 0.778468 0.500647
2116 1 0.855014 0.789362 0.502276
5099 1 0.849721 0.777532 0.501287
2182 1 0.867184 0.789875 0.500427
5036 1 0.879934 0.791242 0.500838
4969 1 0.874543 0.78038 0.502076
2118 1 0.892142 0.79185 0.500166
5037 1 0.887297 0.780719 0.50189
2180 1 0.902897 0.785295 0.503972
2359 1 0.515792 0.811328 0.503795
2310 1 0.521311 0.800365 0.502369
2445 1 0.511574 0.799883 0.504476
2370 1 0.504569 0.809263 0.504385
2239 1 0.533348 0.800551 0.501339
2447 1 0.537965 0.812065 0.501023
2308 1 0.527403 0.812478 0.502838
5045 1 0.556618 0.805525 0.501916
2092 1 0.544472 0.802944 0.501876
5327 1 0.550175 0.8135 0.500722
5049 1 0.575822 0.795714 0.500452
4912 1 0.588863 0.795354 0.501035
4902 1 0.581981 0.806002 0.499813
4988 1 0.609876 0.817973 0.500116
4914 1 0.612671 0.797237 0.500915
4979 1 0.593167 0.807619 0.49985
4987 1 0.605518 0.805716 0.500197
4995 1 0.624535 0.800164 0.501347
5052 1 0.62942 0.811874 0.500955
4984 1 0.617428 0.810016 0.502206
5064 1 0.654102 0.813909 0.499455
4786 1 0.641561 0.814007 0.500449
5065 1 0.647801 0.803595 0.500889
4853 1 0.63562 0.801403 0.501237
5145 1 0.677673 0.816383 0.499809
5069 1 0.660497 0.804082 0.500771
5160 1 0.790829 0.802395 0.499119
5169 1 0.833894 0.797022 0.500005
2248 1 0.85137 0.809652 0.499614
2315 1 0.859386 0.799082 0.500863
5039 1 0.872706 0.80043 0.499682
2173 1 0.875443 0.813623 0.500492
5040 1 0.885038 0.803009 0.500776
2250 1 0.896453 0.807761 0.502225
2101 1 0.888026 0.817659 0.501112
2378 1 0.509473 0.832488 0.503123
2374 1 0.518127 0.822657 0.502602
2366 1 0.505195 0.820983 0.502498
5043 1 0.531511 0.823599 0.500429
2430 1 0.524192 0.833678 0.501834
4834 1 0.5423 0.822657 0.500495
5042 1 0.553564 0.82428 0.500425
5046 1 0.549073 0.835733 0.500288
5041 1 0.567215 0.826663 0.500675
5183 1 0.574679 0.836954 0.50014
4924 1 0.604815 0.828705 0.50081
5060 1 0.629175 0.834119 0.499778
4920 1 0.622727 0.821777 0.500624
4989 1 0.641316 0.836505 0.499515
5014 1 0.745108 0.830638 0.498756
5179 1 0.857402 0.821245 0.499713
5241 1 0.847505 0.831401 0.501248
2251 1 0.873829 0.835851 0.501113
2181 1 0.884989 0.829081 0.501525
2325 1 0.899833 0.825349 0.502625
2257 1 0.902884 0.841096 0.500976
2409 1 0.507103 0.853971 0.499384
2272 1 0.513761 0.842832 0.500416
2432 1 0.500342 0.843068 0.501257
2502 1 0.52936 0.844852 0.500559
5186 1 0.560377 0.857007 0.499791
5328 1 0.572266 0.85982 0.500016
5259 1 0.578601 0.848297 0.500133
5121 1 0.602325 0.854653 0.499995
5059 1 0.599808 0.840689 0.500641
4993 1 0.633695 0.845642 0.500923
5057 1 0.628026 0.857296 0.500672
5111 1 0.616322 0.85599 0.500583
5068 1 0.638522 0.857287 0.501402
5129 1 0.649951 0.858348 0.501649
5132 1 0.657699 0.848306 0.501052
5066 1 0.646865 0.84729 0.500043
5138 1 0.670522 0.849742 0.500305
5352 1 0.701306 0.860273 0.498766
2175 1 0.853236 0.84231 0.500845
2258 1 0.882851 0.856453 0.501224
2174 1 0.870985 0.856971 0.500456
2242 1 0.890702 0.842473 0.500802
2249 1 0.894706 0.856332 0.502472
2564 1 0.512357 0.884792 0.499791
2448 1 0.568807 0.882643 0.500061
5323 1 0.57546 0.872777 0.50068
2589 1 0.579856 0.884571 0.500099
5050 1 0.587634 0.874323 0.500531
5185 1 0.611232 0.877811 0.501161
4986 1 0.591497 0.88608 0.501057
5258 1 0.598762 0.877812 0.500342
5056 1 0.595445 0.865851 0.500088
5053 1 0.607284 0.865281 0.499736
5193 1 0.622102 0.877835 0.500373
5123 1 0.634884 0.879258 0.500103
4985 1 0.619437 0.867227 0.501134
5134 1 0.630731 0.869287 0.502427
5054 1 0.642331 0.869022 0.501063
5208 1 0.660624 0.87903 0.49977
2172 1 0.899315 0.878226 0.501572
2313 1 0.906808 0.866907 0.503504
2322 1 0.886724 0.869017 0.502338
5381 1 0.912323 0.883185 0.502203
2379 1 0.561587 0.892911 0.499759
5321 1 0.585181 0.894715 0.4997
5196 1 0.610386 0.899272 0.500286
5114 1 0.603623 0.888142 0.501076
5257 1 0.623196 0.900498 0.500799
5195 1 0.634334 0.898934 0.499812
5137 1 0.62828 0.888078 0.500444
5125 1 0.616672 0.890069 0.500181
5139 1 0.655543 0.889547 0.50054
5135 1 0.641298 0.889461 0.501009
5347 1 0.668073 0.889523 0.501276
5456 1 0.841697 0.896448 0.500167
5400 1 0.534828 0.984812 0.500021
