ITEM: TIMESTEP
399800
ITEM: NUMBER OF ATOMS
5600
ITEM: BOX BOUNDS pp pp pp
-3.3284999999999989e+01 3.3284999999999989e+01
-3.2943606359959993e+01 3.2943606359959993e+01
-5.7059999999999988e+01 5.7059999999999988e+01
ITEM: ATOMS id type xs ys zs
3570 1 0.00472464 0.250605 0.416372
771 1 0.0138108 0.264605 0.417851
3710 1 0.0113344 0.309411 0.418187
3779 1 0.00491945 0.322323 0.417141
3780 1 0.0152501 0.336279 0.417172
3849 1 0.0100054 0.350133 0.418089
564 1 0.0296357 0.194646 0.427788
562 1 0.0127413 0.19644 0.426201
631 1 0.00686439 0.210102 0.422712
633 1 0.022585 0.206408 0.423353
635 1 0.0392972 0.205394 0.424822
638 1 0.065889 0.213759 0.426252
637 1 0.055548 0.201556 0.426957
3500 1 0.00159033 0.225217 0.420786
632 1 0.0186022 0.221914 0.42112
634 1 0.033024 0.219624 0.42118
636 1 0.0498769 0.215728 0.42326
705 1 0.0408273 0.230574 0.420816
707 1 0.0578294 0.229191 0.424134
709 1 0.0733221 0.227158 0.428513
701 1 0.0108422 0.237271 0.420592
702 1 0.0208935 0.248902 0.419795
703 1 0.0251045 0.234275 0.420133
704 1 0.0363678 0.247957 0.420614
706 1 0.050352 0.242895 0.424766
708 1 0.0666685 0.241791 0.426991
773 1 0.0289995 0.263792 0.422455
775 1 0.0452013 0.258866 0.424186
777 1 0.0595924 0.257016 0.426967
779 1 0.0764765 0.255045 0.428182
3640 1 0.00542134 0.278656 0.419683
772 1 0.0234882 0.276702 0.420013
774 1 0.0388226 0.275897 0.422512
776 1 0.0540164 0.271828 0.425637
778 1 0.070916 0.271049 0.427377
841 1 0.0168362 0.291949 0.418773
3709 1 0.002299 0.296233 0.418468
843 1 0.0321031 0.288972 0.422115
845 1 0.0485711 0.286445 0.424429
844 1 0.0407896 0.301099 0.423466
847 1 0.0635306 0.285861 0.427326
846 1 0.0580765 0.299519 0.425478
842 1 0.025315 0.303976 0.421612
911 1 0.0190924 0.319313 0.420425
913 1 0.0357094 0.315543 0.422143
915 1 0.0505162 0.313628 0.424414
917 1 0.0647827 0.313296 0.428277
912 1 0.0302602 0.330109 0.420706
914 1 0.0475345 0.328906 0.421815
916 1 0.0607329 0.327349 0.425837
981 1 0.0265438 0.347609 0.418879
983 1 0.0417761 0.343624 0.420031
985 1 0.0552336 0.344177 0.423116
987 1 0.0682395 0.342076 0.426356
3850 1 0.0177653 0.363238 0.419147
3848 1 8.73087e-05 0.364431 0.418546
982 1 0.0354938 0.360029 0.419192
984 1 0.0486542 0.359327 0.421423
1053 1 0.0415454 0.372877 0.420598
986 1 0.0610246 0.358418 0.42557
1055 1 0.0565478 0.373394 0.421857
1057 1 0.0727273 0.370452 0.426055
3919 1 0.0106633 0.37615 0.419434
3918 1 0.00398042 0.391272 0.422145
1051 1 0.0272728 0.375796 0.421102
3920 1 0.0192235 0.388628 0.421596
1052 1 0.0358179 0.389324 0.420242
1054 1 0.0498489 0.388571 0.421163
1056 1 0.0654489 0.385361 0.425236
1058 1 0.0803199 0.384368 0.428192
3989 1 0.0133563 0.403517 0.42619
1121 1 0.0298061 0.40286 0.423521
1123 1 0.0455551 0.402804 0.424046
1125 1 0.0622982 0.399485 0.42494
1127 1 0.0783758 0.39873 0.427491
3990 1 0.0242244 0.414795 0.427941
1122 1 0.0405106 0.41495 0.42687
1124 1 0.0570404 0.414158 0.425826
1195 1 0.0632698 0.425526 0.42698
1126 1 0.0729556 0.413819 0.425489
1197 1 0.0805473 0.424685 0.428438
492 1 0.00763311 0.171991 0.43342
494 1 0.025533 0.169097 0.43454
496 1 0.0384157 0.166229 0.437128
500 1 0.0707863 0.160787 0.437924
498 1 0.0549094 0.161578 0.436978
569 1 0.0642003 0.175003 0.435539
571 1 0.0809454 0.171733 0.435583
561 1 0.00277606 0.186553 0.429975
563 1 0.0172744 0.183411 0.43072
566 1 0.0461752 0.192726 0.429766
567 1 0.0506161 0.17875 0.434457
565 1 0.035911 0.1799 0.431275
568 1 0.0599666 0.191161 0.432143
570 1 0.0739249 0.186733 0.4343
572 1 0.0910483 0.184563 0.433752
574 1 0.106107 0.183061 0.4381
643 1 0.0993162 0.195548 0.43505
639 1 0.0695781 0.201497 0.432676
641 1 0.08271 0.198435 0.432999
642 1 0.093728 0.211283 0.432527
644 1 0.108881 0.209504 0.437537
640 1 0.0790847 0.214732 0.430395
711 1 0.0874991 0.226243 0.4328
713 1 0.103611 0.224204 0.435035
710 1 0.0827392 0.239495 0.429761
712 1 0.0979049 0.237934 0.432955
714 1 0.11037 0.240199 0.438196
781 1 0.0908698 0.252991 0.432535
783 1 0.104241 0.253658 0.436767
780 1 0.0870592 0.269731 0.429639
849 1 0.0797211 0.284545 0.429067
851 1 0.0910958 0.284373 0.433273
782 1 0.0996614 0.268652 0.433905
848 1 0.0714705 0.298042 0.429114
850 1 0.0842551 0.29856 0.43373
852 1 0.0976428 0.29564 0.438678
919 1 0.077413 0.312043 0.432365
921 1 0.0917943 0.311266 0.436589
918 1 0.0740352 0.327768 0.430023
920 1 0.0842944 0.3275 0.435089
989 1 0.0815638 0.34237 0.43148
988 1 0.0764542 0.35543 0.429454
990 1 0.0896814 0.356569 0.435448
1059 1 0.0856759 0.369394 0.430861
1061 1 0.0991509 0.368058 0.437379
1060 1 0.0939475 0.382948 0.434041
1129 1 0.092233 0.396895 0.430274
1130 1 0.100157 0.410589 0.433152
1131 1 0.104771 0.395066 0.435984
3988 1 0.00671422 0.416002 0.430371
4059 1 0.0173721 0.427081 0.431539
1191 1 0.0322241 0.425147 0.4313
1193 1 0.0488176 0.42744 0.430125
1128 1 0.0873755 0.411991 0.429513
1199 1 0.095921 0.427064 0.432886
4058 1 0.0118967 0.438313 0.436986
4057 1 0.000288132 0.429509 0.434308
4060 1 0.0257062 0.438217 0.434227
1192 1 0.0412724 0.438353 0.433706
1194 1 0.0573225 0.440099 0.432213
1196 1 0.0718142 0.440113 0.430614
1198 1 0.0883447 0.438169 0.431575
1200 1 0.104854 0.437957 0.435388
1261 1 0.0351693 0.451708 0.437475
1263 1 0.0492535 0.453264 0.435741
1265 1 0.0663236 0.454671 0.4335
1267 1 0.0808575 0.453684 0.433656
1269 1 0.0976054 0.451586 0.435171
1271 1 0.11336 0.451129 0.438333
1262 1 0.043106 0.46809 0.438232
1264 1 0.0602427 0.466995 0.437385
1266 1 0.0755766 0.469592 0.435601
1337 1 0.0845775 0.480305 0.43662
1268 1 0.0921582 0.465175 0.436957
1270 1 0.107254 0.4666 0.436845
428 1 0.0469981 0.140591 0.446037
430 1 0.0641821 0.135773 0.44495
432 1 0.0813699 0.13051 0.444887
434 1 0.0965435 0.128257 0.446987
505 1 0.106077 0.141937 0.445756
507 1 0.123288 0.141341 0.448062
509 1 0.138262 0.138714 0.448713
422 1 0.00468289 0.152594 0.445182
495 1 0.0291498 0.156947 0.43991
426 1 0.0340604 0.144673 0.446812
424 1 0.0193299 0.148593 0.445396
497 1 0.0433659 0.155502 0.441771
499 1 0.059409 0.148848 0.441386
501 1 0.076836 0.146307 0.441495
502 1 0.0862382 0.158444 0.438907
503 1 0.0912033 0.144211 0.443158
504 1 0.102771 0.154384 0.441198
506 1 0.118581 0.154743 0.443817
508 1 0.133298 0.152812 0.445522
493 1 0.0138505 0.161978 0.439563
573 1 0.0977885 0.171182 0.439
575 1 0.112004 0.168691 0.440917
577 1 0.12626 0.166797 0.443416
579 1 0.141709 0.166528 0.447383
576 1 0.120198 0.180843 0.441897
645 1 0.113657 0.196365 0.440114
578 1 0.136879 0.180762 0.444662
647 1 0.12782 0.194258 0.444049
649 1 0.142744 0.195876 0.448321
646 1 0.123464 0.210988 0.442254
648 1 0.134513 0.20984 0.447285
715 1 0.116173 0.225691 0.439768
717 1 0.128618 0.222548 0.445612
716 1 0.122101 0.238863 0.444216
785 1 0.117712 0.254133 0.440807
787 1 0.129222 0.253406 0.448676
853 1 0.104068 0.282555 0.440032
784 1 0.108693 0.268846 0.441408
786 1 0.122194 0.267893 0.446684
855 1 0.116669 0.281958 0.445012
854 1 0.108443 0.29697 0.444093
923 1 0.102203 0.311189 0.443191
922 1 0.0976075 0.326551 0.441498
924 1 0.107803 0.323981 0.448711
991 1 0.092588 0.339339 0.438837
993 1 0.10534 0.339808 0.446484
992 1 0.100816 0.35274 0.442568
1063 1 0.106903 0.369155 0.445902
1062 1 0.105729 0.384343 0.440944
1133 1 0.115994 0.395136 0.444324
1132 1 0.112054 0.40851 0.440292
1134 1 0.123022 0.409883 0.448858
1201 1 0.107933 0.423044 0.439638
1203 1 0.119256 0.422083 0.445713
1202 1 0.114499 0.438035 0.442742
1204 1 0.128193 0.436588 0.446278
4127 1 0.00277487 0.453285 0.439899
4129 1 0.0198505 0.45313 0.439122
1273 1 0.125734 0.4495 0.442849
4128 1 0.0128219 0.466075 0.443388
4130 1 0.0281289 0.46618 0.442535
4199 1 0.0218808 0.480055 0.446737
1331 1 0.0374035 0.479749 0.444364
1333 1 0.0542966 0.480095 0.4416
1335 1 0.0686063 0.480923 0.439597
1339 1 0.0991828 0.479877 0.439262
1272 1 0.121778 0.465262 0.440855
1341 1 0.114642 0.47801 0.441573
1274 1 0.134419 0.46461 0.444997
1343 1 0.131346 0.478339 0.443986
1345 1 0.142474 0.478674 0.448236
4200 1 0.0332642 0.493181 0.44784
1332 1 0.0471001 0.492727 0.446708
1334 1 0.0625045 0.491544 0.445061
1336 1 0.0780829 0.492589 0.442187
1338 1 0.0953842 0.494476 0.439845
1340 1 0.109511 0.493971 0.441965
1342 1 0.122932 0.492748 0.443351
1344 1 0.136217 0.491237 0.447638
366 1 0.108166 0.103871 0.456464
368 1 0.123075 0.0995472 0.456996
370 1 0.138994 0.0989087 0.458026
372 1 0.155593 0.0948304 0.458823
356 1 0.028712 0.122416 0.45408
355 1 0.01978 0.1155 0.459109
358 1 0.0437743 0.118334 0.455388
431 1 0.0712896 0.122155 0.450399
360 1 0.0604667 0.114139 0.456721
433 1 0.0863751 0.119933 0.45126
362 1 0.0770189 0.110556 0.457176
364 1 0.0942827 0.107898 0.456826
435 1 0.104479 0.12026 0.452464
437 1 0.119452 0.115753 0.453791
439 1 0.133551 0.112853 0.454721
441 1 0.14871 0.111818 0.455082
442 1 0.159511 0.124891 0.456432
443 1 0.162832 0.10782 0.458826
423 1 0.00778695 0.139904 0.450002
354 1 0.0111696 0.12563 0.453726
425 1 0.0231581 0.135569 0.451248
427 1 0.0389603 0.130204 0.448984
429 1 0.0543512 0.126162 0.45049
436 1 0.11352 0.131043 0.449813
438 1 0.127576 0.125838 0.44936
440 1 0.144487 0.12552 0.452262
511 1 0.151064 0.140033 0.453742
513 1 0.166859 0.137417 0.456378
510 1 0.147808 0.154157 0.449963
512 1 0.162202 0.152897 0.45618
581 1 0.155563 0.166257 0.45226
583 1 0.170379 0.166649 0.458091
580 1 0.149954 0.181676 0.450388
651 1 0.153676 0.195168 0.454358
582 1 0.161594 0.179758 0.457067
650 1 0.146886 0.20865 0.45272
719 1 0.140092 0.225355 0.451714
721 1 0.152418 0.222818 0.458234
718 1 0.134223 0.239074 0.450352
720 1 0.145764 0.238081 0.456269
788 1 0.136097 0.264982 0.452043
789 1 0.140211 0.250311 0.454969
790 1 0.146888 0.264284 0.458817
857 1 0.12658 0.279257 0.452777
859 1 0.139026 0.279386 0.458253
856 1 0.122448 0.295769 0.450268
858 1 0.133234 0.293236 0.456752
925 1 0.115486 0.307682 0.449514
927 1 0.127982 0.307394 0.455598
926 1 0.120734 0.323499 0.453055
995 1 0.115241 0.338812 0.452438
997 1 0.127547 0.337621 0.458363
928 1 0.13307 0.323547 0.459141
994 1 0.107391 0.354834 0.450641
996 1 0.121605 0.352841 0.45556
1065 1 0.115338 0.36865 0.454113
1064 1 0.112916 0.382402 0.450231
1066 1 0.122737 0.37941 0.457795
1135 1 0.124824 0.394282 0.452502
1136 1 0.131648 0.407202 0.456677
1205 1 0.130994 0.421614 0.451411
1206 1 0.137823 0.434265 0.454055
1275 1 0.136029 0.450896 0.449956
1276 1 0.142722 0.46258 0.451717
1277 1 0.147508 0.447425 0.45649
4197 1 0.0066125 0.477456 0.450299
1347 1 0.152897 0.474166 0.455021
4196 1 0.00256302 0.489896 0.455859
4198 1 0.0188203 0.490143 0.451457
1346 1 0.148842 0.491053 0.454217
294 1 0.0865473 0.0854023 0.467207
296 1 0.102507 0.0810577 0.466557
298 1 0.117521 0.0818251 0.468104
369 1 0.12904 0.085303 0.461291
300 1 0.132695 0.0739478 0.468157
371 1 0.143517 0.0860179 0.464355
373 1 0.158754 0.0837052 0.466079
375 1 0.176005 0.0806503 0.467667
377 1 0.190708 0.0774346 0.467959
284 1 0.00733609 0.107081 0.465171
286 1 0.0244856 0.103568 0.46492
359 1 0.0499152 0.10626 0.460833
288 1 0.0404798 0.0980256 0.46555
290 1 0.0574683 0.0962532 0.465821
361 1 0.0661802 0.103817 0.461069
292 1 0.0700349 0.0909828 0.466724
363 1 0.0821118 0.100329 0.462286
365 1 0.0983244 0.0947897 0.461538
367 1 0.11239 0.0898777 0.460575
374 1 0.169226 0.0939718 0.463345
376 1 0.183892 0.0934623 0.465044
447 1 0.19449 0.106593 0.464528
378 1 0.198637 0.0906185 0.467816
449 1 0.206245 0.104844 0.469233
353 1 0.00333324 0.118365 0.460304
357 1 0.0346152 0.110382 0.46021
444 1 0.173234 0.121988 0.459721
445 1 0.177916 0.107593 0.462579
446 1 0.187932 0.120647 0.463237
448 1 0.202714 0.120034 0.467259
515 1 0.183157 0.135465 0.459935
517 1 0.195193 0.133016 0.467603
514 1 0.175747 0.150563 0.459902
516 1 0.188658 0.147769 0.464603
585 1 0.18121 0.162462 0.46427
586 1 0.185043 0.177348 0.468665
653 1 0.16616 0.192894 0.460505
584 1 0.174155 0.178917 0.463651
655 1 0.176165 0.192535 0.467661
652 1 0.15879 0.207547 0.459761
654 1 0.169399 0.20596 0.466331
723 1 0.164229 0.221819 0.465606
722 1 0.158114 0.237326 0.463577
791 1 0.151793 0.249153 0.461293
724 1 0.169068 0.235679 0.469014
792 1 0.157703 0.262686 0.465597
793 1 0.164494 0.250359 0.468589
861 1 0.149455 0.277568 0.464886
860 1 0.146344 0.293688 0.462865
929 1 0.139885 0.306858 0.460862
931 1 0.14983 0.305878 0.467594
930 1 0.145703 0.319567 0.465272
999 1 0.139073 0.335309 0.463416
998 1 0.13121 0.349073 0.463209
1000 1 0.143905 0.347302 0.468107
1067 1 0.127132 0.363965 0.460365
1069 1 0.137419 0.362577 0.46692
1068 1 0.134155 0.375928 0.462637
1137 1 0.135283 0.390993 0.46061
1139 1 0.143031 0.389365 0.467228
1138 1 0.140495 0.404504 0.463376
1207 1 0.138569 0.418841 0.459556
1209 1 0.148288 0.417522 0.467112
1208 1 0.150216 0.43129 0.460875
1279 1 0.156394 0.444626 0.464877
1278 1 0.15221 0.459182 0.460029
1280 1 0.1615 0.460443 0.468271
1349 1 0.158186 0.473968 0.464974
1348 1 0.158434 0.485791 0.461367
1350 1 0.165418 0.487303 0.469221
307 1 0.18607 0.052895 0.477649
309 1 0.202387 0.0527212 0.478376
224 1 0.0803534 0.0681328 0.479167
226 1 0.0944216 0.0635011 0.479043
299 1 0.122329 0.0689322 0.474134
301 1 0.137734 0.0637936 0.474928
303 1 0.155105 0.0595586 0.476658
305 1 0.1712 0.0603921 0.477034
304 1 0.166103 0.0709412 0.471834
306 1 0.182996 0.0676531 0.471771
308 1 0.196775 0.0628737 0.472988
310 1 0.214576 0.0624851 0.474923
312 1 0.227135 0.0641299 0.47738
214 1 0.00456361 0.0867642 0.476643
216 1 0.0196043 0.0831788 0.476148
218 1 0.0345473 0.0831785 0.477534
220 1 0.0501239 0.0765425 0.478975
289 1 0.0462725 0.0881919 0.471714
222 1 0.0650883 0.0719396 0.478165
291 1 0.0599251 0.0830996 0.471887
293 1 0.0767863 0.0774212 0.4728
297 1 0.106498 0.0718436 0.473406
295 1 0.0921604 0.0730664 0.472766
302 1 0.150166 0.0718872 0.469634
379 1 0.207097 0.0761954 0.47199
381 1 0.223598 0.0748234 0.472251
383 1 0.236068 0.0755483 0.475455
385 1 0.251767 0.0786053 0.477464
285 1 0.0155446 0.0950918 0.470595
287 1 0.0291252 0.0937015 0.471098
382 1 0.230577 0.0904614 0.47236
380 1 0.21553 0.090036 0.469679
451 1 0.223435 0.102799 0.47129
384 1 0.240868 0.0893618 0.476517
453 1 0.236472 0.10536 0.475413
455 1 0.248858 0.104553 0.478192
386 1 0.255783 0.0915784 0.479457
450 1 0.213678 0.117451 0.472715
452 1 0.22887 0.119203 0.474584
519 1 0.206419 0.132834 0.472823
521 1 0.220814 0.132433 0.47589
518 1 0.198289 0.145593 0.471882
520 1 0.21162 0.147825 0.475984
587 1 0.192618 0.161724 0.470509
589 1 0.204858 0.161535 0.475377
588 1 0.197221 0.175143 0.474254
657 1 0.188356 0.190796 0.47348
612 1 0.364828 0.192433 0.477969
613 1 0.374936 0.180638 0.478779
615 1 0.391477 0.181717 0.479184
614 1 0.380657 0.194904 0.477304
656 1 0.180156 0.20697 0.472763
658 1 0.192587 0.20279 0.47835
683 1 0.370458 0.207836 0.477963
685 1 0.387079 0.211503 0.476869
616 1 0.396578 0.197288 0.47745
725 1 0.174628 0.220803 0.471152
727 1 0.186096 0.218696 0.477431
684 1 0.374277 0.224096 0.479073
686 1 0.390581 0.229321 0.478637
687 1 0.399666 0.217536 0.47819
795 1 0.173868 0.247846 0.475029
726 1 0.180335 0.234404 0.475569
755 1 0.379095 0.240406 0.478588
688 1 0.404858 0.233249 0.477273
757 1 0.394476 0.244338 0.477401
759 1 0.409201 0.248721 0.476126
690 1 0.421214 0.236381 0.47721
794 1 0.168796 0.26281 0.47349
756 1 0.383292 0.254495 0.478131
758 1 0.397535 0.260723 0.47568
760 1 0.412936 0.264845 0.476116
761 1 0.424544 0.252911 0.476593
763 1 0.44 0.255121 0.479577
863 1 0.161984 0.277404 0.471429
865 1 0.17212 0.275049 0.478601
827 1 0.386437 0.271292 0.479019
828 1 0.389214 0.285698 0.478855
829 1 0.400685 0.277774 0.476411
762 1 0.42789 0.268193 0.477487
831 1 0.416684 0.279541 0.47689
764 1 0.442514 0.273128 0.479364
862 1 0.154998 0.291033 0.470144
933 1 0.157917 0.302009 0.474214
864 1 0.165808 0.291071 0.476452
830 1 0.404381 0.291097 0.47636
832 1 0.421212 0.294859 0.476576
833 1 0.432245 0.28579 0.478684
834 1 0.436271 0.301419 0.477596
836 1 0.451584 0.303254 0.478103
835 1 0.446547 0.290467 0.478009
837 1 0.462566 0.293422 0.479488
932 1 0.155452 0.316616 0.473221
934 1 0.166547 0.31678 0.478799
901 1 0.409085 0.307308 0.47655
903 1 0.425812 0.31155 0.476016
905 1 0.440262 0.315787 0.476981
907 1 0.456644 0.318929 0.477936
838 1 0.467791 0.307648 0.478131
1001 1 0.149044 0.332185 0.469492
1003 1 0.16017 0.331324 0.477309
902 1 0.414762 0.323134 0.477943
904 1 0.430672 0.327319 0.475409
906 1 0.446343 0.330382 0.475482
908 1 0.460744 0.331284 0.475128
909 1 0.471813 0.322278 0.478463
910 1 0.4777 0.337256 0.475721
1002 1 0.151955 0.34508 0.475569
973 1 0.419851 0.33957 0.476406
974 1 0.424974 0.353057 0.479327
975 1 0.435187 0.343415 0.47545
977 1 0.449686 0.345571 0.475253
979 1 0.466216 0.348515 0.474596
3711 1 0.482838 0.354024 0.474692
3642 1 0.493249 0.340864 0.477465
3713 1 0.4983 0.354618 0.474601
1071 1 0.150746 0.359907 0.473476
1072 1 0.156021 0.372192 0.475789
976 1 0.440963 0.35757 0.477308
1047 1 0.445458 0.374239 0.477024
978 1 0.456938 0.361522 0.473996
980 1 0.472299 0.364417 0.473674
3712 1 0.489415 0.365233 0.471875
1070 1 0.146569 0.375263 0.469702
1141 1 0.152507 0.38909 0.473196
1049 1 0.461149 0.378624 0.474842
1048 1 0.451324 0.389713 0.477007
3781 1 0.476666 0.377682 0.471873
3784 1 0.497902 0.392669 0.470062
3783 1 0.493354 0.378574 0.470096
3782 1 0.482859 0.392578 0.471904
1140 1 0.152151 0.404115 0.470581
1142 1 0.161525 0.400847 0.477122
1119 1 0.458729 0.404947 0.478031
1050 1 0.467711 0.393343 0.473469
3851 1 0.474808 0.406334 0.475355
3853 1 0.486876 0.406794 0.471681
1211 1 0.157956 0.416986 0.474287
3852 1 0.480932 0.41952 0.475072
3854 1 0.494185 0.42222 0.47344
1210 1 0.15692 0.430137 0.4698
1212 1 0.165149 0.431077 0.478627
1281 1 0.163852 0.445075 0.472953
3923 1 0.489076 0.432485 0.477974
1282 1 0.170915 0.456679 0.476264
1351 1 0.167411 0.472742 0.471897
1352 1 0.173426 0.484885 0.477815
229 1 0.11469 0.0515057 0.485473
231 1 0.132482 0.0488038 0.487472
233 1 0.147063 0.0440999 0.488781
234 1 0.160331 0.0501603 0.482626
236 1 0.175505 0.0493461 0.484542
235 1 0.165305 0.0419664 0.488976
238 1 0.191413 0.0440341 0.484624
240 1 0.207681 0.0445596 0.485991
311 1 0.219025 0.051092 0.480935
242 1 0.224011 0.0398061 0.487651
313 1 0.233898 0.0517337 0.482417
315 1 0.248455 0.0534625 0.48508
146 1 0.0161872 0.063272 0.48845
144 1 0.000784375 0.0651394 0.487828
148 1 0.0306134 0.0624043 0.489633
221 1 0.0540984 0.0635789 0.483507
223 1 0.0696788 0.061455 0.485425
225 1 0.0839984 0.0540299 0.484713
227 1 0.0983443 0.0538049 0.485976
228 1 0.110395 0.0609604 0.480521
230 1 0.127053 0.0590712 0.480048
232 1 0.144043 0.054982 0.481014
314 1 0.242911 0.0643013 0.480209
316 1 0.257404 0.065546 0.48174
317 1 0.264293 0.0553715 0.487854
318 1 0.271747 0.0677819 0.483942
320 1 0.286509 0.0700975 0.488545
215 1 0.0103171 0.0727811 0.48232
217 1 0.0247518 0.0717845 0.482899
219 1 0.0399175 0.0717049 0.484527
387 1 0.265016 0.0815451 0.483148
389 1 0.280259 0.0820792 0.48441
391 1 0.29574 0.0835829 0.486403
457 1 0.2641 0.107036 0.481086
388 1 0.272193 0.0960405 0.482399
390 1 0.289064 0.0931169 0.484006
392 1 0.304775 0.0969532 0.48507
394 1 0.318834 0.0997693 0.485467
397 1 0.334882 0.100435 0.487025
398 1 0.352063 0.105163 0.488798
454 1 0.240463 0.12015 0.480284
456 1 0.257564 0.119207 0.48121
459 1 0.280266 0.108083 0.482108
458 1 0.270653 0.122844 0.482792
460 1 0.284076 0.122774 0.483518
461 1 0.292699 0.10857 0.482911
462 1 0.299054 0.120982 0.483288
463 1 0.309133 0.110272 0.484129
465 1 0.315008 0.123244 0.483262
396 1 0.324789 0.112077 0.483189
467 1 0.341647 0.114628 0.484953
469 1 0.354751 0.120892 0.486748
471 1 0.370979 0.123201 0.488534
523 1 0.231956 0.131765 0.480127
525 1 0.248456 0.13074 0.48292
527 1 0.260898 0.135545 0.484712
529 1 0.276289 0.136528 0.486019
531 1 0.292553 0.137487 0.485155
464 1 0.305203 0.131983 0.482554
535 1 0.319524 0.138427 0.485018
466 1 0.331435 0.125569 0.482882
537 1 0.336389 0.142253 0.484273
468 1 0.345751 0.130454 0.483804
470 1 0.362471 0.136476 0.484342
472 1 0.376376 0.139224 0.486069
522 1 0.22485 0.144844 0.480893
593 1 0.229452 0.158354 0.48726
524 1 0.238281 0.144297 0.486517
526 1 0.25014 0.143318 0.488562
530 1 0.283223 0.14921 0.489375
532 1 0.297796 0.153061 0.489128
534 1 0.31291 0.1545 0.488353
533 1 0.306261 0.144718 0.48528
536 1 0.326165 0.154528 0.485872
539 1 0.350852 0.146526 0.483617
538 1 0.3401 0.156859 0.482664
541 1 0.368105 0.150937 0.482425
543 1 0.382688 0.153361 0.484369
474 1 0.392223 0.144338 0.489101
545 1 0.394755 0.157842 0.486407
590 1 0.208146 0.173771 0.481594
591 1 0.218087 0.160984 0.481911
592 1 0.220235 0.172135 0.486422
607 1 0.332861 0.170987 0.486108
540 1 0.356518 0.161456 0.482001
609 1 0.345696 0.174329 0.483327
611 1 0.360768 0.177263 0.480841
542 1 0.369969 0.164602 0.481815
544 1 0.38435 0.168733 0.482366
546 1 0.400193 0.174158 0.484851
547 1 0.408139 0.164832 0.489185
659 1 0.199893 0.188338 0.480321
661 1 0.211755 0.185099 0.48825
608 1 0.335782 0.186947 0.485721
610 1 0.349515 0.190332 0.481794
617 1 0.40596 0.189464 0.481885
548 1 0.41386 0.1791 0.48723
619 1 0.419361 0.193957 0.48391
550 1 0.430211 0.184517 0.489719
660 1 0.203771 0.199593 0.486549
679 1 0.341404 0.201665 0.486709
681 1 0.355124 0.205158 0.48113
618 1 0.407857 0.205023 0.479791
620 1 0.423808 0.209227 0.483395
621 1 0.434984 0.198339 0.488261
728 1 0.189896 0.228525 0.483219
729 1 0.198327 0.214966 0.483941
749 1 0.336355 0.22859 0.488312
680 1 0.34785 0.216694 0.484445
751 1 0.35096 0.230918 0.485962
682 1 0.361833 0.220354 0.481057
689 1 0.413202 0.22085 0.479779
691 1 0.429192 0.224621 0.48369
693 1 0.445406 0.231468 0.485745
622 1 0.438154 0.215794 0.487662
797 1 0.18416 0.245605 0.482464
799 1 0.192814 0.241462 0.489354
752 1 0.353904 0.247075 0.487764
753 1 0.364135 0.237179 0.48131
692 1 0.43549 0.239767 0.479827
694 1 0.449276 0.24627 0.484497
796 1 0.17925 0.259646 0.480858
798 1 0.187205 0.257354 0.488778
823 1 0.35927 0.262737 0.487244
754 1 0.368513 0.251152 0.482847
825 1 0.37291 0.26616 0.482463
765 1 0.453067 0.260578 0.482568
696 1 0.462891 0.250943 0.487781
767 1 0.46668 0.267232 0.48638
867 1 0.17965 0.272537 0.486277
824 1 0.362494 0.278015 0.487443
826 1 0.374236 0.282574 0.482177
766 1 0.457667 0.276955 0.480551
768 1 0.472424 0.28378 0.484971
769 1 0.481731 0.272733 0.488197
866 1 0.176941 0.286349 0.483685
935 1 0.169667 0.301508 0.481785
895 1 0.365474 0.2927 0.488526
897 1 0.379278 0.298326 0.482535
899 1 0.393332 0.302353 0.479838
839 1 0.475721 0.297071 0.482935
770 1 0.487091 0.288199 0.48694
3571 1 0.490871 0.301087 0.485059
936 1 0.175289 0.315568 0.488007
896 1 0.371817 0.309205 0.489009
898 1 0.383706 0.315962 0.483655
900 1 0.39868 0.318329 0.480423
840 1 0.481261 0.310871 0.481681
3572 1 0.498233 0.315009 0.483706
1005 1 0.170784 0.328184 0.485451
969 1 0.393461 0.329673 0.484561
971 1 0.406632 0.333837 0.479767
3641 1 0.486735 0.326837 0.481214
1073 1 0.159813 0.356828 0.480843
1004 1 0.166209 0.341259 0.481987
1075 1 0.167808 0.355061 0.488877
970 1 0.399368 0.343399 0.486031
972 1 0.410194 0.349375 0.48097
1074 1 0.165519 0.370956 0.484262
1041 1 0.405818 0.358461 0.489608
1043 1 0.419021 0.363363 0.484062
1045 1 0.43343 0.367654 0.481168
1143 1 0.164403 0.386839 0.480302
1145 1 0.172798 0.386313 0.488226
1044 1 0.42562 0.377405 0.486004
1046 1 0.437084 0.383709 0.481071
1115 1 0.431088 0.391727 0.487103
1144 1 0.169314 0.400572 0.48569
1117 1 0.443747 0.397948 0.48105
1116 1 0.43572 0.407374 0.488373
1213 1 0.167374 0.415783 0.482184
1215 1 0.175461 0.413538 0.489542
1118 1 0.451439 0.412891 0.483913
1189 1 0.459523 0.42467 0.487042
1120 1 0.466697 0.415356 0.480698
1214 1 0.173297 0.429588 0.48576
1283 1 0.172149 0.442774 0.480148
1285 1 0.180469 0.441756 0.489003
3921 1 0.474129 0.42925 0.481721
1190 1 0.468854 0.436571 0.48935
3922 1 0.483645 0.44345 0.485138
3924 1 0.496742 0.446127 0.4813
1284 1 0.17979 0.455377 0.484634
3993 1 0.492882 0.453458 0.489425
1353 1 0.17681 0.470373 0.480406
1355 1 0.18529 0.469209 0.487486
1354 1 0.182717 0.481115 0.484955
1423 1 0.180145 0.497738 0.482017
1425 1 0.190665 0.495666 0.489561
166 1 0.169355 0.0347674 0.497205
168 1 0.186837 0.0337705 0.499113
243 1 0.228635 0.0344799 0.495985
76 1 0.00936042 0.0443367 0.499999
149 1 0.034844 0.0532947 0.498277
151 1 0.0499229 0.0495462 0.498693
153 1 0.0662608 0.0467455 0.49823
154 1 0.0742451 0.0522582 0.491391
155 1 0.0818633 0.0432782 0.497873
156 1 0.0904058 0.0463756 0.492016
158 1 0.105797 0.042966 0.492798
160 1 0.120577 0.0427695 0.493817
162 1 0.136169 0.0402192 0.495061
164 1 0.153116 0.0382638 0.496362
237 1 0.181351 0.0406021 0.492281
239 1 0.198666 0.0389901 0.493409
241 1 0.212554 0.040063 0.494769
244 1 0.240971 0.0406913 0.489917
245 1 0.243139 0.0378083 0.498527
246 1 0.253275 0.0465397 0.493127
248 1 0.269962 0.0481748 0.496299
250 1 0.285121 0.0509617 0.499946
145 1 0.00492997 0.0555852 0.494244
147 1 0.0206431 0.0541793 0.496515
150 1 0.0462611 0.0585516 0.490686
152 1 0.0589405 0.0556345 0.492508
319 1 0.280862 0.0582062 0.490974
321 1 0.293089 0.0606229 0.496276
323 1 0.309994 0.0623987 0.499638
322 1 0.302124 0.0726691 0.493362
393 1 0.311999 0.0854529 0.490491
324 1 0.318061 0.074444 0.49497
395 1 0.327731 0.087919 0.491215
326 1 0.334972 0.0766589 0.495902
329 1 0.348929 0.0823119 0.499476
328 1 0.342888 0.0903088 0.491883
399 1 0.357157 0.0952972 0.495684
401 1 0.369812 0.103807 0.499542
400 1 0.363526 0.108528 0.492187
402 1 0.376792 0.116329 0.496086
473 1 0.385152 0.129785 0.491804
475 1 0.393191 0.134379 0.497387
595 1 0.242691 0.15741 0.491302
528 1 0.267382 0.145896 0.490442
597 1 0.257092 0.15832 0.492907
599 1 0.273781 0.159708 0.494353
476 1 0.404675 0.150466 0.491998
478 1 0.415376 0.154981 0.496868
594 1 0.233497 0.17084 0.493101
596 1 0.246856 0.171307 0.495363
598 1 0.263777 0.172552 0.49749
600 1 0.280627 0.174686 0.495903
601 1 0.289593 0.162358 0.494079
602 1 0.295126 0.176967 0.494066
605 1 0.319879 0.167407 0.491545
603 1 0.304838 0.166962 0.49285
549 1 0.421151 0.170364 0.493253
480 1 0.42849 0.161336 0.499508
551 1 0.436704 0.174091 0.495712
663 1 0.223626 0.184075 0.493307
665 1 0.23618 0.182783 0.498428
671 1 0.284322 0.188271 0.499839
669 1 0.268798 0.186004 0.49913
673 1 0.299201 0.191255 0.497311
604 1 0.31097 0.18075 0.494358
675 1 0.316282 0.195274 0.495899
606 1 0.324682 0.182068 0.490761
552 1 0.44382 0.189569 0.492797
554 1 0.458187 0.195892 0.497015
553 1 0.449924 0.180818 0.499516
731 1 0.209382 0.21289 0.491552
664 1 0.229327 0.197187 0.498301
662 1 0.216518 0.199391 0.492563
733 1 0.222266 0.211582 0.497075
674 1 0.304682 0.20549 0.496903
676 1 0.320225 0.210325 0.494298
677 1 0.329138 0.197761 0.491578
678 1 0.335265 0.213668 0.490507
623 1 0.449094 0.20471 0.492554
625 1 0.462415 0.210367 0.496018
730 1 0.202455 0.226813 0.489946
732 1 0.212063 0.226681 0.496652
745 1 0.308379 0.222531 0.496113
747 1 0.322788 0.225579 0.493445
624 1 0.454228 0.221534 0.491411
626 1 0.465672 0.226722 0.495027
801 1 0.202511 0.240833 0.496586
746 1 0.312534 0.236216 0.497722
748 1 0.327993 0.240453 0.493317
750 1 0.342744 0.243269 0.490473
695 1 0.457973 0.23592 0.490707
697 1 0.471066 0.240637 0.493263
628 1 0.478795 0.23329 0.498996
699 1 0.485402 0.248895 0.497238
800 1 0.195002 0.254566 0.495445
817 1 0.317232 0.250237 0.499531
819 1 0.332159 0.253563 0.495008
820 1 0.338795 0.266053 0.499039
821 1 0.34708 0.257652 0.492268
698 1 0.476185 0.256671 0.491337
700 1 0.490235 0.260699 0.494939
869 1 0.189552 0.269482 0.493395
870 1 0.193712 0.281924 0.498943
822 1 0.35251 0.273487 0.494694
3501 1 0.495768 0.277264 0.492997
868 1 0.184181 0.286081 0.492236
939 1 0.189882 0.300102 0.49787
937 1 0.1794 0.299984 0.489974
892 1 0.350389 0.298701 0.499885
893 1 0.355022 0.287944 0.494193
938 1 0.181794 0.313166 0.495101
963 1 0.354386 0.315121 0.499201
894 1 0.360238 0.303935 0.494118
965 1 0.367378 0.320165 0.496047
1007 1 0.177769 0.326612 0.493819
966 1 0.375184 0.332714 0.497678
967 1 0.380043 0.324522 0.490756
968 1 0.388126 0.338307 0.491675
1006 1 0.175244 0.342192 0.491012
1077 1 0.178115 0.354401 0.495562
1008 1 0.183459 0.339594 0.499756
1037 1 0.381654 0.343954 0.498836
1039 1 0.394272 0.351963 0.493988
1076 1 0.175451 0.369857 0.491368
1078 1 0.183561 0.369374 0.499911
1040 1 0.401659 0.365544 0.495447
1042 1 0.415959 0.37316 0.490905
1147 1 0.182327 0.384963 0.495443
1111 1 0.407373 0.381772 0.497581
1113 1 0.421035 0.386058 0.492078
1146 1 0.181498 0.399262 0.491737
1114 1 0.424466 0.402402 0.494584
1217 1 0.185809 0.411423 0.496166
1216 1 0.183532 0.426562 0.493742
1185 1 0.432422 0.415939 0.496612
1187 1 0.446438 0.421418 0.491312
1287 1 0.192154 0.438976 0.496555
1186 1 0.442904 0.428614 0.499425
1188 1 0.454898 0.435337 0.494611
1286 1 0.189934 0.454348 0.492212
1288 1 0.198959 0.451963 0.499852
1259 1 0.461567 0.447729 0.496386
3991 1 0.476501 0.450988 0.492538
3992 1 0.486984 0.461181 0.496667
1356 1 0.192409 0.479263 0.492781
1357 1 0.196567 0.466268 0.495466
1358 1 0.20349 0.479681 0.49902
1427 1 0.197834 0.495116 0.496982
77 1 0.0154326 0.0321015 0.506765
6 1 0.00400398 0.0225336 0.509174
79 1 0.0310075 0.0321695 0.50928
86 1 0.0874428 0.0356156 0.506388
88 1 0.103186 0.0282634 0.507576
90 1 0.119912 0.0314018 0.509654
163 1 0.14378 0.0316819 0.503138
165 1 0.160396 0.029469 0.504516
167 1 0.17492 0.0264256 0.505745
169 1 0.192864 0.0245482 0.506456
171 1 0.207929 0.0246041 0.509861
170 1 0.200746 0.0321878 0.501374
172 1 0.216899 0.0317629 0.502931
173 1 0.2234 0.024107 0.509957
174 1 0.234759 0.0311497 0.504071
176 1 0.249883 0.0350823 0.507769
178 1 0.2665 0.033734 0.509819
78 1 0.0251147 0.0432915 0.503196
80 1 0.0413099 0.041858 0.503561
82 1 0.0590277 0.0406255 0.505075
84 1 0.0749299 0.0383624 0.506177
157 1 0.0983303 0.0378136 0.500013
159 1 0.114066 0.0379101 0.501519
161 1 0.129752 0.0358654 0.501672
247 1 0.259555 0.0409002 0.500906
249 1 0.275752 0.040068 0.504168
251 1 0.291177 0.0421748 0.50672
253 1 0.307391 0.0456059 0.510139
252 1 0.301145 0.0537731 0.502822
254 1 0.315851 0.0565618 0.506205
256 1 0.330592 0.0600892 0.508291
325 1 0.326343 0.0651102 0.501326
327 1 0.340626 0.0705768 0.50454
260 1 0.356284 0.0763922 0.507018
330 1 0.362837 0.0886664 0.502211
331 1 0.368413 0.0837012 0.509777
332 1 0.375722 0.0960557 0.505768
403 1 0.382743 0.109862 0.502524
404 1 0.390289 0.123027 0.500436
405 1 0.397056 0.113546 0.506936
406 1 0.39965 0.128512 0.504853
477 1 0.407012 0.142532 0.501485
408 1 0.412557 0.136237 0.508285
479 1 0.418557 0.150177 0.505298
481 1 0.433761 0.156764 0.508591
482 1 0.441935 0.168723 0.505001
484 1 0.455675 0.173629 0.508362
666 1 0.241727 0.194795 0.501788
668 1 0.257808 0.19615 0.503002
667 1 0.251698 0.182879 0.500217
555 1 0.461828 0.186166 0.504611
557 1 0.474393 0.193591 0.508962
735 1 0.234321 0.211319 0.502382
737 1 0.248143 0.21106 0.504866
739 1 0.262782 0.20969 0.506936
670 1 0.27505 0.201204 0.503106
672 1 0.292326 0.203411 0.500427
556 1 0.467851 0.202146 0.502699
558 1 0.480824 0.207193 0.506482
734 1 0.225834 0.22549 0.503351
736 1 0.240141 0.226053 0.506766
738 1 0.254274 0.222551 0.509898
741 1 0.279338 0.21451 0.504291
740 1 0.268848 0.224229 0.50979
742 1 0.284359 0.227061 0.50572
743 1 0.296264 0.217934 0.501726
627 1 0.472933 0.218649 0.501339
629 1 0.486416 0.22315 0.50513
803 1 0.216213 0.24006 0.503198
805 1 0.230398 0.240455 0.507958
744 1 0.29937 0.233009 0.501214
813 1 0.290144 0.241623 0.507879
815 1 0.304731 0.245006 0.504533
630 1 0.494091 0.237041 0.500381
871 1 0.201097 0.2664 0.500598
802 1 0.207635 0.25174 0.502078
873 1 0.213677 0.265783 0.50663
804 1 0.218437 0.252797 0.507921
814 1 0.296892 0.256618 0.508812
816 1 0.310001 0.260124 0.505814
818 1 0.32499 0.263287 0.502547
3431 1 0.498605 0.252096 0.500596
872 1 0.206031 0.28138 0.505483
887 1 0.317058 0.273767 0.507733
889 1 0.33094 0.279105 0.504282
891 1 0.344667 0.281727 0.500102
941 1 0.196966 0.294977 0.505357
888 1 0.323435 0.289395 0.509748
890 1 0.335884 0.292432 0.50436
940 1 0.191252 0.31018 0.503702
961 1 0.3417 0.306848 0.50516
962 1 0.347826 0.321134 0.505992
1009 1 0.187083 0.324596 0.502813
1011 1 0.197611 0.322552 0.508333
1033 1 0.353195 0.3365 0.509182
964 1 0.361149 0.328098 0.50229
1010 1 0.192238 0.339375 0.506186
1079 1 0.18636 0.354423 0.503706
1035 1 0.368698 0.342342 0.503864
1036 1 0.377448 0.354999 0.506396
1080 1 0.193723 0.365011 0.507866
1107 1 0.383838 0.367697 0.508763
1038 1 0.387998 0.360636 0.500342
1109 1 0.395913 0.374998 0.503639
1149 1 0.193478 0.379534 0.503708
1110 1 0.403552 0.388979 0.505379
1219 1 0.195351 0.40997 0.503359
1148 1 0.190837 0.396255 0.500052
1150 1 0.200856 0.394338 0.507053
1181 1 0.410738 0.405195 0.507115
1112 1 0.415864 0.396341 0.500136
1218 1 0.193532 0.425312 0.500703
1220 1 0.202337 0.42299 0.506966
1183 1 0.420603 0.411691 0.502025
1184 1 0.429653 0.425471 0.504656
1289 1 0.203615 0.43882 0.503304
1255 1 0.437466 0.435188 0.507842
1257 1 0.449842 0.44089 0.503008
1290 1 0.209001 0.451544 0.506678
1359 1 0.207692 0.463841 0.502505
1258 1 0.458005 0.453151 0.506277
1260 1 0.471604 0.4582 0.500869
1360 1 0.21152 0.476954 0.508063
4061 1 0.483039 0.469134 0.505568
4063 1 0.498778 0.470605 0.50069
4062 1 0.493373 0.478188 0.509612
1429 1 0.207675 0.491245 0.504055
2738 1 0.0177393 0.000159653 0.519679
7 1 0.0106007 0.0114795 0.516318
9 1 0.0262621 0.0136413 0.519151
95 1 0.155115 0.0167286 0.519375
97 1 0.171822 0.0150173 0.519409
100 1 0.198959 0.0173478 0.5157
8 1 0.0210235 0.0241067 0.51197
10 1 0.037727 0.0223644 0.514248
12 1 0.0523163 0.0218498 0.517365
83 1 0.0635307 0.0329772 0.513626
14 1 0.0688317 0.0178869 0.518689
85 1 0.0798285 0.0273245 0.513518
87 1 0.0936315 0.0251835 0.51432
89 1 0.108653 0.0234168 0.516064
92 1 0.134951 0.0293304 0.510563
93 1 0.140207 0.0217609 0.517428
91 1 0.125503 0.0244382 0.517792
94 1 0.148211 0.0248433 0.511304
96 1 0.165889 0.0212363 0.511916
98 1 0.181683 0.0206493 0.512718
102 1 0.213981 0.0183682 0.517913
104 1 0.22904 0.018795 0.519425
175 1 0.237796 0.02563 0.512851
177 1 0.255169 0.0277401 0.516757
179 1 0.271327 0.0270461 0.518491
180 1 0.282368 0.0320038 0.512549
81 1 0.0472958 0.0360399 0.51194
182 1 0.298026 0.0358036 0.515792
184 1 0.313574 0.0414359 0.517801
255 1 0.322969 0.0495899 0.512871
257 1 0.336557 0.0557258 0.516561
258 1 0.346138 0.0668915 0.512165
259 1 0.360818 0.0718999 0.514233
262 1 0.371908 0.0761399 0.518511
333 1 0.381377 0.0879465 0.513855
334 1 0.389504 0.102324 0.510632
335 1 0.39477 0.0939691 0.516602
336 1 0.404361 0.106848 0.514426
407 1 0.40863 0.120207 0.51129
338 1 0.416869 0.112894 0.51864
409 1 0.419461 0.129727 0.516396
411 1 0.431725 0.13277 0.518101
410 1 0.425257 0.144449 0.511979
412 1 0.440108 0.147406 0.516357
414 1 0.453866 0.15233 0.518902
416 1 0.471108 0.155236 0.519779
483 1 0.447467 0.16151 0.513186
485 1 0.461306 0.166807 0.514779
487 1 0.474962 0.16838 0.516367
486 1 0.469579 0.177772 0.51125
489 1 0.490998 0.172433 0.520039
488 1 0.482124 0.183214 0.515742
490 1 0.49753 0.188727 0.516751
560 1 0.49537 0.214206 0.510273
559 1 0.486425 0.200258 0.513195
807 1 0.245669 0.236376 0.5111
809 1 0.261156 0.235672 0.512738
808 1 0.250607 0.248536 0.516206
811 1 0.274302 0.239598 0.510251
875 1 0.224865 0.264516 0.513604
806 1 0.234373 0.250058 0.512646
877 1 0.239065 0.262541 0.517246
879 1 0.256262 0.263285 0.517324
810 1 0.26728 0.251601 0.513631
812 1 0.282512 0.254505 0.512173
881 1 0.271031 0.266144 0.515141
874 1 0.218427 0.27758 0.51171
876 1 0.230828 0.278249 0.51744
880 1 0.262511 0.278969 0.518233
882 1 0.280356 0.280874 0.516739
885 1 0.301571 0.273071 0.510294
883 1 0.287788 0.268222 0.512138
884 1 0.294081 0.28416 0.515377
943 1 0.208925 0.292729 0.512416
945 1 0.224066 0.291437 0.517231
953 1 0.286095 0.296352 0.518849
955 1 0.302092 0.298213 0.518618
886 1 0.308908 0.286595 0.512841
957 1 0.317202 0.298901 0.51557
942 1 0.202272 0.308688 0.510768
1013 1 0.207571 0.319261 0.514629
944 1 0.214709 0.30416 0.51702
959 1 0.332014 0.304063 0.510962
958 1 0.323871 0.313388 0.516398
960 1 0.335866 0.318256 0.511159
1012 1 0.204408 0.334789 0.512512
1014 1 0.215645 0.332951 0.517572
1029 1 0.331155 0.329401 0.517818
1031 1 0.341892 0.334392 0.512241
1081 1 0.199524 0.34975 0.510258
1083 1 0.211279 0.348562 0.516985
1030 1 0.338063 0.34279 0.519508
1032 1 0.351301 0.343699 0.515956
1034 1 0.363777 0.348412 0.510562
1103 1 0.358418 0.356923 0.518602
1082 1 0.204219 0.362843 0.514447
1105 1 0.372451 0.36099 0.513378
1151 1 0.202113 0.37963 0.51092
1152 1 0.207976 0.392666 0.515254
1153 1 0.209368 0.37736 0.518815
1108 1 0.391477 0.380911 0.511752
1106 1 0.379256 0.377154 0.515732
1177 1 0.386477 0.3928 0.517715
1221 1 0.205974 0.407819 0.511178
1223 1 0.217139 0.405248 0.519185
1179 1 0.400083 0.396427 0.513127
1178 1 0.394786 0.404467 0.519843
1222 1 0.213055 0.420027 0.51416
1180 1 0.407187 0.411054 0.515515
1182 1 0.418482 0.418262 0.510646
1251 1 0.413506 0.426365 0.51863
1291 1 0.210649 0.43512 0.510954
1293 1 0.219501 0.434119 0.51637
1253 1 0.424129 0.430878 0.514059
1252 1 0.421563 0.43887 0.520134
1254 1 0.432231 0.440919 0.516721
1292 1 0.219063 0.449881 0.51324
1361 1 0.215145 0.463566 0.511959
1363 1 0.226167 0.460619 0.520087
1256 1 0.445779 0.446612 0.511251
1327 1 0.454724 0.456585 0.51609
1329 1 0.467866 0.463387 0.510219
1362 1 0.222003 0.476164 0.515044
1328 1 0.463554 0.469443 0.519485
1330 1 0.477932 0.47466 0.514216
1431 1 0.218048 0.491191 0.512634
4131 1 0.486591 0.488527 0.517027
11 1 0.0433126 0.00974738 0.521004
13 1 0.0585612 0.0101035 0.522152
15 1 0.0723021 0.0104703 0.526166
17 1 0.0892462 0.0117886 0.527115
19 1 0.106234 0.00790013 0.529173
20 1 0.115696 0.0158225 0.523778
22 1 0.131156 0.0162926 0.525786
24 1 0.146216 0.0119572 0.52552
26 1 0.163984 0.0118454 0.526928
28 1 0.177793 0.0107702 0.528107
99 1 0.188308 0.0145048 0.521428
30 1 0.195083 0.00842234 0.530481
101 1 0.204303 0.0139465 0.52508
103 1 0.218945 0.0132058 0.527572
105 1 0.233994 0.0151608 0.528265
107 1 0.250621 0.0160797 0.530233
16 1 0.0849075 0.0182674 0.520605
18 1 0.100166 0.0180556 0.523243
106 1 0.243699 0.0228033 0.52158
108 1 0.261343 0.0218356 0.52475
110 1 0.275684 0.0259468 0.526893
181 1 0.287171 0.0309188 0.522257
183 1 0.302688 0.035811 0.524203
187 1 0.319614 0.0380121 0.526814
185 1 0.328437 0.0448526 0.522333
189 1 0.335968 0.0380312 0.529836
188 1 0.343174 0.051125 0.5252
186 1 0.351902 0.0606501 0.520656
190 1 0.354502 0.0550082 0.529402
261 1 0.363797 0.0642426 0.523557
263 1 0.379981 0.0711801 0.525699
264 1 0.386519 0.0836912 0.522117
266 1 0.400768 0.0863227 0.524622
265 1 0.39333 0.0762212 0.528977
337 1 0.405922 0.10032 0.522021
339 1 0.419328 0.1057 0.526183
268 1 0.412421 0.0929093 0.529665
340 1 0.426819 0.120013 0.52429
341 1 0.43256 0.10998 0.529347
342 1 0.438977 0.125706 0.526778
413 1 0.444018 0.138906 0.52285
344 1 0.452341 0.130871 0.529712
346 1 0.469519 0.133993 0.530215
415 1 0.46068 0.143893 0.524388
417 1 0.47705 0.145231 0.526139
418 1 0.484874 0.158792 0.521856
419 1 0.492906 0.146793 0.527699
420 1 0.498373 0.160804 0.526223
878 1 0.245674 0.276194 0.521327
947 1 0.235334 0.291013 0.520837
949 1 0.254749 0.289112 0.523042
951 1 0.269617 0.291691 0.521561
1015 1 0.221841 0.319356 0.520798
946 1 0.227239 0.306327 0.522207
948 1 0.244903 0.304391 0.523698
1017 1 0.236336 0.318752 0.524102
950 1 0.260311 0.303595 0.524642
1019 1 0.252257 0.317528 0.527969
1021 1 0.266587 0.318918 0.527491
952 1 0.276022 0.308095 0.523211
954 1 0.293713 0.308152 0.522451
956 1 0.309893 0.311886 0.520675
1016 1 0.227236 0.334194 0.523931
1018 1 0.243419 0.332228 0.52815
1020 1 0.259373 0.331314 0.528691
1023 1 0.28397 0.321916 0.525387
1022 1 0.276139 0.334123 0.529161
1025 1 0.301681 0.321787 0.525915
1024 1 0.294204 0.333757 0.530089
1027 1 0.317743 0.323182 0.522269
1026 1 0.311097 0.335748 0.528073
1028 1 0.323909 0.339261 0.524029
1085 1 0.22233 0.34739 0.522335
1087 1 0.236888 0.346335 0.526682
1097 1 0.316088 0.349443 0.529923
1099 1 0.330815 0.351062 0.526329
1101 1 0.345221 0.355428 0.521444
1084 1 0.214767 0.362145 0.521641
1086 1 0.227835 0.360366 0.528533
1155 1 0.220813 0.373762 0.52546
1100 1 0.339203 0.36372 0.528412
1102 1 0.351355 0.367191 0.524903
1104 1 0.368345 0.3712 0.521715
1154 1 0.217503 0.390259 0.522354
1156 1 0.231021 0.388633 0.527348
1173 1 0.360123 0.38063 0.527015
1175 1 0.374532 0.38692 0.522725
1225 1 0.2267 0.404427 0.525676
1174 1 0.367881 0.396488 0.529564
1176 1 0.382008 0.399011 0.525926
1224 1 0.222073 0.419477 0.520942
1226 1 0.232311 0.417354 0.528642
1247 1 0.388923 0.412615 0.526944
1249 1 0.400943 0.419757 0.522909
1248 1 0.395778 0.427394 0.529848
1294 1 0.225416 0.446285 0.522143
1295 1 0.227462 0.430855 0.526508
1296 1 0.235662 0.443859 0.529802
1250 1 0.4068 0.434744 0.525627
1365 1 0.232834 0.459507 0.527871
1321 1 0.414688 0.448648 0.527573
1323 1 0.427606 0.451112 0.525521
1325 1 0.440242 0.451979 0.520988
1324 1 0.437406 0.461377 0.529077
1364 1 0.231793 0.475154 0.523254
1366 1 0.241128 0.472661 0.530187
1326 1 0.448834 0.465291 0.524627
1397 1 0.460966 0.477187 0.527777
1433 1 0.226046 0.488426 0.520786
1435 1 0.237224 0.488104 0.527797
1399 1 0.472664 0.484551 0.521474
4132 1 0.498737 0.496495 0.521563
1400 1 0.48273 0.492137 0.525201
2744 1 0.0628847 0.00257203 0.530705
2746 1 0.0795078 0.00220255 0.531958
2748 1 0.0941701 0.00189369 0.534133
2750 1 0.110556 0.00230895 0.537861
21 1 0.120414 0.00808073 0.531927
23 1 0.13652 0.00856573 0.532673
25 1 0.151881 0.00762586 0.533791
27 1 0.167495 0.00678387 0.536297
29 1 0.183058 0.00397768 0.536275
31 1 0.200347 0.00230839 0.538568
32 1 0.210211 0.0107427 0.534502
34 1 0.224724 0.00983973 0.534809
36 1 0.238964 0.00998023 0.53786
38 1 0.254407 0.0118322 0.540365
109 1 0.265587 0.0189148 0.53392
111 1 0.27938 0.0211622 0.536463
112 1 0.29072 0.0322515 0.531503
113 1 0.294346 0.026203 0.539346
114 1 0.30722 0.0333248 0.533793
116 1 0.322464 0.0316691 0.53514
118 1 0.336244 0.0329844 0.538555
191 1 0.348518 0.0423691 0.53308
122 1 0.362974 0.0484433 0.536404
193 1 0.376182 0.0519637 0.539066
192 1 0.371614 0.0588534 0.531125
194 1 0.384208 0.0654224 0.534264
196 1 0.396235 0.0688436 0.538099
267 1 0.40513 0.0803289 0.534053
269 1 0.421098 0.0862594 0.536753
270 1 0.426726 0.0974711 0.532708
272 1 0.439685 0.102887 0.536311
274 1 0.452776 0.105318 0.539719
343 1 0.445409 0.117019 0.533708
345 1 0.458937 0.12075 0.536391
347 1 0.474516 0.125506 0.537504
350 1 0.499962 0.138956 0.534534
349 1 0.490962 0.125919 0.539567
348 1 0.485994 0.137851 0.532422
1089 1 0.251899 0.344899 0.531107
1091 1 0.266798 0.34466 0.531821
1090 1 0.259257 0.357073 0.534652
1093 1 0.284587 0.344876 0.532165
1095 1 0.301689 0.348568 0.53283
1157 1 0.23518 0.373366 0.531106
1088 1 0.244095 0.358469 0.531531
1159 1 0.251299 0.372275 0.5344
1161 1 0.266646 0.371654 0.537442
1092 1 0.275858 0.358008 0.535897
1163 1 0.283184 0.37194 0.537564
1094 1 0.291419 0.360132 0.53514
1165 1 0.29954 0.373161 0.538161
1096 1 0.309279 0.36279 0.534588
1098 1 0.32399 0.362902 0.531865
1158 1 0.24321 0.385585 0.533412
1160 1 0.26014 0.386426 0.535476
1167 1 0.316289 0.375482 0.537482
1168 1 0.324731 0.388004 0.540171
1169 1 0.331604 0.375553 0.534649
1170 1 0.34123 0.389939 0.537412
1171 1 0.346249 0.37809 0.531852
1172 1 0.354744 0.389734 0.534095
1227 1 0.239893 0.401037 0.531184
1229 1 0.252942 0.400277 0.535621
1243 1 0.36201 0.404024 0.536837
1245 1 0.374769 0.409566 0.532197
1228 1 0.245089 0.415909 0.534873
1230 1 0.259074 0.414222 0.540258
1244 1 0.371662 0.418249 0.539093
1246 1 0.381712 0.422583 0.534617
1297 1 0.239865 0.430098 0.533974
1298 1 0.246059 0.442998 0.536726
1299 1 0.253185 0.428976 0.539218
1317 1 0.390728 0.434118 0.538908
1319 1 0.404484 0.440795 0.533256
1367 1 0.243018 0.457663 0.534629
1320 1 0.410748 0.453501 0.53732
1322 1 0.421893 0.459153 0.532927
1368 1 0.250124 0.471323 0.538086
1393 1 0.43307 0.470099 0.536768
1394 1 0.444734 0.479436 0.540677
1395 1 0.446905 0.474521 0.53144
1437 1 0.248075 0.48573 0.535661
1439 1 0.25909 0.485035 0.540427
1396 1 0.459435 0.484295 0.53565
1398 1 0.469974 0.488101 0.531133
1467 1 0.466308 0.494675 0.538975
1469 1 0.480782 0.498243 0.534857
33 1 0.21574 0.00270895 0.54246
35 1 0.231244 0.00373903 0.543502
2764 1 0.221155 9.99834e-05 0.549911
37 1 0.245301 0.00496229 0.546958
39 1 0.260636 0.00668086 0.54887
40 1 0.271874 0.0116643 0.542819
42 1 0.286027 0.0159445 0.544505
44 1 0.301429 0.0187971 0.546886
115 1 0.312157 0.0261456 0.541188
46 1 0.317812 0.0225466 0.550806
117 1 0.328246 0.0269462 0.544674
119 1 0.342341 0.0293609 0.546909
121 1 0.358249 0.0319861 0.549569
120 1 0.352805 0.0359666 0.54091
123 1 0.368657 0.0407875 0.544351
124 1 0.381216 0.0465368 0.547451
195 1 0.389051 0.0572793 0.542786
197 1 0.403118 0.0623542 0.54653
199 1 0.418458 0.0692486 0.549477
198 1 0.411653 0.0730979 0.541418
200 1 0.424809 0.0813182 0.545165
202 1 0.440284 0.0836528 0.547528
206 1 0.471925 0.0884668 0.550237
271 1 0.431271 0.0922428 0.540964
204 1 0.455865 0.0894327 0.549909
273 1 0.447056 0.0943552 0.54201
275 1 0.463787 0.0978024 0.545365
277 1 0.478238 0.102896 0.546174
279 1 0.494387 0.101531 0.545776
208 1 0.489035 0.0901149 0.550247
276 1 0.469252 0.110706 0.541053
278 1 0.486009 0.114168 0.541899
1162 1 0.275402 0.385465 0.540893
1164 1 0.290034 0.385171 0.541313
1166 1 0.307843 0.385895 0.541349
1231 1 0.266591 0.399878 0.540831
1233 1 0.282925 0.39907 0.543209
1235 1 0.299215 0.397999 0.543486
1237 1 0.317013 0.399811 0.543013
1239 1 0.331348 0.402921 0.541963
1241 1 0.348541 0.402454 0.540897
1301 1 0.266621 0.426575 0.543435
1232 1 0.27511 0.413112 0.544096
1303 1 0.283578 0.426461 0.546469
1234 1 0.292798 0.413692 0.54557
1305 1 0.300042 0.42499 0.54753
1236 1 0.308865 0.41265 0.545913
1307 1 0.315425 0.425886 0.548115
1238 1 0.323823 0.415611 0.544914
1309 1 0.332566 0.425302 0.547975
1240 1 0.341995 0.413862 0.544372
1311 1 0.348011 0.426912 0.548321
1242 1 0.357842 0.413419 0.545134
1313 1 0.363002 0.428047 0.54574
1300 1 0.260289 0.441603 0.54295
1302 1 0.275456 0.43981 0.547534
1304 1 0.290471 0.438431 0.550076
1306 1 0.307798 0.438109 0.550407
1308 1 0.323013 0.438274 0.550583
1312 1 0.354828 0.440062 0.550645
1314 1 0.371655 0.44087 0.550207
1315 1 0.380141 0.429639 0.543226
1316 1 0.385189 0.443754 0.546972
1369 1 0.254814 0.45693 0.54113
1371 1 0.268147 0.455414 0.546048
1373 1 0.28217 0.453904 0.550212
1387 1 0.391963 0.457062 0.54802
1318 1 0.398257 0.447471 0.541723
1389 1 0.407326 0.459779 0.545495
1370 1 0.264693 0.470496 0.544133
1372 1 0.277025 0.469003 0.549955
1391 1 0.421748 0.4648 0.541208
1390 1 0.417749 0.471715 0.548983
1392 1 0.431167 0.476983 0.544809
1440 1 0.267867 0.498545 0.542525
1441 1 0.272025 0.482829 0.546648
1442 1 0.278989 0.495547 0.548515
1443 1 0.286327 0.483194 0.550809
1463 1 0.437844 0.490039 0.547994
1465 1 0.45368 0.491734 0.543015
2766 1 0.234306 0.00118995 0.552782
2768 1 0.250994 0.000574027 0.554848
2770 1 0.268828 0.000619582 0.556661
41 1 0.277555 0.0111174 0.551126
43 1 0.290957 0.0114901 0.553574
45 1 0.306998 0.0148039 0.555556
2776 1 0.315132 0.00335543 0.561173
47 1 0.323163 0.0142201 0.557272
49 1 0.340114 0.013404 0.560509
48 1 0.333811 0.0234086 0.552547
50 1 0.348751 0.0236882 0.555918
52 1 0.362222 0.0266617 0.558162
53 1 0.379255 0.0306042 0.561093
56 1 0.39563 0.0337603 0.560836
54 1 0.37282 0.0357851 0.553516
125 1 0.386546 0.0426181 0.55697
126 1 0.393669 0.0525589 0.551742
127 1 0.403681 0.046648 0.558192
129 1 0.418742 0.0467959 0.560504
131 1 0.434892 0.0482087 0.560755
139 1 0.496459 0.0508229 0.559349
128 1 0.41035 0.0562585 0.553727
130 1 0.426805 0.0586275 0.555915
132 1 0.44151 0.0607983 0.557931
134 1 0.457121 0.0649049 0.55995
136 1 0.474377 0.068184 0.559734
138 1 0.489982 0.0641214 0.558007
201 1 0.432966 0.0741054 0.552618
203 1 0.449453 0.0766573 0.554619
205 1 0.465131 0.0781024 0.55526
207 1 0.482637 0.0762266 0.554217
209 1 0.498888 0.0755564 0.552702
1310 1 0.338947 0.438921 0.552255
1375 1 0.299111 0.452295 0.553682
1377 1 0.316131 0.45174 0.553633
1379 1 0.330864 0.451423 0.55484
1381 1 0.346962 0.451864 0.556744
1383 1 0.361257 0.453039 0.554349
1385 1 0.376029 0.453337 0.551947
1374 1 0.290035 0.46799 0.554147
1445 1 0.301321 0.479384 0.556135
1447 1 0.316242 0.478484 0.559947
1376 1 0.305983 0.46506 0.556971
1378 1 0.321324 0.464949 0.558612
1449 1 0.332062 0.477363 0.5608
1380 1 0.33969 0.465077 0.558261
1382 1 0.355054 0.466193 0.558
1451 1 0.346771 0.478626 0.5611
1453 1 0.363567 0.480339 0.560947
1384 1 0.369425 0.464612 0.556766
1386 1 0.386484 0.465391 0.555008
1455 1 0.379016 0.478965 0.55948
1388 1 0.401707 0.469126 0.552025
1457 1 0.39437 0.478181 0.558225
1444 1 0.292275 0.493716 0.55568
1446 1 0.308185 0.492363 0.559931
1458 1 0.402944 0.491346 0.560111
1459 1 0.410661 0.483087 0.554138
1461 1 0.426171 0.486139 0.551345
1460 1 0.417826 0.496 0.55697
1462 1 0.432472 0.498175 0.553598
2778 1 0.33065 0.00507839 0.563116
51 1 0.355267 0.0171184 0.563522
2780 1 0.346003 0.00667424 0.567755
2782 1 0.362332 0.0101574 0.570101
2794 1 0.459891 0.0113842 0.569887
2796 1 0.475029 0.0131056 0.56675
2798 1 0.490324 0.01287 0.56667
2784 1 0.370129 0.0191072 0.565073
55 1 0.388005 0.0191459 0.565078
57 1 0.402018 0.0231443 0.567783
58 1 0.410245 0.034775 0.563296
59 1 0.416763 0.0227597 0.567698
60 1 0.426499 0.0354338 0.565181
61 1 0.434112 0.0240038 0.56947
63 1 0.451144 0.0230364 0.567838
65 1 0.468388 0.025582 0.567203
67 1 0.484242 0.026774 0.56648
69 1 0.499792 0.0246472 0.564886
62 1 0.442304 0.0365706 0.564882
133 1 0.451761 0.0496616 0.563473
64 1 0.458694 0.0367729 0.565918
135 1 0.468086 0.0519264 0.56275
66 1 0.474868 0.0379349 0.565045
137 1 0.483191 0.0528277 0.561413
68 1 0.490581 0.0387855 0.563753
1448 1 0.324679 0.492049 0.562706
1450 1 0.340224 0.492924 0.563386
1452 1 0.35607 0.492756 0.564605
1454 1 0.373937 0.492036 0.564397
1456 1 0.388263 0.490912 0.561551
2785 1 0.386145 0.000162188 0.578979
2787 1 0.401995 0.00235438 0.578797
2788 1 0.409624 0.0121374 0.573253
2786 1 0.393389 0.011373 0.573646
2790 1 0.425289 0.0108809 0.573372
2792 1 0.443149 0.0119692 0.572601
1403 1 0.0568647 0.506372 0.447042
1405 1 0.0720488 0.505343 0.445084
1407 1 0.0875075 0.507402 0.443374
1409 1 0.102507 0.507546 0.441879
1411 1 0.119043 0.508689 0.442705
1413 1 0.132813 0.507259 0.44705
1406 1 0.0776947 0.520453 0.44617
1408 1 0.0933521 0.523231 0.44471
1479 1 0.101756 0.534651 0.445282
1410 1 0.109735 0.522456 0.443333
1412 1 0.127029 0.520316 0.44551
1477 1 0.0864178 0.53612 0.446537
1481 1 0.117967 0.535888 0.445744
1480 1 0.110941 0.549065 0.448417
4690 1 0.0309803 0.679838 0.447651
1891 1 0.0360254 0.695664 0.447899
4758 1 0.00850972 0.703642 0.448373
4760 1 0.0251434 0.705706 0.448305
4267 1 0.0134592 0.501244 0.458321
4269 1 0.0261144 0.50324 0.454747
1401 1 0.0396048 0.504585 0.450121
4270 1 0.036982 0.514793 0.457272
1415 1 0.145297 0.503042 0.451133
1416 1 0.151174 0.516372 0.456164
1417 1 0.156227 0.502332 0.457655
1402 1 0.0489825 0.519745 0.451893
1471 1 0.0452677 0.530776 0.458408
1404 1 0.0639261 0.518951 0.449805
1473 1 0.0577452 0.531642 0.452648
1475 1 0.0734457 0.532957 0.450391
1483 1 0.132557 0.534017 0.450186
1414 1 0.14203 0.519373 0.449728
1485 1 0.145645 0.532209 0.455377
1472 1 0.0503341 0.545002 0.458605
1474 1 0.0635327 0.544429 0.453871
1476 1 0.0791291 0.54711 0.451675
1478 1 0.096037 0.54857 0.449287
1482 1 0.128032 0.54855 0.449487
1484 1 0.141627 0.545954 0.453205
1486 1 0.155966 0.546726 0.456406
1543 1 0.0594448 0.556639 0.459026
1544 1 0.0661166 0.57044 0.45735
1545 1 0.0726686 0.558281 0.454016
1547 1 0.0880215 0.560899 0.4516
1549 1 0.104463 0.560162 0.450648
1551 1 0.120127 0.56148 0.450701
1553 1 0.137748 0.561877 0.452213
1555 1 0.15063 0.559756 0.456499
1546 1 0.07853 0.573935 0.454206
1615 1 0.0720378 0.586983 0.457776
1617 1 0.0859795 0.587043 0.454978
1548 1 0.0954067 0.573807 0.452082
1619 1 0.100724 0.587046 0.454343
1550 1 0.111699 0.573604 0.452164
1552 1 0.127869 0.574766 0.452986
1623 1 0.13578 0.587487 0.45659
1554 1 0.144386 0.572775 0.455638
1616 1 0.0769233 0.601823 0.455947
1618 1 0.0933192 0.602063 0.456877
1621 1 0.118447 0.590288 0.453859
1620 1 0.111096 0.600893 0.455788
1622 1 0.126205 0.600297 0.458136
1685 1 0.0703977 0.616208 0.457022
1687 1 0.0860963 0.615698 0.458088
1689 1 0.103868 0.614149 0.457382
1691 1 0.118248 0.61385 0.458741
1751 1 0.0359585 0.638036 0.45555
1682 1 0.0445106 0.626442 0.458209
1753 1 0.0526915 0.63988 0.455102
1684 1 0.0591894 0.627739 0.455977
1755 1 0.067526 0.639899 0.456787
1686 1 0.0763651 0.628788 0.458685
1688 1 0.0943978 0.629419 0.458394
4618 1 0.0099648 0.649065 0.458778
4620 1 0.0248884 0.648385 0.455515
1752 1 0.0418978 0.654084 0.453661
1754 1 0.0590376 0.654477 0.45422
1757 1 0.0848701 0.644338 0.458424
1756 1 0.0760891 0.654707 0.456221
4687 1 0.0126709 0.660768 0.453506
4688 1 0.0150335 0.674377 0.450533
4689 1 0.0274171 0.663723 0.450788
1821 1 0.0411499 0.67017 0.45158
1823 1 0.0531332 0.667571 0.453664
1825 1 0.0688722 0.667726 0.455608
1827 1 0.0834502 0.669853 0.456495
1829 1 0.100958 0.670464 0.458817
4757 1 0.00444733 0.688216 0.450433
4759 1 0.0190364 0.690435 0.449162
1822 1 0.0469073 0.681677 0.450241
1893 1 0.0504763 0.694448 0.450324
1824 1 0.0605327 0.681659 0.452124
1895 1 0.066332 0.694216 0.452691
1826 1 0.0759525 0.68351 0.456119
1828 1 0.0930683 0.683539 0.458805
1892 1 0.0426707 0.708524 0.44998
1894 1 0.0579744 0.709956 0.452508
1896 1 0.0705622 0.709494 0.457175
1897 1 0.0812837 0.697623 0.458518
4829 1 0.0152995 0.716924 0.450577
4828 1 0.00303619 0.729562 0.453023
1961 1 0.02895 0.720096 0.451869
4830 1 0.0194202 0.731729 0.454073
1963 1 0.046101 0.723641 0.452712
1965 1 0.0605562 0.723299 0.455813
4899 1 0.0087086 0.744831 0.454776
2031 1 0.024979 0.747898 0.456977
1962 1 0.0364815 0.734484 0.455678
1964 1 0.0500854 0.73596 0.45668
4900 1 0.0151049 0.759373 0.457163
4266 1 0.00705407 0.513118 0.465021
4268 1 0.0219699 0.513048 0.461826
1418 1 0.160289 0.516062 0.463359
1419 1 0.162408 0.500972 0.46658
4337 1 0.0151011 0.524375 0.467283
4339 1 0.0292058 0.525935 0.462325
1487 1 0.156736 0.531092 0.459835
1489 1 0.166876 0.526993 0.467776
4338 1 0.0246632 0.537669 0.467727
4340 1 0.0372358 0.541516 0.462652
1488 1 0.166722 0.542818 0.462388
4409 1 0.0297931 0.555093 0.467637
4410 1 0.0355794 0.569444 0.466105
1541 1 0.0442855 0.558436 0.463641
1542 1 0.0520577 0.571068 0.461729
1557 1 0.162613 0.559361 0.46147
1559 1 0.172125 0.555837 0.46756
4479 1 0.0273417 0.581796 0.466935
1611 1 0.0419043 0.583069 0.462219
1613 1 0.0565788 0.585715 0.459315
1556 1 0.156243 0.572341 0.462021
1625 1 0.151881 0.587734 0.459684
1558 1 0.170807 0.571864 0.465785
1627 1 0.166865 0.587486 0.463277
4478 1 0.0176687 0.594822 0.468698
4480 1 0.0326257 0.597445 0.465299
1612 1 0.0473921 0.599702 0.462977
1614 1 0.0641179 0.600647 0.459399
1624 1 0.142784 0.60116 0.459954
1626 1 0.157155 0.601706 0.463401
1628 1 0.17069 0.602667 0.468342
4547 1 0.0090045 0.60959 0.468226
4548 1 0.0134547 0.623307 0.463814
4550 1 0.0288287 0.623321 0.460464
4549 1 0.0236753 0.609674 0.4641
1681 1 0.040237 0.610687 0.461761
1683 1 0.0542261 0.61503 0.459188
1693 1 0.13341 0.614419 0.460111
1695 1 0.147761 0.615616 0.463754
1697 1 0.162042 0.616955 0.467243
4617 1 0.00412372 0.633805 0.463146
4619 1 0.0214973 0.636511 0.460075
1690 1 0.110565 0.63035 0.46009
1692 1 0.124685 0.630561 0.459743
1694 1 0.139349 0.629587 0.461814
1696 1 0.152693 0.629166 0.467722
1759 1 0.101836 0.644398 0.459882
1758 1 0.0933657 0.657201 0.459394
1761 1 0.11514 0.644534 0.461345
1760 1 0.110854 0.657869 0.459461
1762 1 0.124407 0.658902 0.462178
1763 1 0.132785 0.643853 0.461962
1764 1 0.138525 0.658707 0.46559
1765 1 0.146314 0.645228 0.464986
1831 1 0.115996 0.673599 0.462452
1833 1 0.132493 0.672007 0.464434
1830 1 0.108726 0.685576 0.462316
1832 1 0.125389 0.687074 0.462919
1834 1 0.137129 0.687566 0.467331
1898 1 0.0860399 0.711274 0.462377
1899 1 0.0979762 0.698891 0.461175
1900 1 0.101223 0.712845 0.465463
1901 1 0.112641 0.699544 0.464625
1902 1 0.11757 0.712942 0.468465
1903 1 0.127154 0.702639 0.467388
1967 1 0.0767344 0.724739 0.460338
1969 1 0.0925392 0.725373 0.463885
1971 1 0.107374 0.726359 0.468408
2033 1 0.0425504 0.747513 0.459601
1966 1 0.0660615 0.738144 0.460639
2035 1 0.055159 0.747642 0.463121
2037 1 0.0716914 0.749294 0.466437
1968 1 0.0822761 0.737721 0.464423
2039 1 0.0864635 0.748817 0.469144
2032 1 0.0296002 0.759962 0.461537
2034 1 0.0451637 0.758499 0.465383
2036 1 0.0601177 0.759733 0.468121
4969 1 0.00411353 0.768688 0.460705
4970 1 0.00768612 0.78049 0.465994
2101 1 0.0182894 0.77134 0.46359
2103 1 0.0336784 0.771656 0.468232
2102 1 0.0232916 0.780313 0.469314
1420 1 0.168589 0.51496 0.47138
1421 1 0.171867 0.500557 0.473382
1422 1 0.178441 0.512999 0.478806
4335 1 0.00157253 0.524014 0.470228
1491 1 0.178718 0.527404 0.475971
4336 1 0.0088784 0.538382 0.472627
4407 1 0.016543 0.55265 0.471288
4405 1 0.000110436 0.55063 0.473447
1490 1 0.176715 0.539087 0.47089
1492 1 0.185385 0.541331 0.478336
4406 1 0.00638254 0.566238 0.472281
4408 1 0.0232038 0.565954 0.469516
1561 1 0.181303 0.555369 0.474347
1560 1 0.179155 0.569076 0.472932
4477 1 0.0127595 0.57982 0.472033
4475 1 0.0005794 0.579392 0.476245
1629 1 0.17625 0.586232 0.47042
1631 1 0.185109 0.583652 0.477953
4476 1 0.00462584 0.594286 0.47354
1630 1 0.179977 0.600016 0.474873
1699 1 0.17485 0.614833 0.472594
1698 1 0.168048 0.630383 0.471599
1769 1 0.173828 0.641846 0.476714
1700 1 0.180764 0.629851 0.47753
1766 1 0.153301 0.658368 0.470899
1767 1 0.159056 0.643136 0.471229
1768 1 0.167871 0.657416 0.475006
1835 1 0.143876 0.673584 0.470399
1837 1 0.159374 0.672374 0.473205
1836 1 0.152321 0.686182 0.472096
1838 1 0.163387 0.685509 0.477902
1905 1 0.142432 0.700254 0.470999
1904 1 0.132457 0.713748 0.470923
1907 1 0.155593 0.69919 0.476238
1973 1 0.121968 0.724633 0.474137
1975 1 0.135472 0.725929 0.478101
1906 1 0.146567 0.714772 0.477219
1970 1 0.0960844 0.737744 0.470305
2041 1 0.0996986 0.749592 0.475176
1972 1 0.11152 0.736498 0.474645
2038 1 0.0757686 0.761778 0.472209
2040 1 0.0893852 0.761025 0.475452
2105 1 0.0497416 0.773761 0.470522
2104 1 0.0393179 0.782704 0.470365
2106 1 0.0531521 0.78241 0.475157
2107 1 0.0642349 0.771714 0.474228
2109 1 0.0786614 0.771019 0.479053
2171 1 0.0115048 0.790829 0.47157
2172 1 0.0137192 0.802174 0.478105
2173 1 0.0269752 0.791203 0.475246
2175 1 0.0425285 0.792302 0.477711
2241 1 0.00474828 0.813509 0.479265
1424 1 0.188427 0.511279 0.486327
1493 1 0.185981 0.525244 0.483323
1494 1 0.19153 0.540404 0.487234
1563 1 0.188187 0.556462 0.482519
1564 1 0.195235 0.569242 0.489029
1562 1 0.188136 0.568794 0.479942
1633 1 0.191219 0.582921 0.4858
1632 1 0.190561 0.598799 0.482569
1701 1 0.185286 0.615344 0.479733
1703 1 0.197285 0.61217 0.486805
1702 1 0.19197 0.626448 0.483819
1773 1 0.198342 0.64074 0.487434
1771 1 0.188125 0.643854 0.482042
1770 1 0.179781 0.657045 0.481507
1772 1 0.190926 0.655553 0.487855
1839 1 0.171468 0.671645 0.479657
1841 1 0.183302 0.67106 0.486125
1840 1 0.176111 0.686097 0.484682
1909 1 0.167498 0.700678 0.482576
1910 1 0.174234 0.713614 0.485845
1911 1 0.181303 0.699351 0.48787
1908 1 0.158049 0.714933 0.481357
1977 1 0.150466 0.730483 0.482064
1979 1 0.166057 0.729022 0.485619
1974 1 0.126415 0.738396 0.479772
1976 1 0.141298 0.73973 0.481913
1978 1 0.154759 0.741973 0.4864
2042 1 0.104703 0.762729 0.480638
2043 1 0.11424 0.750706 0.479852
2044 1 0.120205 0.760783 0.48542
2045 1 0.129706 0.753011 0.484621
2046 1 0.135477 0.764069 0.488445
2047 1 0.14643 0.7515 0.486701
2108 1 0.0676056 0.780764 0.480569
2110 1 0.0827463 0.780896 0.485555
2111 1 0.093983 0.772181 0.482484
2113 1 0.110021 0.774463 0.486357
2115 1 0.124988 0.777528 0.488972
2174 1 0.0286611 0.801327 0.482021
2176 1 0.0456508 0.802778 0.484932
2177 1 0.0556511 0.791178 0.482971
2179 1 0.0706517 0.792162 0.486818
2112 1 0.0973512 0.785944 0.488625
2243 1 0.0178892 0.813765 0.484208
2245 1 0.0357785 0.813508 0.486619
2242 1 0.0103847 0.825432 0.485499
2311 1 6.56783e-05 0.834658 0.487437
1426 1 0.198039 0.51097 0.494198
1495 1 0.192108 0.526988 0.491359
1497 1 0.203589 0.522854 0.49891
1496 1 0.202131 0.537733 0.494316
1567 1 0.204133 0.55297 0.499946
1565 1 0.197191 0.554608 0.490855
1566 1 0.20299 0.566781 0.496119
1635 1 0.201342 0.582703 0.492998
1634 1 0.198435 0.596484 0.490924
1636 1 0.209739 0.594962 0.498102
1705 1 0.206964 0.611217 0.493749
1706 1 0.214704 0.622651 0.498917
1704 1 0.206111 0.625066 0.490177
1775 1 0.210774 0.637849 0.49369
1774 1 0.201432 0.652718 0.493115
1843 1 0.193541 0.668984 0.493236
1842 1 0.188689 0.684426 0.492195
1844 1 0.197996 0.681408 0.498381
1913 1 0.192818 0.697902 0.494953
1912 1 0.18763 0.712125 0.49214
1914 1 0.195889 0.710736 0.499972
1981 1 0.17548 0.724863 0.491886
1983 1 0.186189 0.724622 0.498724
1980 1 0.168897 0.740998 0.49169
1982 1 0.180118 0.737794 0.498089
2048 1 0.152193 0.766243 0.491326
2049 1 0.161939 0.753891 0.491992
2051 1 0.173993 0.753267 0.498342
2050 1 0.163802 0.76463 0.497938
2117 1 0.139768 0.778495 0.493043
2119 1 0.154868 0.776577 0.498226
2178 1 0.056479 0.801965 0.490062
2181 1 0.08409 0.796128 0.490926
2180 1 0.0717843 0.803152 0.494511
2183 1 0.09884 0.797507 0.496715
2114 1 0.112803 0.789461 0.491277
2185 1 0.114936 0.798643 0.498335
2116 1 0.128891 0.790148 0.495204
2247 1 0.0477125 0.813887 0.493009
2249 1 0.0612461 0.815006 0.496046
2182 1 0.0884208 0.806099 0.497293
2313 1 0.0134828 0.835709 0.491864
2315 1 0.0265218 0.834768 0.495851
2244 1 0.0248794 0.825107 0.489969
2248 1 0.0523444 0.827779 0.497836
2246 1 0.0365423 0.824684 0.494729
2317 1 0.0401944 0.83614 0.499432
2312 1 0.00273869 0.844201 0.494039
2314 1 0.0168949 0.847398 0.498795
1428 1 0.207179 0.507923 0.501575
1430 1 0.215544 0.505973 0.508077
1499 1 0.213335 0.522838 0.506228
1500 1 0.221912 0.533802 0.508948
1498 1 0.21052 0.537213 0.502226
1569 1 0.217713 0.549671 0.506289
1568 1 0.212877 0.565144 0.504619
1637 1 0.211772 0.579384 0.501185
1639 1 0.220956 0.57827 0.509256
1638 1 0.217327 0.592967 0.506235
1707 1 0.21537 0.608519 0.501832
1708 1 0.221389 0.62204 0.506372
1777 1 0.217986 0.635635 0.502237
1776 1 0.212203 0.651271 0.500925
1778 1 0.220775 0.648807 0.508367
1847 1 0.212308 0.664138 0.507851
1845 1 0.204631 0.664182 0.50046
1846 1 0.207122 0.678711 0.505257
1915 1 0.202695 0.69516 0.501449
1917 1 0.21132 0.693462 0.509666
1916 1 0.204802 0.709305 0.507696
1985 1 0.199687 0.724065 0.505425
1984 1 0.190786 0.73685 0.505205
2052 1 0.173908 0.765113 0.50481
2053 1 0.181705 0.750911 0.505059
2121 1 0.166881 0.778257 0.50364
2123 1 0.17882 0.779669 0.509672
2187 1 0.13033 0.800379 0.502512
2118 1 0.142733 0.788948 0.500563
2120 1 0.158534 0.790853 0.504761
2189 1 0.145167 0.800729 0.507495
2251 1 0.0768255 0.815123 0.500638
2253 1 0.0930415 0.814872 0.50433
2184 1 0.103153 0.807916 0.501808
2255 1 0.106442 0.816966 0.509177
2186 1 0.118519 0.809759 0.505607
2188 1 0.133732 0.813517 0.508927
2319 1 0.0562956 0.837936 0.504144
2250 1 0.066852 0.825037 0.50155
2321 1 0.0697231 0.835234 0.508582
2252 1 0.0814933 0.824791 0.507602
2383 1 0.00234571 0.855873 0.500725
2316 1 0.0281597 0.846356 0.50282
2318 1 0.0433737 0.848129 0.50591
2385 1 0.0156469 0.857837 0.504786
2384 1 0.00305595 0.868441 0.507485
2387 1 0.0310523 0.857713 0.508538
1432 1 0.227239 0.504579 0.516004
1501 1 0.222196 0.517283 0.513438
1502 1 0.230561 0.5319 0.517333
1571 1 0.226368 0.54649 0.514697
1570 1 0.221327 0.561967 0.513043
1572 1 0.233755 0.560363 0.518285
1641 1 0.23011 0.576232 0.517761
1640 1 0.226101 0.591142 0.512967
1711 1 0.234402 0.601289 0.517686
1709 1 0.223027 0.607734 0.510707
1710 1 0.229594 0.617702 0.514927
1779 1 0.224224 0.633881 0.511297
1781 1 0.233125 0.630978 0.51912
1780 1 0.228821 0.647145 0.515771
1849 1 0.224269 0.663333 0.513739
1848 1 0.215823 0.67794 0.513513
1919 1 0.219861 0.690966 0.518241
1918 1 0.214171 0.705287 0.516367
1987 1 0.206817 0.72032 0.514767
2055 1 0.193523 0.749018 0.512341
1986 1 0.20184 0.735476 0.513184
2057 1 0.204132 0.749335 0.51987
2054 1 0.185394 0.763702 0.511637
2056 1 0.198097 0.762409 0.518355
2125 1 0.189724 0.776779 0.516667
2191 1 0.15984 0.801456 0.511812
2122 1 0.170504 0.791794 0.510305
2193 1 0.173469 0.802309 0.51864
2124 1 0.181152 0.78915 0.516966
2257 1 0.12067 0.819475 0.512999
2259 1 0.136098 0.820979 0.517847
2190 1 0.148406 0.813704 0.514132
2192 1 0.162686 0.813723 0.517685
2323 1 0.0824731 0.836127 0.514697
2254 1 0.094864 0.828133 0.511355
2325 1 0.0958567 0.834679 0.518914
2256 1 0.109634 0.826616 0.51691
2258 1 0.123974 0.831188 0.519146
2389 1 0.0447428 0.856929 0.512448
2320 1 0.0585118 0.846986 0.510691
2322 1 0.0707503 0.846401 0.514882
2386 1 0.0184622 0.866595 0.511433
2388 1 0.0322176 0.869059 0.51575
2390 1 0.0479507 0.8666 0.51964
2391 1 0.0583678 0.857666 0.518449
2455 1 0.00774289 0.880243 0.51306
2456 1 0.0107531 0.891251 0.516815
2457 1 0.0200812 0.879672 0.518758
2525 1 0.00137517 0.904358 0.51563
2736 1 0.000576781 0.999771 0.517464
1503 1 0.231727 0.517717 0.520882
1434 1 0.232502 0.50255 0.523814
1505 1 0.242602 0.515848 0.527902
1504 1 0.240037 0.529524 0.525367
1573 1 0.237639 0.546125 0.5218
1575 1 0.245609 0.544149 0.530507
1574 1 0.244039 0.558052 0.52552
1642 1 0.238448 0.588331 0.520567
1643 1 0.239853 0.573719 0.523977
1644 1 0.248957 0.587744 0.527947
1713 1 0.243424 0.603127 0.525342
1712 1 0.239106 0.615629 0.522068
1714 1 0.247697 0.616088 0.529432
1783 1 0.244522 0.629268 0.526672
1851 1 0.231673 0.660102 0.521684
1782 1 0.239535 0.645152 0.524094
1853 1 0.24078 0.657789 0.52955
1850 1 0.227062 0.675144 0.520873
1852 1 0.234334 0.671713 0.528773
1921 1 0.229629 0.687906 0.526274
1920 1 0.222058 0.703588 0.525011
1989 1 0.216284 0.717684 0.522209
1990 1 0.217437 0.730354 0.528805
1988 1 0.207958 0.732414 0.521632
2059 1 0.214815 0.744755 0.527873
2058 1 0.207896 0.760516 0.524453
2127 1 0.201502 0.773383 0.522803
2128 1 0.204576 0.785084 0.528108
2129 1 0.214306 0.769911 0.529897
2126 1 0.192141 0.787049 0.522708
2195 1 0.184381 0.800811 0.523467
2197 1 0.194996 0.798995 0.529589
2194 1 0.173429 0.812795 0.525778
2327 1 0.110069 0.83693 0.523039
2260 1 0.139257 0.831161 0.524224
2261 1 0.152163 0.823289 0.521811
2262 1 0.151921 0.83579 0.528138
2263 1 0.163822 0.824146 0.52838
2324 1 0.0848319 0.845416 0.521228
2393 1 0.0732748 0.856167 0.523354
2326 1 0.0985885 0.845967 0.526342
2329 1 0.124366 0.840114 0.526871
2328 1 0.113026 0.850162 0.529193
2392 1 0.0634006 0.86917 0.52299
2394 1 0.0752556 0.86855 0.52913
2395 1 0.0869751 0.857481 0.527955
2459 1 0.0365875 0.88017 0.520874
2461 1 0.0512212 0.880276 0.525598
2460 1 0.0404696 0.891855 0.526948
2527 1 0.0138171 0.905719 0.521131
2458 1 0.023959 0.893351 0.522575
2529 1 0.0294878 0.904506 0.524808
2462 1 0.054177 0.894395 0.530035
2526 1 0.00791195 0.918215 0.520979
2528 1 0.0221752 0.917465 0.525507
2530 1 0.0369998 0.919569 0.528809
2596 1 0.00180208 0.94414 0.5234
2597 1 0.00995978 0.929885 0.52413
2598 1 0.0177451 0.944546 0.52767
2599 1 0.0260336 0.929193 0.52851
2667 1 0.00626588 0.95806 0.527447
2669 1 0.0227912 0.959425 0.530534
2668 1 0.0136862 0.974401 0.527261
2670 1 0.0285985 0.97397 0.529163
2737 1 0.00823063 0.9863 0.522323
2739 1 0.0217779 0.987826 0.526816
2740 1 0.0328886 0.999631 0.522706
2741 1 0.0382178 0.987303 0.528983
2742 1 0.0486208 0.999837 0.527495
1436 1 0.243163 0.500803 0.531457
1507 1 0.251794 0.515958 0.534696
1438 1 0.255642 0.501003 0.537592
4201 1 0.494766 0.501537 0.530735
1470 1 0.491033 0.512838 0.538194
1506 1 0.247424 0.529104 0.533174
1508 1 0.258363 0.52936 0.53945
4271 1 0.498799 0.52476 0.540377
1577 1 0.252927 0.543678 0.536339
1576 1 0.251843 0.557209 0.533267
1647 1 0.25475 0.570749 0.538785
1645 1 0.248022 0.571723 0.530667
1646 1 0.254687 0.584311 0.536551
1715 1 0.252562 0.600727 0.532525
1716 1 0.254185 0.612974 0.537613
1784 1 0.246729 0.642505 0.532702
1785 1 0.251068 0.627557 0.535042
1855 1 0.249579 0.655871 0.537656
1854 1 0.245674 0.669498 0.534321
1923 1 0.23865 0.684275 0.533462
1925 1 0.250862 0.682399 0.540447
1991 1 0.224896 0.714261 0.531045
1922 1 0.232241 0.699887 0.533177
1993 1 0.235834 0.709397 0.538502
1992 1 0.2295 0.726344 0.536003
2061 1 0.223214 0.741655 0.535643
2060 1 0.218867 0.754984 0.532249
2062 1 0.230393 0.75176 0.540152
2131 1 0.223968 0.767083 0.538105
2130 1 0.214704 0.780874 0.535258
2199 1 0.207386 0.794527 0.53516
2196 1 0.183254 0.80928 0.531683
2267 1 0.18704 0.81976 0.539182
2198 1 0.196466 0.807135 0.537947
2265 1 0.17671 0.823599 0.533422
2264 1 0.164704 0.834669 0.534675
2266 1 0.176808 0.833745 0.540081
2330 1 0.126777 0.853091 0.534137
2331 1 0.139617 0.842224 0.531648
2332 1 0.141568 0.854523 0.537847
2333 1 0.152851 0.845154 0.5367
2396 1 0.0897689 0.869788 0.533538
2397 1 0.102256 0.861585 0.531444
2398 1 0.104709 0.871168 0.538983
2399 1 0.117374 0.861498 0.536571
2401 1 0.130666 0.862184 0.540769
2463 1 0.0657268 0.880964 0.530698
2465 1 0.0796986 0.881991 0.536001
2467 1 0.0920943 0.882844 0.540734
2531 1 0.0433507 0.906536 0.53142
2533 1 0.0583539 0.907609 0.534922
2464 1 0.0672408 0.893374 0.536095
2535 1 0.0713555 0.908891 0.539659
2466 1 0.0803655 0.895111 0.540778
2532 1 0.049325 0.920949 0.534313
2534 1 0.0630242 0.921453 0.539465
2600 1 0.0282972 0.945313 0.533024
2601 1 0.0392518 0.933609 0.534696
2603 1 0.0532569 0.93464 0.53772
2602 1 0.0447219 0.947574 0.536658
2671 1 0.0374325 0.960227 0.533632
2673 1 0.0521406 0.959919 0.53764
2672 1 0.0447133 0.972756 0.532788
2674 1 0.0609202 0.973944 0.536746
2676 1 0.0768963 0.975287 0.539653
2743 1 0.0552893 0.987414 0.531878
2745 1 0.0703454 0.98816 0.534941
2747 1 0.0857441 0.990716 0.537753
2754 1 0.142287 0.9999 0.538909
2752 1 0.127595 0.998926 0.539153
2756 1 0.157426 0.998272 0.54041
1509 1 0.262173 0.515187 0.542734
1511 1 0.274763 0.510888 0.547332
1464 1 0.446135 0.502278 0.549339
1466 1 0.462331 0.505109 0.546319
1468 1 0.475887 0.508086 0.541512
1510 1 0.270281 0.528047 0.545167
1512 1 0.283066 0.52262 0.550124
1537 1 0.471099 0.520102 0.548305
1539 1 0.485327 0.522101 0.544618
1540 1 0.494477 0.533724 0.547633
1579 1 0.264598 0.541239 0.542738
1580 1 0.273875 0.553262 0.547424
1581 1 0.277673 0.540089 0.549573
1578 1 0.258696 0.555244 0.542359
1649 1 0.265861 0.567602 0.546438
1648 1 0.260765 0.582312 0.544044
1650 1 0.271076 0.578416 0.550026
1717 1 0.258499 0.598187 0.541924
1719 1 0.266234 0.595895 0.549077
1718 1 0.262512 0.611345 0.544795
1787 1 0.257154 0.62483 0.542902
1789 1 0.269539 0.623226 0.550151
1786 1 0.256083 0.64153 0.541166
1788 1 0.267262 0.637193 0.546279
1857 1 0.260934 0.653216 0.545185
1856 1 0.254991 0.667011 0.542407
1858 1 0.267955 0.666573 0.550009
1927 1 0.262567 0.679982 0.547252
1926 1 0.257632 0.694271 0.547242
1924 1 0.242593 0.696924 0.540893
1995 1 0.247974 0.707979 0.544892
1997 1 0.260764 0.708903 0.550156
1994 1 0.239871 0.723168 0.542266
1996 1 0.250838 0.721255 0.549481
2063 1 0.233993 0.738064 0.541902
2065 1 0.242367 0.734497 0.549208
2064 1 0.240395 0.750492 0.547063
2133 1 0.236876 0.765269 0.545167
2132 1 0.225731 0.778858 0.543252
2134 1 0.239063 0.778326 0.549055
2200 1 0.210629 0.802893 0.543104
2201 1 0.219709 0.791214 0.542438
2202 1 0.222478 0.802841 0.54962
2203 1 0.231659 0.791471 0.5495
2269 1 0.200233 0.816873 0.545712
2271 1 0.213239 0.815926 0.549525
2268 1 0.190639 0.831558 0.546009
2334 1 0.155338 0.854525 0.544272
2335 1 0.165064 0.844957 0.542021
2336 1 0.168355 0.854003 0.54961
2337 1 0.180332 0.846142 0.546282
2400 1 0.119206 0.872542 0.542743
2403 1 0.142518 0.865669 0.544345
2405 1 0.157242 0.866951 0.549007
2469 1 0.106466 0.884933 0.544788
2471 1 0.12174 0.888019 0.548538
2402 1 0.133115 0.876298 0.546069
2404 1 0.146821 0.879656 0.550385
2537 1 0.0861407 0.909885 0.545055
2468 1 0.0955257 0.89843 0.545246
2539 1 0.100659 0.910006 0.550245
2470 1 0.110417 0.896945 0.550244
2536 1 0.0774441 0.921875 0.544393
2538 1 0.0903626 0.924347 0.549771
2605 1 0.067216 0.935004 0.54273
2607 1 0.0814487 0.935391 0.549163
2604 1 0.0593484 0.947599 0.541493
2675 1 0.0676383 0.961304 0.543067
2606 1 0.0740882 0.948853 0.545504
2608 1 0.088867 0.948881 0.549739
2679 1 0.0974934 0.964196 0.549833
2677 1 0.0828119 0.964587 0.545275
2678 1 0.091276 0.978062 0.544143
2680 1 0.108031 0.978244 0.547604
2682 1 0.123756 0.979899 0.549457
2749 1 0.101218 0.991223 0.541381
2751 1 0.116043 0.992595 0.544306
2753 1 0.132667 0.990334 0.545637
2755 1 0.147788 0.989373 0.545651
2757 1 0.163659 0.989449 0.54652
2758 1 0.172774 0.998942 0.54289
2760 1 0.188193 0.997798 0.544456
2762 1 0.204553 0.998326 0.547753
1513 1 0.287424 0.508199 0.552511
1515 1 0.301137 0.508591 0.558614
1531 1 0.424788 0.510774 0.559711
1533 1 0.440006 0.511706 0.556496
1535 1 0.457205 0.51422 0.55352
1514 1 0.294194 0.520628 0.556948
1585 1 0.300541 0.533925 0.560879
1534 1 0.450587 0.525322 0.559988
1536 1 0.466078 0.528493 0.555367
1538 1 0.480564 0.531786 0.551626
1582 1 0.285015 0.552042 0.553044
1583 1 0.28737 0.536608 0.556456
1584 1 0.29677 0.549804 0.559955
1607 1 0.474654 0.539618 0.559524
1609 1 0.489381 0.544932 0.555003
1651 1 0.279808 0.564554 0.552472
1653 1 0.291423 0.564038 0.55985
1610 1 0.497237 0.555495 0.557797
1652 1 0.285671 0.577249 0.555999
1721 1 0.276603 0.593066 0.555741
1722 1 0.285682 0.605769 0.558557
1723 1 0.291372 0.592276 0.559587
1720 1 0.27239 0.607753 0.55329
1791 1 0.280681 0.621618 0.5559
1790 1 0.278193 0.635099 0.553655
1792 1 0.287513 0.634305 0.561034
1859 1 0.274138 0.651799 0.551031
1861 1 0.283187 0.649029 0.558199
1860 1 0.279851 0.664305 0.556658
1931 1 0.286568 0.678337 0.560296
1928 1 0.268586 0.693847 0.552922
1929 1 0.274968 0.681635 0.554783
1930 1 0.280689 0.694391 0.557952
1999 1 0.27159 0.70647 0.557667
1998 1 0.265379 0.719412 0.555607
2066 1 0.248912 0.746817 0.554618
2067 1 0.254323 0.732351 0.556209
2135 1 0.243946 0.763085 0.553303
2136 1 0.249525 0.774835 0.557984
2204 1 0.235696 0.802648 0.556048
2205 1 0.245056 0.788139 0.555988
2206 1 0.250593 0.798463 0.561119
2273 1 0.227814 0.815738 0.554994
2270 1 0.203286 0.830567 0.551701
2272 1 0.216906 0.828236 0.55523
2274 1 0.229223 0.827638 0.560736
2339 1 0.192142 0.841885 0.551881
2338 1 0.180925 0.854902 0.554588
2340 1 0.195674 0.853818 0.558171
2341 1 0.205705 0.84146 0.55674
2407 1 0.170951 0.8654 0.555848
2409 1 0.185132 0.867435 0.561067
2473 1 0.13679 0.887651 0.552475
2475 1 0.149106 0.890769 0.557565
2406 1 0.159384 0.875981 0.556979
2472 1 0.125839 0.901615 0.554459
2474 1 0.140318 0.901683 0.558105
2540 1 0.106247 0.922729 0.554736
2541 1 0.117122 0.911129 0.553721
2542 1 0.121024 0.925539 0.558638
2543 1 0.13102 0.914355 0.557852
2544 1 0.137576 0.928388 0.56072
2609 1 0.0973533 0.937352 0.553656
2611 1 0.111635 0.939375 0.55618
2610 1 0.103267 0.953184 0.552982
2612 1 0.120898 0.952568 0.555138
2614 1 0.136632 0.954955 0.558623
2681 1 0.113099 0.967459 0.552459
2684 1 0.138937 0.9802 0.55196
2683 1 0.128616 0.96552 0.553392
2685 1 0.145763 0.968903 0.557192
2686 1 0.15607 0.977727 0.552209
2687 1 0.162806 0.968906 0.559717
2688 1 0.170635 0.977839 0.553492
2690 1 0.188303 0.981034 0.556708
2689 1 0.179302 0.969661 0.560403
2692 1 0.203256 0.98161 0.559814
2759 1 0.179335 0.9912 0.55147
2761 1 0.194825 0.992223 0.552883
2763 1 0.21116 0.992787 0.55584
2765 1 0.226303 0.992276 0.558292
2767 1 0.24139 0.992061 0.55943
2772 1 0.283589 0.998943 0.557307
2774 1 0.301104 0.999694 0.559079
1517 1 0.316522 0.507473 0.563751
1519 1 0.33228 0.507669 0.565109
1521 1 0.347765 0.506622 0.565933
1523 1 0.364773 0.504705 0.567602
1525 1 0.381043 0.505371 0.565868
1526 1 0.389025 0.517675 0.567682
1527 1 0.395847 0.502311 0.563641
1529 1 0.411073 0.506198 0.562144
1516 1 0.309792 0.521758 0.561873
1587 1 0.31618 0.533743 0.564359
1518 1 0.325078 0.519267 0.566961
1589 1 0.331803 0.53315 0.568264
1520 1 0.340596 0.520037 0.567622
1591 1 0.3484 0.531349 0.570903
1522 1 0.355718 0.518592 0.568837
1524 1 0.373194 0.518247 0.569448
1593 1 0.364086 0.530649 0.570293
1595 1 0.381582 0.533223 0.57107
1528 1 0.404579 0.51856 0.567319
1530 1 0.419504 0.52067 0.565658
1601 1 0.427954 0.53499 0.569783
1599 1 0.412878 0.532367 0.570252
1532 1 0.435698 0.523698 0.563383
1586 1 0.30786 0.549806 0.563909
1588 1 0.32395 0.548298 0.568509
1590 1 0.341798 0.545771 0.570307
1603 1 0.442957 0.53689 0.56596
1602 1 0.434915 0.547249 0.571353
1605 1 0.458768 0.536509 0.562843
1604 1 0.451483 0.546435 0.568648
1606 1 0.467081 0.548066 0.565561
1608 1 0.481446 0.552755 0.561434
1655 1 0.305316 0.562635 0.562889
1657 1 0.31859 0.561236 0.566685
1659 1 0.334615 0.559845 0.56932
1677 1 0.475657 0.562821 0.568721
1679 1 0.488744 0.563486 0.564628
1654 1 0.298637 0.57752 0.561481
1656 1 0.313441 0.574615 0.566469
1658 1 0.329147 0.573951 0.570486
1727 1 0.321841 0.589047 0.568578
1680 1 0.499407 0.572822 0.569423
1724 1 0.300673 0.603842 0.56295
1725 1 0.306568 0.59005 0.564875
1726 1 0.314779 0.603449 0.567643
1793 1 0.293125 0.620006 0.561979
1795 1 0.307083 0.618529 0.567023
1797 1 0.322665 0.615883 0.570394
1794 1 0.301406 0.633335 0.566352
1796 1 0.316513 0.629422 0.569143
1863 1 0.2954 0.645843 0.564377
1865 1 0.310236 0.645142 0.569582
1866 1 0.316969 0.658957 0.570158
1864 1 0.304207 0.66026 0.565963
1862 1 0.289736 0.661862 0.561812
1933 1 0.298024 0.675754 0.565313
1935 1 0.312915 0.6751 0.568988
1932 1 0.293097 0.692635 0.563946
1934 1 0.306244 0.688172 0.568711
2001 1 0.283978 0.704161 0.564257
2003 1 0.298689 0.703487 0.568541
2069 1 0.267826 0.731553 0.561896
2000 1 0.27619 0.717987 0.563095
2071 1 0.282156 0.728814 0.56793
2002 1 0.290201 0.714821 0.569143
2068 1 0.259861 0.745417 0.56165
2070 1 0.273539 0.744115 0.568141
2137 1 0.252214 0.75992 0.561756
2139 1 0.264052 0.758773 0.567048
2141 1 0.280092 0.756124 0.571085
2138 1 0.259033 0.770482 0.565155
2209 1 0.266015 0.782132 0.570155
2207 1 0.25629 0.785215 0.563341
2208 1 0.259615 0.797839 0.567782
2275 1 0.239467 0.812488 0.561455
2277 1 0.253618 0.814363 0.565708
2276 1 0.243833 0.826503 0.565364
2278 1 0.258085 0.827571 0.571324
2342 1 0.211006 0.853627 0.562703
2343 1 0.220926 0.841247 0.561764
2344 1 0.224262 0.85413 0.567042
2345 1 0.232815 0.840148 0.566804
2411 1 0.198854 0.864577 0.565097
2413 1 0.213523 0.865028 0.569054
2408 1 0.175582 0.878281 0.562261
2477 1 0.164695 0.886838 0.562254
2410 1 0.18986 0.878094 0.566536
2479 1 0.17915 0.891659 0.566883
2476 1 0.157394 0.90055 0.561417
2478 1 0.168843 0.900997 0.565169
2480 1 0.185754 0.903423 0.570654
2545 1 0.146707 0.913274 0.562045
2547 1 0.16129 0.916497 0.564402
2549 1 0.17504 0.915346 0.56986
2550 1 0.1831 0.928401 0.570988
2590 1 0.497561 0.928346 0.568978
2613 1 0.126987 0.940085 0.561407
2546 1 0.151779 0.929947 0.563894
2615 1 0.14364 0.942863 0.56272
2617 1 0.159701 0.943593 0.566678
2548 1 0.167303 0.930346 0.567662
2619 1 0.176683 0.94235 0.568046
2621 1 0.190348 0.9441 0.570181
2616 1 0.151971 0.956975 0.562203
2618 1 0.16922 0.955518 0.563531
2620 1 0.184628 0.957615 0.566132
2622 1 0.199337 0.957658 0.568844
2624 1 0.214904 0.959366 0.570875
2691 1 0.193554 0.969952 0.563968
2693 1 0.207926 0.972526 0.566166
2694 1 0.218786 0.981839 0.562112
2695 1 0.222173 0.970945 0.569791
2697 1 0.238632 0.971265 0.571057
2729 1 0.495071 0.971369 0.569243
2696 1 0.2318 0.9828 0.564148
2698 1 0.248688 0.983236 0.567404
2700 1 0.2642 0.983719 0.570073
2769 1 0.257606 0.990667 0.562409
2771 1 0.27551 0.992008 0.563834
2702 1 0.281943 0.983809 0.570872
2773 1 0.290014 0.992236 0.566024
2775 1 0.306884 0.992599 0.567883
2777 1 0.323304 0.992347 0.567217
2779 1 0.339711 0.994727 0.570035
2726 1 0.47492 0.983338 0.570017
2795 1 0.468461 0.997829 0.570479
2728 1 0.488293 0.983949 0.568615
2797 1 0.48338 0.997876 0.567217
2799 1 0.497998 0.998432 0.566119
1597 1 0.396774 0.530376 0.571768
1592 1 0.359288 0.545344 0.572757
1594 1 0.37349 0.5451 0.572958
1596 1 0.390367 0.544725 0.574831
1598 1 0.40595 0.543612 0.57411
1600 1 0.420192 0.544368 0.574669
1661 1 0.351066 0.558742 0.571668
1663 1 0.367154 0.560024 0.573498
1665 1 0.381106 0.559724 0.575607
1667 1 0.397393 0.558532 0.577924
1669 1 0.412851 0.558692 0.576169
1671 1 0.42742 0.560138 0.574506
1673 1 0.444473 0.559905 0.57378
1675 1 0.458833 0.55979 0.571568
1729 1 0.336192 0.588178 0.572373
1660 1 0.344074 0.572542 0.573586
1731 1 0.350866 0.588153 0.574412
1662 1 0.359978 0.572704 0.574825
1733 1 0.36702 0.586248 0.574895
1666 1 0.388902 0.573786 0.578435
1664 1 0.375255 0.573809 0.575383
1735 1 0.384766 0.58793 0.575339
1668 1 0.40499 0.57342 0.579797
1737 1 0.397871 0.586896 0.578376
1670 1 0.423291 0.572105 0.579703
1739 1 0.415104 0.585487 0.581098
1672 1 0.436498 0.572167 0.577214
1743 1 0.446389 0.586618 0.579599
1674 1 0.451662 0.574244 0.575623
1745 1 0.460445 0.588628 0.578601
1676 1 0.466033 0.573152 0.574121
1747 1 0.476496 0.586489 0.576454
1678 1 0.482802 0.573614 0.572486
1749 1 0.492838 0.586269 0.573776
1728 1 0.329019 0.604216 0.572302
1730 1 0.341195 0.602204 0.574454
1732 1 0.358878 0.601297 0.574997
1734 1 0.374848 0.601288 0.578412
1736 1 0.391782 0.601625 0.579097
1738 1 0.407265 0.599968 0.581312
1744 1 0.454963 0.601777 0.580975
1746 1 0.470108 0.60046 0.581199
1748 1 0.485015 0.598484 0.579477
1799 1 0.337735 0.616621 0.574531
1801 1 0.352403 0.615068 0.576404
1803 1 0.368078 0.613492 0.577714
1805 1 0.383423 0.613754 0.580006
1807 1 0.400644 0.612447 0.581625
1819 1 0.494157 0.613811 0.580685
1798 1 0.331119 0.630598 0.572173
1800 1 0.345383 0.62941 0.575376
1871 1 0.352644 0.642547 0.578012
1802 1 0.361474 0.628914 0.578713
1804 1 0.37506 0.629552 0.581149
1806 1 0.390492 0.625337 0.581028
1867 1 0.325195 0.644169 0.571777
1868 1 0.333061 0.657716 0.572799
1869 1 0.339473 0.644843 0.574258
1870 1 0.346917 0.656835 0.578013
1873 1 0.366546 0.643086 0.581162
1937 1 0.325021 0.67136 0.572713
1939 1 0.340567 0.669958 0.576166
1941 1 0.356263 0.670407 0.580088
1936 1 0.320679 0.686415 0.572423
1938 1 0.332657 0.684718 0.57491
2009 1 0.339172 0.69495 0.580169
1940 1 0.348132 0.68198 0.579549
2005 1 0.312713 0.701952 0.573056
2006 1 0.316988 0.712113 0.577869
2007 1 0.326688 0.698732 0.577132
2008 1 0.330406 0.709986 0.581366
2073 1 0.297308 0.72941 0.572717
2004 1 0.304733 0.715963 0.57504
2075 1 0.310506 0.727814 0.578158
2072 1 0.288755 0.743272 0.572398
2074 1 0.302721 0.742075 0.57748
2143 1 0.293248 0.755423 0.577495
2144 1 0.298717 0.766995 0.581562
2145 1 0.307326 0.754399 0.580431
2140 1 0.271551 0.768316 0.571889
2211 1 0.277152 0.782708 0.57546
2142 1 0.284918 0.769334 0.577801
2213 1 0.292471 0.783192 0.579731
2210 1 0.268132 0.797013 0.575736
2212 1 0.282179 0.796694 0.58014
2279 1 0.262972 0.813071 0.573228
2281 1 0.274749 0.810335 0.579108
2347 1 0.248337 0.838365 0.571939
2349 1 0.261186 0.838555 0.577818
2280 1 0.269609 0.824128 0.578181
2346 1 0.238264 0.852768 0.573375
2348 1 0.250314 0.849852 0.578557
2415 1 0.229276 0.865461 0.573883
2414 1 0.22006 0.874338 0.575195
2417 1 0.241102 0.864287 0.579197
2481 1 0.194682 0.887921 0.57157
2412 1 0.206477 0.876358 0.571712
2483 1 0.211522 0.888502 0.574923
2485 1 0.22434 0.888068 0.580182
2416 1 0.234225 0.876603 0.57989
2519 1 0.490597 0.888751 0.577827
2482 1 0.20167 0.90175 0.574523
2484 1 0.218288 0.903141 0.577506
2516 1 0.471081 0.902647 0.581001
2520 1 0.499322 0.900239 0.574271
2518 1 0.483914 0.900914 0.576844
2551 1 0.190991 0.915756 0.572852
2553 1 0.209472 0.916699 0.576127
2555 1 0.224324 0.915916 0.57941
2557 1 0.241002 0.918413 0.580842
2585 1 0.461758 0.915233 0.578242
2587 1 0.47697 0.913997 0.576181
2589 1 0.490864 0.914074 0.572218
2588 1 0.484931 0.927964 0.573015
2552 1 0.199262 0.931131 0.574029
2623 1 0.206202 0.943888 0.572173
2554 1 0.215418 0.930187 0.57607
2556 1 0.231663 0.931682 0.579246
2625 1 0.222508 0.944396 0.574626
2627 1 0.238195 0.946274 0.57757
2558 1 0.248649 0.933737 0.581569
2582 1 0.440219 0.930539 0.581531
2653 1 0.450588 0.943254 0.578761
2655 1 0.46408 0.942895 0.576989
2584 1 0.455885 0.929656 0.578711
2586 1 0.471399 0.929562 0.575014
2657 1 0.478261 0.943917 0.572287
2659 1 0.494144 0.942161 0.572008
2626 1 0.230933 0.95939 0.574715
2628 1 0.245744 0.960533 0.576409
2629 1 0.253925 0.946456 0.581244
2630 1 0.261958 0.961104 0.57863
2632 1 0.278259 0.959416 0.580348
2634 1 0.295346 0.960252 0.581439
2648 1 0.407621 0.961714 0.581357
2652 1 0.441804 0.957593 0.580818
2654 1 0.458607 0.957938 0.577731
2656 1 0.47382 0.954966 0.575821
2658 1 0.490387 0.956451 0.572081
2699 1 0.253768 0.973453 0.573644
2701 1 0.271209 0.972354 0.576059
2703 1 0.286595 0.972104 0.576718
2705 1 0.303686 0.973368 0.576505
2707 1 0.321587 0.971894 0.57828
2709 1 0.337231 0.973364 0.580102
2719 1 0.416551 0.974353 0.580426
2721 1 0.43346 0.972375 0.578382
2723 1 0.450016 0.971931 0.577265
2727 1 0.48162 0.967718 0.571591
2725 1 0.466713 0.971663 0.574665
2704 1 0.297975 0.982671 0.57323
2706 1 0.314289 0.983739 0.571648
2708 1 0.331195 0.983784 0.573572
2781 1 0.354376 0.997782 0.575307
2710 1 0.346163 0.98521 0.576551
2783 1 0.368481 0.999254 0.578149
2718 1 0.40885 0.988441 0.580423
2720 1 0.424507 0.987135 0.576604
2789 1 0.418803 0.997904 0.577999
2722 1 0.441326 0.984137 0.575277
2791 1 0.435715 0.998485 0.573693
2724 1 0.458658 0.985598 0.573536
2793 1 0.452122 0.996104 0.572708
1741 1 0.431412 0.58408 0.582244
1740 1 0.423249 0.597335 0.583159
1742 1 0.441375 0.597648 0.583775
1808 1 0.406527 0.624732 0.584255
1809 1 0.416539 0.612189 0.583452
1811 1 0.432372 0.611427 0.584102
1812 1 0.438461 0.624834 0.589735
1815 1 0.462347 0.614121 0.584182
1813 1 0.446837 0.612605 0.584857
1817 1 0.480112 0.613183 0.582648
1875 1 0.383849 0.640897 0.583365
1877 1 0.401748 0.638641 0.584304
1810 1 0.423234 0.62665 0.584322
1879 1 0.413815 0.638181 0.587667
1881 1 0.428873 0.638592 0.590898
1883 1 0.445832 0.638866 0.590898
1814 1 0.455863 0.625088 0.588198
1885 1 0.461454 0.637788 0.588905
1816 1 0.470391 0.625574 0.586372
1887 1 0.479562 0.638374 0.588621
1818 1 0.48642 0.626605 0.584997
1889 1 0.497075 0.635976 0.587786
1872 1 0.360876 0.657071 0.581984
1874 1 0.377895 0.655402 0.583159
1876 1 0.394755 0.653597 0.585263
1878 1 0.409206 0.653031 0.588836
1880 1 0.423666 0.650775 0.591566
1884 1 0.45581 0.652801 0.590611
1888 1 0.487667 0.650123 0.591491
1943 1 0.367842 0.667459 0.585246
1945 1 0.385268 0.6675 0.587571
1947 1 0.401661 0.668334 0.58951
1942 1 0.363663 0.682408 0.585166
2013 1 0.36955 0.695034 0.5891
1944 1 0.378871 0.68038 0.588338
2015 1 0.385668 0.695023 0.590904
1946 1 0.392932 0.683201 0.590429
2011 1 0.354375 0.696674 0.584332
2010 1 0.344546 0.710649 0.583529
2012 1 0.360282 0.709178 0.587796
2014 1 0.375654 0.707228 0.590445
2077 1 0.323253 0.725779 0.582652
2079 1 0.337603 0.722338 0.585847
2081 1 0.351758 0.72211 0.589205
2083 1 0.368394 0.722814 0.590568
2099 1 0.493566 0.722646 0.590719
2076 1 0.315365 0.741269 0.584312
2078 1 0.33028 0.738855 0.586252
2080 1 0.343628 0.738382 0.589642
2098 1 0.486602 0.737014 0.591099
2147 1 0.323171 0.755081 0.58522
2149 1 0.33737 0.751605 0.588325
2148 1 0.329491 0.76769 0.587799
2150 1 0.344616 0.765166 0.591213
2169 1 0.494692 0.750667 0.589207
2168 1 0.487059 0.764955 0.590023
2146 1 0.315469 0.768143 0.583457
2215 1 0.306826 0.782205 0.5839
2217 1 0.321989 0.781645 0.588022
2219 1 0.335684 0.780518 0.591163
2237 1 0.480969 0.778606 0.590699
2239 1 0.494866 0.779148 0.586798
2214 1 0.299235 0.797922 0.583263
2216 1 0.315139 0.795252 0.587124
2218 1 0.330599 0.795592 0.590789
2238 1 0.488297 0.791363 0.590752
2283 1 0.289041 0.81067 0.583931
2285 1 0.306541 0.809318 0.587228
2286 1 0.313156 0.821232 0.589386
2287 1 0.323423 0.807624 0.590277
2309 1 0.495451 0.804345 0.589216
2308 1 0.488967 0.818335 0.591596
2351 1 0.274627 0.837648 0.583406
2282 1 0.282723 0.825221 0.582736
2284 1 0.296427 0.823048 0.586961
2353 1 0.289456 0.835927 0.588572
2355 1 0.304433 0.834225 0.58979
2357 1 0.319552 0.837372 0.590649
2288 1 0.329393 0.82287 0.591355
2359 1 0.337263 0.836534 0.590745
2377 1 0.480959 0.832553 0.591434
2379 1 0.494045 0.831657 0.586853
2350 1 0.26627 0.849749 0.583395
2352 1 0.281112 0.850629 0.588081
2376 1 0.473494 0.849058 0.591724
2378 1 0.488723 0.847366 0.587862
2419 1 0.257051 0.861871 0.584197
2421 1 0.272799 0.862729 0.587472
2423 1 0.288792 0.864172 0.590545
2445 1 0.464205 0.862026 0.590296
2447 1 0.480168 0.862218 0.586207
2449 1 0.495452 0.860086 0.582666
2448 1 0.488121 0.874531 0.582505
2487 1 0.240297 0.888073 0.58348
2418 1 0.248533 0.875309 0.584023
2420 1 0.2651 0.876908 0.586931
2489 1 0.257989 0.889862 0.586161
2422 1 0.279701 0.876943 0.59053
2491 1 0.270219 0.890884 0.590534
2493 1 0.287855 0.890954 0.591564
2499 1 0.335652 0.892428 0.590555
2444 1 0.457639 0.876705 0.588951
2513 1 0.447357 0.890531 0.587509
2515 1 0.461811 0.889695 0.583504
2446 1 0.471462 0.876346 0.585918
2517 1 0.478018 0.886466 0.582254
2486 1 0.232091 0.902561 0.582048
2488 1 0.247595 0.903876 0.583818
2490 1 0.264007 0.905304 0.586925
2492 1 0.280291 0.904757 0.590603
2500 1 0.343978 0.907899 0.590571
2502 1 0.361932 0.907428 0.590651
2504 1 0.376337 0.908583 0.591179
2508 1 0.407481 0.907622 0.591116
2510 1 0.423453 0.907236 0.590973
2512 1 0.439788 0.90607 0.587732
2514 1 0.453869 0.903112 0.582452
2559 1 0.254907 0.918829 0.584564
2561 1 0.272329 0.91874 0.587428
2563 1 0.286949 0.919513 0.589859
2565 1 0.303633 0.920401 0.590714
2567 1 0.319209 0.919818 0.591127
2569 1 0.33546 0.922484 0.589462
2571 1 0.352159 0.920113 0.590529
2573 1 0.366744 0.920687 0.588526
2575 1 0.384188 0.921881 0.590808
2577 1 0.400112 0.923633 0.590893
2579 1 0.414365 0.920849 0.587985
2581 1 0.430522 0.920777 0.585876
2583 1 0.446026 0.916654 0.582017
2560 1 0.264 0.932683 0.584532
2562 1 0.279177 0.933311 0.586165
2564 1 0.296679 0.932766 0.588499
2633 1 0.286349 0.945886 0.584866
2566 1 0.311238 0.935094 0.590158
2568 1 0.326446 0.934513 0.588433
2570 1 0.34326 0.935341 0.590549
2572 1 0.358257 0.93231 0.588418
2574 1 0.374942 0.933604 0.589289
2576 1 0.391791 0.937161 0.587642
2578 1 0.408221 0.934706 0.586505
2580 1 0.425733 0.933389 0.584841
2651 1 0.434499 0.944386 0.581961
2631 1 0.270207 0.946781 0.582959
2635 1 0.302225 0.947583 0.586561
2636 1 0.311688 0.961919 0.583057
2637 1 0.317755 0.950026 0.586656
2639 1 0.334707 0.948505 0.58692
2638 1 0.328061 0.961272 0.584419
2641 1 0.352154 0.949364 0.587751
2640 1 0.341357 0.962426 0.58416
2643 1 0.368206 0.94715 0.587601
2642 1 0.359065 0.962466 0.585932
2645 1 0.384105 0.946963 0.586713
2644 1 0.376157 0.962493 0.586508
2646 1 0.392256 0.962152 0.585758
2647 1 0.401329 0.948936 0.584659
2649 1 0.418107 0.947113 0.583178
2650 1 0.424009 0.959426 0.581798
2711 1 0.353951 0.974018 0.581897
2713 1 0.369696 0.976241 0.584857
2715 1 0.386385 0.976593 0.585207
2717 1 0.401028 0.975601 0.582546
2712 1 0.360813 0.985789 0.581821
2714 1 0.374677 0.989349 0.58214
2716 1 0.393027 0.991066 0.582145
1882 1 0.439594 0.652938 0.592245
1886 1 0.471392 0.650884 0.592
1949 1 0.415265 0.665982 0.592046
1951 1 0.431294 0.665828 0.592996
1953 1 0.447513 0.666608 0.593944
1955 1 0.463451 0.666889 0.593809
1957 1 0.4793 0.66527 0.593851
1959 1 0.496539 0.664662 0.591908
1948 1 0.408185 0.681563 0.592889
2017 1 0.401648 0.694813 0.592046
1950 1 0.423133 0.680159 0.593619
2019 1 0.416371 0.696306 0.596236
1952 1 0.439964 0.681297 0.595177
2021 1 0.432468 0.695655 0.596805
1954 1 0.456466 0.681838 0.595957
2025 1 0.464175 0.69549 0.598156
2023 1 0.447594 0.695316 0.598341
2027 1 0.480661 0.694713 0.596588
1956 1 0.47274 0.680351 0.596317
2029 1 0.49503 0.693972 0.592667
1958 1 0.488466 0.680447 0.593899
2016 1 0.392613 0.708292 0.594313
2018 1 0.407933 0.709308 0.594605
2020 1 0.424227 0.708289 0.598555
2022 1 0.439312 0.709746 0.598732
2024 1 0.455211 0.709649 0.597809
2026 1 0.471164 0.707493 0.595843
2028 1 0.487382 0.707137 0.594323
2085 1 0.382452 0.723057 0.592721
2087 1 0.398694 0.721907 0.595303
2089 1 0.415014 0.722813 0.59814
2091 1 0.430286 0.723077 0.59813
2093 1 0.447099 0.722277 0.596777
2095 1 0.462318 0.720848 0.595487
2097 1 0.479697 0.722845 0.594344
2151 1 0.351516 0.749266 0.592309
2082 1 0.359863 0.73693 0.592507
2084 1 0.374601 0.735935 0.594407
2086 1 0.391724 0.736181 0.594854
2155 1 0.383519 0.748656 0.596019
2088 1 0.40665 0.737551 0.596902
2090 1 0.423159 0.736425 0.598827
2092 1 0.439969 0.737295 0.596664
2094 1 0.456333 0.737653 0.596482
2096 1 0.472229 0.736715 0.595239
2152 1 0.35942 0.764262 0.592893
2153 1 0.368329 0.751072 0.595209
2154 1 0.376742 0.763672 0.595184
2156 1 0.391559 0.764039 0.597672
2157 1 0.399698 0.751786 0.596876
2158 1 0.405855 0.765836 0.598006
2159 1 0.416249 0.751947 0.597591
2160 1 0.423325 0.764391 0.599194
2161 1 0.4326 0.75092 0.597937
2162 1 0.440687 0.765339 0.597069
2163 1 0.4472 0.751569 0.597277
2165 1 0.463778 0.752444 0.595564
2164 1 0.455701 0.764226 0.595957
2167 1 0.478842 0.750852 0.591867
2166 1 0.471983 0.765359 0.593697
2221 1 0.352805 0.779747 0.593434
2223 1 0.369596 0.778499 0.593646
2225 1 0.384494 0.779158 0.597077
2227 1 0.400739 0.778991 0.597426
2229 1 0.417077 0.779818 0.598898
2231 1 0.431302 0.778877 0.598897
2233 1 0.449044 0.779957 0.597795
2235 1 0.464437 0.778874 0.59478
2220 1 0.344765 0.795471 0.592608
2222 1 0.361548 0.794419 0.594669
2224 1 0.377022 0.793544 0.595684
2226 1 0.393718 0.792074 0.597216
2228 1 0.407704 0.795126 0.598002
2230 1 0.424946 0.793984 0.597173
2232 1 0.439828 0.792399 0.597705
2234 1 0.457959 0.793859 0.597542
2236 1 0.473411 0.793646 0.592815
2289 1 0.336203 0.809945 0.592008
2291 1 0.353015 0.809989 0.594789
2293 1 0.370995 0.809016 0.59451
2295 1 0.386275 0.807183 0.596319
2297 1 0.400238 0.8068 0.597008
2298 1 0.408427 0.820924 0.595937
2299 1 0.417691 0.806979 0.597032
2301 1 0.431503 0.808218 0.598404
2303 1 0.448002 0.808994 0.598487
2304 1 0.456063 0.82087 0.596815
2307 1 0.481434 0.805593 0.593901
2305 1 0.465423 0.806 0.597643
2306 1 0.474101 0.820842 0.595115
2290 1 0.343027 0.824104 0.592666
2361 1 0.350207 0.837077 0.592858
2292 1 0.35944 0.823015 0.594092
2363 1 0.368151 0.838131 0.593845
2294 1 0.37696 0.822633 0.595082
2365 1 0.385296 0.838437 0.595669
2296 1 0.393278 0.822394 0.59592
2367 1 0.399293 0.83713 0.595565
2300 1 0.424606 0.823729 0.597591
2369 1 0.414729 0.837638 0.596239
2302 1 0.440117 0.822352 0.596572
2371 1 0.431654 0.837528 0.596458
2373 1 0.448158 0.837236 0.595712
2375 1 0.464353 0.834384 0.594833
2354 1 0.296471 0.849311 0.59194
2356 1 0.310941 0.849598 0.593056
2358 1 0.328309 0.849339 0.59312
2360 1 0.344013 0.851725 0.592769
2362 1 0.360475 0.850677 0.593692
2364 1 0.375956 0.852316 0.594711
2366 1 0.39265 0.851666 0.595462
2368 1 0.409017 0.852255 0.595751
2370 1 0.422981 0.852142 0.595563
2372 1 0.438467 0.851455 0.594681
2374 1 0.455229 0.849143 0.593717
2425 1 0.302452 0.863455 0.593429
2427 1 0.319431 0.86377 0.594396
2429 1 0.335828 0.863219 0.593921
2431 1 0.352352 0.865164 0.593768
2433 1 0.367618 0.866848 0.59296
2435 1 0.384724 0.865372 0.593737
2437 1 0.399054 0.86544 0.594049
2439 1 0.415925 0.865074 0.595035
2441 1 0.431927 0.866962 0.5935
2443 1 0.447519 0.865151 0.593296
2424 1 0.296295 0.8786 0.593407
2495 1 0.304259 0.89245 0.593682
2426 1 0.312345 0.880211 0.594828
2428 1 0.329629 0.878752 0.593483
2501 1 0.352293 0.892753 0.592886
2430 1 0.345566 0.878597 0.592675
2432 1 0.362249 0.879315 0.591937
2434 1 0.378588 0.880973 0.593759
2436 1 0.391833 0.880408 0.592916
2438 1 0.409104 0.880333 0.593619
2440 1 0.425742 0.878571 0.593621
2442 1 0.442083 0.878328 0.592331
2494 1 0.29628 0.904793 0.592679
2496 1 0.311354 0.906909 0.592294
2497 1 0.320153 0.894408 0.593121
2498 1 0.328525 0.907131 0.592999
2503 1 0.370313 0.894373 0.592513
2505 1 0.385027 0.894327 0.593727
2506 1 0.392484 0.908184 0.595161
2507 1 0.400951 0.895007 0.594004
2509 1 0.415943 0.892988 0.594334
2511 1 0.432531 0.893123 0.592597
3341 1 0.842511 0.166085 0.418104
3344 1 0.869322 0.177461 0.416373
3346 1 0.886273 0.177724 0.417193
3334 1 0.788912 0.1859 0.418008
3336 1 0.804278 0.181402 0.41748
3407 1 0.812687 0.194578 0.415115
3338 1 0.821869 0.180829 0.4174
3340 1 0.837396 0.17995 0.415599
3409 1 0.829825 0.194778 0.414921
3342 1 0.854411 0.179248 0.417215
3411 1 0.846844 0.194531 0.414745
3413 1 0.861729 0.193326 0.416053
3415 1 0.877414 0.192218 0.415859
3417 1 0.894857 0.190428 0.417159
3405 1 0.79693 0.197984 0.416999
3406 1 0.804108 0.21023 0.41626
3408 1 0.821316 0.209592 0.414349
3410 1 0.838407 0.207976 0.415218
3412 1 0.854259 0.207686 0.41478
3414 1 0.870592 0.205684 0.41471
3416 1 0.887631 0.20553 0.416009
3418 1 0.903367 0.204713 0.416746
3495 1 0.960251 0.213531 0.417774
3475 1 0.800115 0.227153 0.418157
3477 1 0.814643 0.224741 0.415649
3479 1 0.831245 0.224437 0.414346
3481 1 0.848813 0.22183 0.41563
3483 1 0.865798 0.221109 0.415736
3485 1 0.881392 0.220169 0.415165
3487 1 0.896333 0.218361 0.414944
3489 1 0.912552 0.216459 0.416077
3490 1 0.922115 0.228613 0.414387
3491 1 0.928791 0.214996 0.4158
3492 1 0.939244 0.228745 0.415181
3493 1 0.946434 0.215551 0.417259
3494 1 0.956586 0.228193 0.415322
3476 1 0.807908 0.239819 0.417305
3478 1 0.824666 0.238788 0.41538
3480 1 0.84223 0.236977 0.415061
3482 1 0.85803 0.237228 0.414792
3484 1 0.87507 0.235793 0.414713
3486 1 0.892193 0.234371 0.414908
3488 1 0.906961 0.232406 0.413322
3557 1 0.901516 0.247906 0.411649
3559 1 0.917177 0.245133 0.411384
3561 1 0.931221 0.242163 0.412213
3563 1 0.947575 0.243579 0.413353
3565 1 0.961836 0.242277 0.415306
3567 1 0.979615 0.240782 0.414681
3569 1 0.994998 0.237962 0.416536
3545 1 0.802787 0.254404 0.418306
3547 1 0.818143 0.253217 0.415268
3546 1 0.811063 0.267303 0.41667
3549 1 0.833813 0.253123 0.414782
3548 1 0.827352 0.266312 0.416971
3551 1 0.848882 0.252671 0.413174
3550 1 0.843526 0.265872 0.414739
3553 1 0.86731 0.251761 0.41433
3552 1 0.86091 0.265521 0.415497
3555 1 0.884882 0.250908 0.41329
3554 1 0.87632 0.264139 0.413119
3556 1 0.894048 0.262746 0.412595
3558 1 0.910409 0.260841 0.413082
3560 1 0.924867 0.259011 0.411579
3562 1 0.939861 0.255835 0.411896
3564 1 0.957006 0.257829 0.413953
3566 1 0.973446 0.256525 0.41552
3568 1 0.989796 0.253572 0.415203
3639 1 0.997349 0.267403 0.416354
3617 1 0.821909 0.281382 0.416791
3619 1 0.837464 0.280765 0.414806
3621 1 0.854631 0.279266 0.416356
3623 1 0.870144 0.280462 0.415049
3625 1 0.887341 0.277304 0.414562
3627 1 0.903293 0.274846 0.413312
3629 1 0.918534 0.275661 0.411211
3631 1 0.934837 0.270271 0.410785
3632 1 0.943243 0.285666 0.411585
3633 1 0.949599 0.270385 0.413235
3634 1 0.960083 0.284522 0.41351
3635 1 0.967368 0.271508 0.414432
3636 1 0.975902 0.283248 0.415101
3637 1 0.984771 0.268869 0.414446
3638 1 0.993142 0.281412 0.416221
3618 1 0.830343 0.297219 0.414912
3620 1 0.847362 0.294893 0.416701
3622 1 0.863884 0.294416 0.416388
3624 1 0.879945 0.292583 0.41514
3626 1 0.897389 0.291779 0.41425
3628 1 0.912834 0.289137 0.411682
3630 1 0.928321 0.287207 0.411924
3701 1 0.938728 0.299694 0.410604
3703 1 0.953058 0.300469 0.411747
3705 1 0.969705 0.298937 0.414873
3707 1 0.985743 0.297597 0.416997
3685 1 0.807206 0.31263 0.417136
3687 1 0.824452 0.312351 0.414755
3689 1 0.840482 0.309269 0.415097
3691 1 0.856551 0.307066 0.417134
3693 1 0.87375 0.305294 0.416994
3692 1 0.867428 0.320747 0.415391
3695 1 0.889547 0.304571 0.415128
3694 1 0.884018 0.318537 0.415551
3697 1 0.905975 0.304631 0.413354
3696 1 0.898432 0.318009 0.41542
3699 1 0.921899 0.304105 0.412216
3698 1 0.913603 0.319148 0.412811
3700 1 0.930146 0.315171 0.411827
3702 1 0.947261 0.314471 0.410129
3704 1 0.961518 0.313544 0.413453
3706 1 0.978687 0.313272 0.41399
3708 1 0.994267 0.307639 0.417196
3686 1 0.818083 0.327233 0.418312
3688 1 0.834536 0.326328 0.415539
3690 1 0.850158 0.322211 0.417205
3761 1 0.861309 0.335346 0.417661
3763 1 0.876894 0.334384 0.418309
3765 1 0.893201 0.333437 0.416474
3767 1 0.908872 0.332441 0.416472
3769 1 0.925602 0.331941 0.414778
3771 1 0.941095 0.329502 0.412623
3773 1 0.95654 0.327782 0.413404
3775 1 0.973538 0.326638 0.413796
3777 1 0.98867 0.324447 0.415467
3778 1 0.998402 0.337354 0.417383
3776 1 0.983058 0.338789 0.415756
3770 1 0.93451 0.344936 0.415569
3772 1 0.949907 0.343236 0.415705
3843 1 0.959544 0.355133 0.418093
3774 1 0.967116 0.339804 0.415299
3845 1 0.974919 0.352973 0.417216
3847 1 0.99236 0.352485 0.418241
3841 1 0.943879 0.357732 0.418225
3846 1 0.983329 0.367475 0.417325
3124 1 0.779919 0.104994 0.42852
3191 1 0.756135 0.118426 0.427348
3193 1 0.773067 0.117622 0.425719
3195 1 0.790724 0.115981 0.427066
3197 1 0.807426 0.115031 0.428115
3199 1 0.820964 0.113579 0.427853
3201 1 0.838286 0.113258 0.427954
3204 1 0.862705 0.124601 0.42717
3188 1 0.733786 0.132883 0.427761
3190 1 0.752388 0.133431 0.42706
3192 1 0.768504 0.131658 0.425967
3194 1 0.785384 0.131088 0.425587
3263 1 0.776107 0.142719 0.423712
3196 1 0.799565 0.128095 0.42498
3198 1 0.816877 0.128243 0.425598
3200 1 0.830711 0.127776 0.426599
3269 1 0.824089 0.139889 0.425348
3202 1 0.847393 0.125614 0.425997
3271 1 0.839618 0.139732 0.422434
3273 1 0.857304 0.138362 0.423358
3275 1 0.873617 0.136882 0.425042
3257 1 0.728796 0.146922 0.427843
3259 1 0.744961 0.146479 0.426202
3258 1 0.73834 0.160704 0.425505
3261 1 0.76216 0.14509 0.424847
3260 1 0.754647 0.159831 0.423827
3264 1 0.785621 0.156867 0.423085
3262 1 0.771177 0.158852 0.422844
3265 1 0.791092 0.143825 0.42299
3267 1 0.808895 0.143504 0.423806
3266 1 0.803661 0.156167 0.4222
3268 1 0.820932 0.154503 0.422118
3270 1 0.835417 0.152294 0.421212
3272 1 0.851627 0.151711 0.418987
3274 1 0.867791 0.150478 0.421042
3276 1 0.881885 0.150673 0.424055
3278 1 0.897925 0.150243 0.426042
3329 1 0.747521 0.175728 0.425139
3327 1 0.734116 0.17606 0.427816
3331 1 0.762741 0.172386 0.42074
3333 1 0.779941 0.171258 0.419672
3335 1 0.795149 0.170002 0.419496
3337 1 0.81269 0.166495 0.419774
3339 1 0.829446 0.167033 0.419984
3343 1 0.859827 0.165003 0.41844
3345 1 0.875267 0.165643 0.419743
3347 1 0.889313 0.164455 0.422511
3348 1 0.900651 0.178024 0.42065
3349 1 0.905756 0.164581 0.423655
3351 1 0.92302 0.163726 0.425053
3352 1 0.931978 0.175292 0.424633
3353 1 0.938343 0.162511 0.427973
3354 1 0.947537 0.17359 0.425552
3356 1 0.962465 0.174633 0.427957
3328 1 0.743297 0.191216 0.427142
3330 1 0.755509 0.187059 0.422996
3332 1 0.772156 0.18363 0.419934
3419 1 0.909369 0.192786 0.420261
3350 1 0.915845 0.178824 0.422643
3421 1 0.924043 0.189387 0.420009
3423 1 0.940572 0.187889 0.424081
3425 1 0.958124 0.187031 0.426144
3427 1 0.972455 0.187767 0.426406
3399 1 0.751056 0.204255 0.425222
3401 1 0.765349 0.199779 0.42166
3403 1 0.780319 0.199489 0.419115
3404 1 0.790133 0.213163 0.419751
3420 1 0.919051 0.20399 0.418754
3422 1 0.935364 0.203435 0.419667
3424 1 0.951094 0.200231 0.420612
3426 1 0.966399 0.200262 0.421232
3497 1 0.97503 0.213787 0.420925
3428 1 0.982527 0.200193 0.42354
3430 1 0.997127 0.199556 0.425274
3398 1 0.745335 0.220634 0.425777
3400 1 0.760529 0.217746 0.422964
3402 1 0.774871 0.215829 0.42113
3473 1 0.78477 0.229917 0.420448
3496 1 0.970343 0.22803 0.418558
3498 1 0.985224 0.226667 0.419052
3499 1 0.992682 0.214369 0.422572
3467 1 0.740621 0.235027 0.428003
3469 1 0.755188 0.233367 0.421972
3470 1 0.761715 0.24729 0.421347
3468 1 0.750338 0.247975 0.424161
3471 1 0.768239 0.232673 0.420428
3472 1 0.779117 0.244484 0.421425
3474 1 0.792295 0.240684 0.419003
3535 1 0.727123 0.265757 0.427883
3537 1 0.742442 0.2658 0.426411
3466 1 0.735154 0.250398 0.427343
3539 1 0.755333 0.263235 0.422768
3541 1 0.770101 0.258127 0.421659
3544 1 0.796105 0.267818 0.419297
3543 1 0.787686 0.257859 0.420273
3536 1 0.737858 0.28039 0.426997
3538 1 0.750409 0.280132 0.423441
3540 1 0.765754 0.274306 0.422376
3542 1 0.780281 0.271177 0.419512
3613 1 0.789828 0.283585 0.419916
3615 1 0.80498 0.28263 0.41915
3605 1 0.726989 0.294545 0.42652
3607 1 0.743804 0.293078 0.423213
3609 1 0.758504 0.291484 0.423244
3612 1 0.783435 0.301124 0.419872
3611 1 0.774898 0.288218 0.419614
3614 1 0.798642 0.297529 0.419869
3616 1 0.815959 0.297698 0.418742
3675 1 0.730284 0.320512 0.427308
3606 1 0.738678 0.308053 0.425519
3610 1 0.766924 0.303921 0.420955
3608 1 0.751366 0.307554 0.422686
3679 1 0.762487 0.320367 0.422698
3681 1 0.777447 0.31827 0.419344
3683 1 0.793448 0.314774 0.418696
3677 1 0.746009 0.322493 0.425663
3676 1 0.73999 0.335308 0.426665
3678 1 0.756116 0.333634 0.424418
3680 1 0.771698 0.335423 0.420727
3684 1 0.802465 0.327709 0.419229
3682 1 0.787162 0.329554 0.419471
3759 1 0.844362 0.338119 0.418604
3747 1 0.748888 0.347908 0.426984
3749 1 0.765618 0.348886 0.423029
3751 1 0.781154 0.345542 0.422939
3753 1 0.7953 0.34319 0.421403
3755 1 0.812315 0.342325 0.42072
3754 1 0.804684 0.356626 0.424317
3757 1 0.830047 0.340522 0.419716
3756 1 0.822112 0.355139 0.422079
3758 1 0.839585 0.353094 0.421469
3760 1 0.855599 0.348967 0.421549
3762 1 0.870476 0.349095 0.420401
3764 1 0.88519 0.347188 0.420139
3766 1 0.90261 0.346263 0.419061
3768 1 0.91925 0.345882 0.419359
3748 1 0.759238 0.361906 0.427306
3750 1 0.776444 0.361736 0.425909
3821 1 0.783925 0.373185 0.428202
3752 1 0.790569 0.359391 0.425232
3823 1 0.801172 0.370551 0.426947
3825 1 0.817977 0.367267 0.426597
3827 1 0.832243 0.366806 0.424339
3829 1 0.848803 0.36576 0.425476
3831 1 0.866067 0.362146 0.423639
3832 1 0.871763 0.374648 0.425932
3833 1 0.882414 0.362329 0.422198
3834 1 0.888792 0.374929 0.42636
3835 1 0.896788 0.359716 0.423244
3836 1 0.904104 0.374078 0.425716
3837 1 0.91224 0.36021 0.422084
3838 1 0.921062 0.369844 0.423515
3839 1 0.92942 0.357481 0.419625
3840 1 0.936479 0.370279 0.422027
3842 1 0.953267 0.369339 0.419524
3844 1 0.969396 0.369197 0.419029
3819 1 0.767098 0.376166 0.4283
3828 1 0.842869 0.378587 0.427927
3907 1 0.914655 0.383513 0.426507
3909 1 0.930701 0.383847 0.426426
3911 1 0.945051 0.382959 0.423638
3913 1 0.961485 0.382326 0.421444
3915 1 0.97796 0.382217 0.420831
3917 1 0.99367 0.379161 0.419699
3910 1 0.939555 0.397116 0.426341
3912 1 0.954422 0.396172 0.425341
3914 1 0.97073 0.394667 0.422823
3985 1 0.980299 0.407563 0.426155
3983 1 0.964897 0.409159 0.427875
3916 1 0.987252 0.393357 0.422788
3987 1 0.99746 0.406061 0.426621
2980 1 0.745138 0.0489047 0.4377
3049 1 0.739285 0.0644953 0.436647
3051 1 0.754155 0.0631577 0.436254
3053 1 0.768418 0.0643966 0.436054
3055 1 0.783721 0.0654459 0.437713
3046 1 0.715734 0.0793443 0.437895
3048 1 0.731661 0.0784322 0.434659
3050 1 0.747438 0.0778553 0.434673
3052 1 0.763358 0.0784922 0.435504
3054 1 0.775762 0.0795977 0.435545
3056 1 0.791613 0.0789104 0.436613
3127 1 0.803537 0.0884886 0.433653
3058 1 0.807483 0.0734901 0.437076
3129 1 0.819444 0.0867281 0.435923
3115 1 0.710577 0.0931289 0.438367
3117 1 0.725705 0.0924667 0.43475
3119 1 0.741593 0.0919468 0.432152
3120 1 0.748487 0.104097 0.430449
3122 1 0.762959 0.104767 0.429992
3121 1 0.758117 0.0919245 0.434601
3123 1 0.771796 0.0936478 0.433178
3125 1 0.786834 0.0916716 0.432875
3126 1 0.795321 0.10375 0.431266
3128 1 0.812812 0.0997914 0.432274
3131 1 0.833518 0.0903989 0.437143
3130 1 0.828639 0.100788 0.432216
3132 1 0.845992 0.100857 0.43264
3134 1 0.859332 0.100491 0.43629
3185 1 0.713172 0.122186 0.435148
3116 1 0.718286 0.107168 0.43629
3187 1 0.72452 0.119129 0.431521
3118 1 0.733051 0.107371 0.431691
3189 1 0.741298 0.120087 0.428934
3203 1 0.855262 0.11227 0.429829
3205 1 0.867423 0.113363 0.433789
3207 1 0.881539 0.116752 0.43746
3184 1 0.706176 0.136354 0.434556
3186 1 0.71966 0.134383 0.430058
3277 1 0.886317 0.138729 0.42884
3206 1 0.877421 0.126823 0.431264
3208 1 0.892479 0.129464 0.434545
3210 1 0.909405 0.127873 0.437385
3279 1 0.902949 0.140639 0.431092
3281 1 0.919901 0.140378 0.433801
3283 1 0.93225 0.139894 0.437007
3253 1 0.700859 0.152766 0.436341
3255 1 0.714845 0.150135 0.432809
3280 1 0.912627 0.152458 0.429437
3282 1 0.929387 0.15178 0.430738
3284 1 0.942682 0.148466 0.433193
3286 1 0.957399 0.150254 0.436097
3288 1 0.973529 0.150588 0.43821
3254 1 0.712279 0.164856 0.435769
3256 1 0.726313 0.163364 0.42986
3355 1 0.951278 0.163247 0.431628
3358 1 0.975298 0.175454 0.431054
3357 1 0.967387 0.162766 0.433644
3360 1 0.993298 0.17546 0.433796
3359 1 0.983228 0.162708 0.435998
3323 1 0.70616 0.181162 0.437805
3324 1 0.717452 0.193836 0.435231
3325 1 0.720054 0.17864 0.431914
3326 1 0.728567 0.192274 0.429655
3429 1 0.988236 0.186728 0.428772
3393 1 0.714113 0.209848 0.438026
3395 1 0.725482 0.209074 0.432837
3397 1 0.738587 0.206533 0.428821
3394 1 0.722145 0.224607 0.436431
3396 1 0.733119 0.222288 0.430921
3463 1 0.711563 0.239524 0.436307
3465 1 0.727263 0.238349 0.432011
3462 1 0.707365 0.253785 0.435914
3533 1 0.713493 0.267554 0.431608
3464 1 0.720778 0.252414 0.431185
3532 1 0.706144 0.283233 0.432864
3531 1 0.702512 0.268325 0.43624
3534 1 0.722947 0.280594 0.429542
3601 1 0.699597 0.298407 0.432973
3603 1 0.713344 0.294739 0.430929
3600 1 0.69234 0.311204 0.435262
3602 1 0.706973 0.309975 0.429673
3604 1 0.72167 0.308934 0.428869
3670 1 0.69433 0.336631 0.435149
3669 1 0.684093 0.326645 0.436258
3671 1 0.698711 0.323458 0.431156
3672 1 0.708087 0.336159 0.4293
3674 1 0.723529 0.337149 0.428841
3673 1 0.715886 0.324482 0.428999
3739 1 0.688792 0.352758 0.438296
3741 1 0.704859 0.34946 0.435002
3743 1 0.718165 0.349426 0.432001
3745 1 0.73431 0.347802 0.429159
3740 1 0.697322 0.364469 0.437275
3742 1 0.713051 0.36376 0.436228
3744 1 0.727406 0.363095 0.433297
3746 1 0.743016 0.361226 0.430288
3830 1 0.859242 0.374531 0.429059
3811 1 0.708021 0.379078 0.437941
3813 1 0.721481 0.379397 0.433844
3814 1 0.729529 0.392128 0.435994
3815 1 0.736756 0.376534 0.432583
3816 1 0.745465 0.389024 0.436577
3817 1 0.75115 0.376274 0.431156
3818 1 0.7595 0.388853 0.434025
3820 1 0.776453 0.386101 0.431315
3822 1 0.794273 0.383139 0.43171
3824 1 0.811693 0.378723 0.430821
3895 1 0.820635 0.391999 0.433516
3826 1 0.827031 0.38043 0.430121
3897 1 0.835499 0.389572 0.43392
3899 1 0.851466 0.388005 0.433361
3901 1 0.86757 0.387709 0.431871
3903 1 0.883105 0.387994 0.429253
3905 1 0.900331 0.386978 0.429979
3889 1 0.770097 0.400311 0.435398
3890 1 0.781115 0.409934 0.437878
3891 1 0.787714 0.397504 0.434206
3893 1 0.804346 0.393281 0.434852
3894 1 0.81261 0.404531 0.438719
3896 1 0.827373 0.402893 0.437709
3898 1 0.845132 0.401256 0.437891
3900 1 0.860931 0.398947 0.437462
3902 1 0.876762 0.398448 0.435466
3973 1 0.888982 0.410418 0.438582
3904 1 0.89069 0.398213 0.432539
3906 1 0.908336 0.397642 0.431685
3975 1 0.903115 0.409174 0.436653
3908 1 0.924991 0.395978 0.428848
3977 1 0.919099 0.408742 0.434294
3979 1 0.935625 0.410036 0.431555
3981 1 0.94939 0.408226 0.428996
3976 1 0.912238 0.421423 0.438433
3978 1 0.929218 0.418697 0.438254
3980 1 0.945709 0.419303 0.434655
3982 1 0.960513 0.420569 0.432865
3984 1 0.977434 0.418412 0.431312
3986 1 0.991085 0.419151 0.430833
4053 1 0.970321 0.432681 0.436086
4055 1 0.983309 0.433161 0.434758
2905 1 0.705374 0.0106275 0.446396
2907 1 0.721058 0.00926346 0.446779
2909 1 0.738516 0.00986599 0.446657
2911 1 0.753485 0.00865964 0.445746
2913 1 0.768113 0.0100153 0.444876
2915 1 0.784674 0.00848804 0.445571
2917 1 0.799181 0.0106262 0.44766
2904 1 0.697411 0.0250803 0.44706
2906 1 0.713893 0.0242152 0.443536
2908 1 0.728673 0.0229945 0.443109
2910 1 0.745562 0.0221405 0.444482
2912 1 0.760965 0.0232483 0.444622
2914 1 0.776073 0.0241895 0.444385
2916 1 0.790463 0.0234744 0.446235
2918 1 0.808319 0.0245396 0.447191
2973 1 0.690675 0.0397886 0.446514
2972 1 0.683167 0.0519418 0.445697
2975 1 0.706089 0.0370869 0.442109
2974 1 0.69874 0.0507416 0.441181
2978 1 0.730384 0.0518096 0.439174
2976 1 0.714946 0.0513235 0.43935
2977 1 0.720478 0.0383572 0.442111
2979 1 0.736973 0.037539 0.441349
2982 1 0.76134 0.0502786 0.438905
2981 1 0.751805 0.0370039 0.4423
2984 1 0.776505 0.0498934 0.439717
2983 1 0.769102 0.0365215 0.442698
2985 1 0.784055 0.0371236 0.444876
2986 1 0.790708 0.0520474 0.440867
2987 1 0.797724 0.0368048 0.444378
2989 1 0.815766 0.0388354 0.447026
2988 1 0.805733 0.0495405 0.442092
2990 1 0.821659 0.052354 0.447446
3041 1 0.676026 0.0711302 0.447333
3043 1 0.691061 0.0660184 0.444166
3045 1 0.706383 0.0671681 0.440238
3047 1 0.72344 0.0647647 0.439357
3057 1 0.799048 0.0651406 0.440376
3059 1 0.813533 0.0615648 0.442613
3061 1 0.829101 0.0657076 0.445978
3042 1 0.685308 0.0820454 0.444618
3044 1 0.700872 0.0790453 0.442778
3060 1 0.823046 0.0761298 0.439859
3062 1 0.837202 0.0795407 0.443009
3064 1 0.851116 0.0808856 0.447423
3111 1 0.682827 0.0977118 0.446097
3113 1 0.696339 0.0941755 0.44232
3133 1 0.847456 0.0905266 0.440025
3136 1 0.872295 0.101865 0.439886
3135 1 0.861531 0.0908281 0.444405
3137 1 0.875154 0.0941411 0.446622
3138 1 0.887309 0.103529 0.443019
3140 1 0.902549 0.10472 0.447311
3110 1 0.677305 0.114057 0.448392
3112 1 0.689313 0.110221 0.443821
3114 1 0.702544 0.109019 0.438835
3183 1 0.697962 0.123017 0.43984
3209 1 0.897714 0.115776 0.44014
3211 1 0.912346 0.116686 0.443965
3213 1 0.927924 0.118071 0.448796
3181 1 0.684936 0.126511 0.444976
3182 1 0.692567 0.139845 0.440184
3180 1 0.680169 0.140412 0.446032
3212 1 0.923159 0.12792 0.440782
3214 1 0.938025 0.128503 0.443577
3216 1 0.952554 0.127475 0.447068
3287 1 0.961941 0.140819 0.444006
3285 1 0.949515 0.138072 0.439536
3289 1 0.978485 0.141161 0.444266
421 1 0.993504 0.140698 0.447902
3249 1 0.674256 0.155399 0.447312
3251 1 0.687267 0.154637 0.442081
3290 1 0.98786 0.151618 0.441488
3250 1 0.68241 0.168016 0.445348
3252 1 0.695811 0.167219 0.439021
491 1 0.997726 0.163283 0.43954
3321 1 0.691622 0.182711 0.4417
3319 1 0.680846 0.184626 0.447469
3322 1 0.703577 0.195602 0.439653
3320 1 0.691275 0.196912 0.444692
3389 1 0.684773 0.21309 0.446899
3391 1 0.700013 0.211015 0.443317
3390 1 0.695738 0.22686 0.443555
3392 1 0.710145 0.224641 0.441011
3459 1 0.688233 0.241782 0.444704
3461 1 0.700307 0.239403 0.440665
3458 1 0.683204 0.258897 0.445997
3460 1 0.695664 0.254139 0.440055
3529 1 0.689964 0.271045 0.441225
3530 1 0.696088 0.283958 0.438856
3528 1 0.682367 0.284621 0.445515
3597 1 0.678354 0.300662 0.446581
3599 1 0.689126 0.298136 0.441476
3596 1 0.666825 0.314126 0.447742
3598 1 0.681159 0.312871 0.441428
3665 1 0.659132 0.32785 0.446727
3668 1 0.677527 0.338495 0.438914
3667 1 0.671487 0.32499 0.442491
3666 1 0.664392 0.339187 0.441772
3664 1 0.652037 0.342229 0.448889
3735 1 0.659516 0.353477 0.444313
3737 1 0.672923 0.351421 0.439606
3734 1 0.65249 0.369504 0.445648
3736 1 0.667747 0.367009 0.442563
3738 1 0.682259 0.366483 0.43882
3803 1 0.644111 0.382994 0.446664
3805 1 0.658797 0.381151 0.444322
3807 1 0.675392 0.381197 0.442371
3809 1 0.693323 0.380586 0.440094
3802 1 0.637225 0.398469 0.447199
3804 1 0.652057 0.395351 0.444909
3806 1 0.670094 0.396029 0.444566
3875 1 0.662252 0.409746 0.447108
3877 1 0.679305 0.408245 0.446795
3808 1 0.685115 0.39525 0.443041
3879 1 0.693367 0.407261 0.446398
3810 1 0.699789 0.39398 0.440452
3881 1 0.706996 0.40781 0.44271
3812 1 0.715506 0.393453 0.43955
3883 1 0.722133 0.405173 0.439934
3885 1 0.738393 0.40272 0.440987
3887 1 0.75567 0.400935 0.439001
3892 1 0.797935 0.408247 0.438847
3969 1 0.856515 0.408858 0.44152
3971 1 0.873488 0.408746 0.440662
3873 1 0.645908 0.412129 0.446336
3880 1 0.701524 0.421723 0.447498
3882 1 0.71699 0.419502 0.444881
3884 1 0.732071 0.416627 0.444521
3955 1 0.743352 0.427347 0.448258
3886 1 0.748666 0.413283 0.443244
3888 1 0.76545 0.413624 0.440559
3957 1 0.759107 0.425167 0.447035
3959 1 0.772484 0.423375 0.446399
3961 1 0.786735 0.419942 0.443133
3963 1 0.806125 0.419031 0.443884
3965 1 0.821598 0.414545 0.444893
3966 1 0.832506 0.425247 0.448499
3967 1 0.83846 0.413527 0.441183
3968 1 0.848419 0.422109 0.446075
3970 1 0.864125 0.420563 0.444445
3972 1 0.880371 0.420341 0.444131
3974 1 0.896769 0.420776 0.441714
3962 1 0.797768 0.429761 0.448595
4043 1 0.891228 0.429079 0.448714
4045 1 0.904846 0.43224 0.445146
4047 1 0.921522 0.431188 0.443097
4049 1 0.938395 0.429474 0.441589
4048 1 0.933573 0.443239 0.446533
4051 1 0.954786 0.432737 0.439293
4050 1 0.946736 0.443729 0.44378
4052 1 0.963469 0.44271 0.442434
4054 1 0.978008 0.444041 0.44072
4056 1 0.993868 0.440389 0.438843
4121 1 0.957411 0.456 0.448019
4123 1 0.972624 0.456175 0.446479
4125 1 0.986734 0.454214 0.443449
4124 1 0.980412 0.467346 0.447663
4126 1 0.997857 0.465591 0.445538
2830 1 0.67164 0.00161031 0.458764
2901 1 0.676103 0.0143264 0.454655
2899 1 0.665132 0.0171242 0.4591
2903 1 0.691175 0.01206 0.450494
2919 1 0.814736 0.0119675 0.451639
2921 1 0.827587 0.013195 0.455823
2900 1 0.670393 0.0296906 0.454317
2902 1 0.681785 0.0274454 0.450707
2920 1 0.823444 0.0254752 0.452549
2922 1 0.837109 0.026437 0.456817
2971 1 0.677546 0.0428413 0.450942
2969 1 0.665906 0.0450323 0.457325
2991 1 0.82945 0.04035 0.451944
2993 1 0.841934 0.0423912 0.457371
2968 1 0.66119 0.0593809 0.457862
2970 1 0.671333 0.0575611 0.450585
2992 1 0.834831 0.0539274 0.453405
3063 1 0.844737 0.0671935 0.44982
2994 1 0.847194 0.0560362 0.45729
3065 1 0.855722 0.0697471 0.454212
3067 1 0.870225 0.0695559 0.457349
3039 1 0.664403 0.0728468 0.454382
3040 1 0.671734 0.0867976 0.450838
3038 1 0.662144 0.0884741 0.456958
3066 1 0.866433 0.0804912 0.450165
3068 1 0.879881 0.0812563 0.453117
3070 1 0.898 0.0822896 0.457017
3109 1 0.669924 0.100073 0.451599
3139 1 0.890751 0.0929463 0.450352
3141 1 0.906115 0.0936675 0.453649
3143 1 0.92106 0.0954637 0.456206
3142 1 0.917718 0.106267 0.450335
3108 1 0.664952 0.114288 0.453949
3215 1 0.942998 0.118157 0.450956
3144 1 0.930496 0.109012 0.453785
3146 1 0.945503 0.111998 0.458466
3217 1 0.956872 0.119732 0.454188
3219 1 0.9705 0.121483 0.455511
351 1 0.98761 0.119409 0.45839
3177 1 0.66289 0.131153 0.457278
3179 1 0.670268 0.126447 0.450334
3218 1 0.966066 0.132305 0.449458
3220 1 0.981781 0.131046 0.451325
352 1 0.99756 0.127603 0.454399
3178 1 0.670001 0.143697 0.452448
3247 1 0.664262 0.1588 0.456137
3248 1 0.672025 0.171545 0.451504
3246 1 0.662672 0.172862 0.458523
3317 1 0.671547 0.187472 0.454862
3316 1 0.668017 0.202448 0.458268
3318 1 0.679538 0.200674 0.451731
3387 1 0.67732 0.216317 0.454129
3388 1 0.683113 0.22938 0.449243
3386 1 0.673685 0.232545 0.456071
3455 1 0.667302 0.247164 0.458865
3457 1 0.679489 0.245688 0.45142
3454 1 0.659621 0.259929 0.459126
3456 1 0.673837 0.259568 0.453153
3525 1 0.663997 0.27268 0.454805
3527 1 0.678802 0.270803 0.449362
3524 1 0.660069 0.288055 0.457177
3593 1 0.64852 0.300868 0.456719
3526 1 0.671345 0.286541 0.450934
3595 1 0.663628 0.30154 0.451395
3592 1 0.639217 0.316691 0.457457
3594 1 0.652377 0.31557 0.451338
3661 1 0.633761 0.331546 0.457929
3663 1 0.646917 0.328826 0.451695
3660 1 0.628209 0.346798 0.459089
3662 1 0.639025 0.34271 0.453412
3733 1 0.645865 0.357131 0.450032
3729 1 0.618613 0.361819 0.457757
3732 1 0.636898 0.372254 0.450237
3731 1 0.632643 0.358576 0.45409
3795 1 0.582897 0.388635 0.457916
3797 1 0.597574 0.388439 0.456279
3726 1 0.593648 0.375353 0.458796
3728 1 0.609474 0.375821 0.455993
3730 1 0.622122 0.37585 0.45154
3799 1 0.612828 0.389295 0.453344
3801 1 0.628652 0.387987 0.450462
3794 1 0.573115 0.401232 0.457235
3796 1 0.587549 0.401809 0.453967
3798 1 0.605097 0.402024 0.452331
3800 1 0.62058 0.401319 0.450545
3863 1 0.564128 0.415045 0.458069
3865 1 0.580524 0.41488 0.455376
3866 1 0.588593 0.426812 0.457391
3867 1 0.596444 0.416555 0.451956
3868 1 0.605535 0.426749 0.455153
3869 1 0.614132 0.414258 0.451683
3870 1 0.621833 0.425262 0.454097
3871 1 0.630464 0.412171 0.449602
3872 1 0.637939 0.425669 0.450988
3874 1 0.654533 0.421995 0.45156
3876 1 0.669065 0.420594 0.45051
3878 1 0.686528 0.422642 0.449126
3964 1 0.815098 0.427536 0.449243
3939 1 0.614903 0.437665 0.458838
3941 1 0.629764 0.438916 0.455655
3943 1 0.648798 0.435035 0.456893
3945 1 0.664414 0.433937 0.455055
3947 1 0.679038 0.434553 0.453283
3948 1 0.689008 0.445047 0.457453
3949 1 0.695843 0.434358 0.452082
3950 1 0.706516 0.444241 0.456806
3951 1 0.712048 0.4347 0.449877
3953 1 0.728668 0.429769 0.449926
3952 1 0.721663 0.441142 0.455594
3954 1 0.737405 0.440272 0.453019
3956 1 0.752413 0.437541 0.451999
4027 1 0.762687 0.446317 0.45752
3958 1 0.76748 0.434793 0.451059
4029 1 0.777715 0.444501 0.456321
3960 1 0.781468 0.433176 0.449661
4031 1 0.792667 0.440497 0.455298
4033 1 0.808014 0.437974 0.455349
4035 1 0.825679 0.437721 0.454048
4037 1 0.842146 0.431961 0.452455
4039 1 0.859428 0.429738 0.451179
4040 1 0.868715 0.441058 0.457053
4041 1 0.875455 0.429598 0.450224
4042 1 0.884951 0.440615 0.454313
4044 1 0.900805 0.441982 0.451601
4046 1 0.916641 0.4439 0.449477
4023 1 0.729841 0.452528 0.458621
4025 1 0.745421 0.450485 0.456822
4034 1 0.820458 0.44704 0.458011
4113 1 0.895041 0.453805 0.456593
4115 1 0.911111 0.453088 0.454828
4117 1 0.925939 0.455903 0.451936
4119 1 0.940563 0.455156 0.45066
4116 1 0.919428 0.465853 0.457535
4118 1 0.935219 0.465129 0.456428
4189 1 0.945237 0.478279 0.458724
4120 1 0.951657 0.465628 0.455266
4191 1 0.960483 0.47857 0.456827
4122 1 0.965348 0.467788 0.452408
4193 1 0.976257 0.480349 0.453162
4195 1 0.99161 0.478046 0.451818
4194 1 0.987215 0.491985 0.457563
2828 1 0.658195 0.00493544 0.46437
2852 1 0.83528 0.00175843 0.462203
2923 1 0.84177 0.014219 0.460858
2854 1 0.846855 0.002612 0.466407
2897 1 0.655714 0.0195593 0.466606
2898 1 0.66001 0.0306516 0.461381
2896 1 0.651712 0.0329939 0.468477
2925 1 0.85284 0.0192186 0.466574
2924 1 0.849417 0.0298206 0.46212
2926 1 0.86023 0.0352218 0.468226
2967 1 0.653334 0.0473968 0.462671
2995 1 0.853703 0.0440029 0.463268
2997 1 0.868588 0.0481605 0.467156
2999 1 0.882329 0.0492124 0.469107
2966 1 0.648042 0.0623546 0.464443
2996 1 0.86169 0.0588298 0.460833
2998 1 0.876827 0.060951 0.464589
3069 1 0.887611 0.0696734 0.45997
3000 1 0.892887 0.0596846 0.46731
3035 1 0.644264 0.0765691 0.467557
3037 1 0.654099 0.0742858 0.460925
3071 1 0.900948 0.0736986 0.463828
3072 1 0.911363 0.0850207 0.459946
3074 1 0.926696 0.0866806 0.464243
3073 1 0.91645 0.074945 0.46642
3107 1 0.658915 0.100578 0.459565
3036 1 0.651501 0.0914459 0.464351
3105 1 0.649077 0.105539 0.465754
3076 1 0.94287 0.089488 0.46851
3145 1 0.936569 0.0985372 0.460571
3147 1 0.950591 0.100902 0.465716
3149 1 0.96587 0.099685 0.467865
283 1 0.999769 0.0964545 0.4687
3106 1 0.656646 0.118098 0.461884
3148 1 0.961859 0.111139 0.460537
3150 1 0.976323 0.108847 0.462218
282 1 0.992113 0.107242 0.463837
3175 1 0.652805 0.133281 0.465285
3176 1 0.658168 0.14546 0.459253
3174 1 0.65143 0.146621 0.467048
3245 1 0.655361 0.159586 0.462961
3244 1 0.653518 0.177018 0.465921
3243 1 0.646894 0.166071 0.469013
3313 1 0.651087 0.193854 0.468511
3315 1 0.65985 0.189363 0.461765
3314 1 0.65639 0.204909 0.464962
3383 1 0.652555 0.221557 0.466458
3385 1 0.665653 0.219197 0.461077
3451 1 0.641233 0.249754 0.46896
3453 1 0.653357 0.247855 0.464436
3382 1 0.64928 0.235294 0.469085
3384 1 0.661425 0.232387 0.463399
3452 1 0.647012 0.262541 0.465632
3521 1 0.641574 0.277247 0.466373
3523 1 0.651553 0.275995 0.45999
3520 1 0.632844 0.292807 0.468023
3522 1 0.645895 0.291444 0.461412
3588 1 0.615263 0.321149 0.466603
3591 1 0.635951 0.304158 0.462016
3589 1 0.625724 0.306437 0.467495
3590 1 0.62737 0.318502 0.461854
3657 1 0.605675 0.335027 0.467155
3659 1 0.619549 0.333717 0.462096
3654 1 0.582557 0.349052 0.469193
3656 1 0.597816 0.348471 0.46623
3658 1 0.612534 0.347321 0.46092
3722 1 0.564927 0.374396 0.465805
3724 1 0.578437 0.374712 0.461845
3723 1 0.575801 0.362225 0.467536
3725 1 0.589974 0.36211 0.464681
3727 1 0.603886 0.361588 0.46007
3785 1 0.508482 0.381913 0.468567
3787 1 0.523251 0.383976 0.468057
3789 1 0.539492 0.385958 0.467084
3791 1 0.553647 0.385712 0.464539
3793 1 0.566695 0.38771 0.460755
3786 1 0.513037 0.395681 0.468201
3855 1 0.501531 0.408379 0.46938
3788 1 0.528017 0.398259 0.466045
3857 1 0.519014 0.410207 0.467989
3790 1 0.543629 0.399753 0.463837
3792 1 0.556437 0.40067 0.46061
3858 1 0.526435 0.423342 0.468746
3859 1 0.535569 0.413059 0.466135
3861 1 0.547669 0.414447 0.461156
3860 1 0.540925 0.427801 0.464315
3862 1 0.55591 0.427671 0.46118
3929 1 0.533808 0.439265 0.469181
3931 1 0.549725 0.43956 0.466615
3933 1 0.565503 0.439582 0.46647
3864 1 0.571565 0.428687 0.459355
3935 1 0.581174 0.43671 0.46336
3937 1 0.597869 0.436761 0.46188
3946 1 0.673206 0.443748 0.459906
4036 1 0.836132 0.44238 0.459573
4038 1 0.853393 0.439345 0.459263
3936 1 0.591713 0.448738 0.468056
3938 1 0.607468 0.449288 0.464847
3940 1 0.623124 0.450687 0.461345
4009 1 0.618298 0.461213 0.468598
3942 1 0.640059 0.448743 0.461048
4011 1 0.633796 0.460389 0.466922
3944 1 0.657797 0.447383 0.460884
4013 1 0.648397 0.458548 0.46642
4015 1 0.66628 0.456583 0.465748
4017 1 0.681372 0.453942 0.463639
4019 1 0.697812 0.453965 0.462736
4021 1 0.714584 0.453307 0.462049
4024 1 0.739365 0.463242 0.462326
4026 1 0.755838 0.459313 0.462321
4028 1 0.773292 0.457977 0.462332
4030 1 0.789053 0.451907 0.461575
4032 1 0.803324 0.451579 0.460213
4101 1 0.799951 0.461744 0.466039
4103 1 0.816048 0.45908 0.465612
4105 1 0.830369 0.456234 0.464851
4107 1 0.847518 0.450342 0.465086
4109 1 0.862696 0.451056 0.46309
4110 1 0.873061 0.464112 0.465074
4108 1 0.85738 0.462639 0.468287
4111 1 0.879626 0.452288 0.460102
4016 1 0.67853 0.466563 0.468995
4018 1 0.692379 0.466407 0.467105
4020 1 0.708274 0.465428 0.466907
4022 1 0.72249 0.465197 0.46484
4095 1 0.749618 0.472456 0.467922
4093 1 0.732751 0.474904 0.46775
4097 1 0.765425 0.468495 0.466268
4099 1 0.78297 0.466338 0.465304
4112 1 0.889187 0.465013 0.463722
4114 1 0.905177 0.464998 0.460521
4183 1 0.900107 0.476195 0.466467
4185 1 0.914285 0.477075 0.464794
4187 1 0.928847 0.4775 0.462444
4188 1 0.941277 0.488065 0.466334
4190 1 0.953315 0.490557 0.463308
4192 1 0.970142 0.491067 0.459911
4263 1 0.981708 0.498171 0.464559
4265 1 0.999333 0.49924 0.461859
2824 1 0.638679 0.00823088 0.479564
2826 1 0.647808 0.00854132 0.472264
2856 1 0.858261 0.00716343 0.470911
2858 1 0.872002 0.0109587 0.476437
2894 1 0.640608 0.0355785 0.475193
2895 1 0.64666 0.0220667 0.475155
2927 1 0.867112 0.0209601 0.472005
2928 1 0.872745 0.0353917 0.471697
2929 1 0.880744 0.0248959 0.475271
2931 1 0.89359 0.0274916 0.479479
2963 1 0.633519 0.051493 0.477072
2965 1 0.644548 0.0492657 0.470082
2930 1 0.888478 0.0402973 0.475835
3001 1 0.897318 0.0504596 0.473474
2964 1 0.637193 0.0625608 0.471483
2962 1 0.626786 0.0654457 0.479419
3002 1 0.906404 0.0642168 0.471508
3003 1 0.911618 0.0563023 0.477865
3004 1 0.921473 0.0668603 0.474752
3006 1 0.936949 0.06944 0.479496
3033 1 0.633806 0.0791014 0.474536
3075 1 0.93057 0.0781754 0.471425
3077 1 0.946515 0.079851 0.474897
3079 1 0.961449 0.0799822 0.4784
3078 1 0.958675 0.0887418 0.471702
3080 1 0.972 0.0884885 0.474424
211 1 0.978622 0.0755706 0.479153
3034 1 0.642217 0.0930295 0.47058
3032 1 0.631586 0.0965504 0.477478
281 1 0.982114 0.0983129 0.469902
212 1 0.988576 0.0893122 0.47545
3103 1 0.640275 0.107663 0.47368
3102 1 0.637073 0.124116 0.476856
3104 1 0.64598 0.1214 0.469582
3171 1 0.632721 0.141706 0.479145
3173 1 0.643825 0.137854 0.473288
3172 1 0.64066 0.151815 0.473732
3241 1 0.639034 0.167202 0.477923
3311 1 0.638557 0.19625 0.475725
3242 1 0.642914 0.182202 0.472699
3310 1 0.633305 0.210962 0.478454
3312 1 0.646696 0.209768 0.47213
3381 1 0.641242 0.223051 0.474022
3380 1 0.635571 0.239453 0.475526
3448 1 0.623203 0.26679 0.47756
3449 1 0.630445 0.252021 0.476423
3450 1 0.635475 0.263757 0.472114
3519 1 0.629548 0.278485 0.473613
3516 1 0.607297 0.295477 0.478123
3518 1 0.621123 0.293906 0.472777
3582 1 0.573075 0.320574 0.479572
3585 1 0.597698 0.308087 0.477326
3587 1 0.609877 0.307945 0.47242
3651 1 0.565682 0.335826 0.477871
3584 1 0.588297 0.322814 0.475025
3653 1 0.579068 0.334933 0.474944
3586 1 0.602581 0.32194 0.47216
3655 1 0.592311 0.336563 0.471616
3644 1 0.508732 0.343974 0.478092
3715 1 0.515288 0.355008 0.475671
3646 1 0.522923 0.34277 0.478438
3648 1 0.538926 0.345735 0.478279
3650 1 0.555098 0.348047 0.476943
3652 1 0.569161 0.348783 0.473188
3714 1 0.504579 0.367261 0.471815
3716 1 0.519691 0.36924 0.471271
3717 1 0.528312 0.357369 0.474889
3718 1 0.533684 0.371452 0.470544
3720 1 0.54918 0.37459 0.470325
3719 1 0.544574 0.358837 0.472903
3721 1 0.559846 0.359049 0.470462
3856 1 0.5093 0.423676 0.471897
3925 1 0.504247 0.432472 0.476047
3926 1 0.512803 0.445835 0.479245
3927 1 0.519628 0.438368 0.472703
3928 1 0.527815 0.450183 0.475348
3930 1 0.544244 0.451509 0.472901
3999 1 0.537348 0.460007 0.479301
3932 1 0.560617 0.447202 0.472036
4001 1 0.553825 0.460879 0.477017
4003 1 0.570606 0.459493 0.477036
3934 1 0.576816 0.448323 0.470848
4005 1 0.587024 0.459888 0.473597
4007 1 0.602287 0.461475 0.470742
4106 1 0.842797 0.461894 0.471574
4006 1 0.597323 0.468735 0.478828
4008 1 0.612608 0.468218 0.477188
4010 1 0.627312 0.469328 0.473712
4012 1 0.644223 0.467448 0.472575
4083 1 0.653064 0.47438 0.479099
4014 1 0.661253 0.465232 0.471606
4085 1 0.669822 0.475948 0.475955
4087 1 0.686255 0.476642 0.473562
4089 1 0.702312 0.478988 0.470655
4091 1 0.719496 0.477214 0.471167
4094 1 0.744395 0.479575 0.475081
4096 1 0.761986 0.479925 0.472235
4098 1 0.777842 0.478957 0.470934
4100 1 0.791807 0.471216 0.471411
4171 1 0.80261 0.48022 0.477389
4102 1 0.80999 0.470541 0.472453
4173 1 0.818361 0.479314 0.477703
4104 1 0.826881 0.466972 0.471861
4175 1 0.834179 0.474585 0.477018
4177 1 0.851362 0.472607 0.476083
4179 1 0.867364 0.472015 0.47238
4178 1 0.863372 0.480638 0.479048
4181 1 0.883812 0.475618 0.470374
4090 1 0.714092 0.484551 0.47771
4092 1 0.729216 0.48364 0.476235
4167 1 0.770155 0.489007 0.478486
4169 1 0.786618 0.48399 0.477496
4180 1 0.878842 0.482556 0.477795
4184 1 0.908724 0.488314 0.472424
4182 1 0.895743 0.484766 0.474374
4186 1 0.924453 0.487735 0.469544
4255 1 0.918243 0.496554 0.476406
2822 1 0.629406 0.0127066 0.48708
2860 1 0.885752 0.0150781 0.480573
2861 1 0.894481 0.00217274 0.485345
2863 1 0.906612 0.00561015 0.488164
2891 1 0.626672 0.0261564 0.489599
2893 1 0.634351 0.0255095 0.482079
2862 1 0.900549 0.0192758 0.485157
2933 1 0.908875 0.030786 0.484928
2864 1 0.916571 0.0195511 0.489671
2935 1 0.924256 0.0339837 0.48758
2961 1 0.621574 0.0531676 0.484037
2892 1 0.627957 0.0388196 0.482788
2932 1 0.904054 0.0415421 0.48024
2934 1 0.916442 0.0451248 0.482701
2936 1 0.932157 0.0440726 0.487647
2960 1 0.619554 0.0690759 0.488176
3005 1 0.927754 0.0567458 0.481895
3007 1 0.941604 0.0584885 0.486483
3009 1 0.956408 0.0577027 0.489186
3008 1 0.951412 0.0688143 0.48171
3010 1 0.966528 0.0651307 0.483434
141 1 0.97434 0.0570468 0.489519
142 1 0.98322 0.0658304 0.485261
3031 1 0.624499 0.0825094 0.482524
213 1 0.993941 0.0760455 0.48196
3030 1 0.623725 0.0971952 0.486404
3099 1 0.623205 0.113708 0.488414
3101 1 0.630464 0.110153 0.480731
3100 1 0.63081 0.127385 0.483282
3169 1 0.625177 0.142804 0.487884
3170 1 0.631296 0.155613 0.48199
3239 1 0.628135 0.171372 0.485041
3238 1 0.621301 0.184889 0.486856
3240 1 0.633656 0.183203 0.480643
3307 1 0.619302 0.200281 0.489584
3308 1 0.627694 0.212645 0.485334
3309 1 0.628882 0.196926 0.483218
3377 1 0.622935 0.227708 0.48946
3379 1 0.631087 0.224687 0.48058
3378 1 0.625842 0.240574 0.483591
3445 1 0.605607 0.256202 0.488517
3447 1 0.619312 0.255177 0.483342
3509 1 0.558079 0.28002 0.489295
3513 1 0.589268 0.282422 0.484344
3511 1 0.573926 0.282493 0.486731
3515 1 0.605172 0.284057 0.484663
3444 1 0.595917 0.270575 0.489195
3517 1 0.617421 0.282559 0.47981
3446 1 0.61116 0.269531 0.485194
3508 1 0.548038 0.294517 0.488754
3510 1 0.562402 0.294097 0.485343
3512 1 0.578614 0.296833 0.484587
3514 1 0.592472 0.296164 0.48262
3573 1 0.506912 0.305938 0.488638
3574 1 0.51241 0.318729 0.484879
3575 1 0.522003 0.304615 0.48961
3576 1 0.525963 0.318099 0.484557
3577 1 0.538744 0.307497 0.487802
3578 1 0.543393 0.319208 0.482119
3579 1 0.554153 0.308442 0.485004
3581 1 0.56622 0.308487 0.481363
3583 1 0.583607 0.308316 0.48073
3643 1 0.500877 0.329516 0.481748
3645 1 0.517781 0.329224 0.4813
3647 1 0.533055 0.333078 0.48194
3649 1 0.549635 0.335045 0.480582
3580 1 0.558363 0.321552 0.480897
3995 1 0.508078 0.45892 0.485019
3997 1 0.521221 0.460545 0.482188
3998 1 0.532744 0.467374 0.487014
4000 1 0.548232 0.469282 0.484605
4002 1 0.563913 0.470197 0.481284
4071 1 0.559403 0.478791 0.489147
4004 1 0.581113 0.469006 0.480776
4073 1 0.573839 0.47872 0.487812
4075 1 0.591144 0.478398 0.485701
4077 1 0.60776 0.474998 0.48496
4079 1 0.621258 0.475766 0.481517
4081 1 0.637284 0.475373 0.480057
4084 1 0.663053 0.480506 0.483997
4080 1 0.63332 0.484164 0.487773
4082 1 0.648066 0.484607 0.485963
4086 1 0.680098 0.482175 0.482677
4157 1 0.692555 0.490739 0.487797
4088 1 0.696824 0.483828 0.480742
4159 1 0.708316 0.490938 0.485915
4161 1 0.724172 0.491409 0.483741
4163 1 0.740426 0.490801 0.482279
4164 1 0.747822 0.497604 0.486964
4166 1 0.764978 0.495959 0.486699
4165 1 0.755552 0.48763 0.480182
4168 1 0.779118 0.493441 0.485227
4170 1 0.795695 0.491115 0.48363
4172 1 0.811552 0.488472 0.482863
4243 1 0.823149 0.497305 0.488765
4174 1 0.828943 0.486868 0.483013
4176 1 0.846166 0.483261 0.480887
4245 1 0.840364 0.493101 0.488163
4247 1 0.857712 0.492221 0.486585
4249 1 0.873568 0.491175 0.484727
4251 1 0.889893 0.493641 0.482326
4253 1 0.903251 0.491724 0.480567
2820 1 0.619758 0.0144228 0.495028
2821 1 0.623207 0.000858178 0.491616
2865 1 0.921134 0.00499559 0.49248
2867 1 0.934696 0.00638819 0.498501
2889 1 0.617541 0.0304254 0.498935
2866 1 0.929611 0.0197623 0.492616
2937 1 0.936402 0.0326828 0.492963
2868 1 0.943229 0.0189238 0.496741
2870 1 0.959194 0.0215207 0.499963
2939 1 0.953098 0.0319006 0.49587
71 1 0.965889 0.0338029 0.499687
2890 1 0.622272 0.041337 0.492026
2888 1 0.612147 0.0471258 0.499589
2938 1 0.94607 0.0454213 0.491153
2940 1 0.963568 0.0460524 0.49336
72 1 0.978764 0.0460906 0.49773
74 1 0.992598 0.0443675 0.497559
2959 1 0.615472 0.0566984 0.493337
143 1 0.990153 0.0569398 0.492629
3029 1 0.618472 0.0843472 0.492388
2958 1 0.61039 0.0717647 0.496894
3027 1 0.607738 0.0885677 0.499692
3028 1 0.617587 0.101324 0.494899
3097 1 0.617329 0.114826 0.496427
3096 1 0.610848 0.129461 0.499794
3098 1 0.622434 0.129919 0.492345
3168 1 0.621389 0.157285 0.490392
3167 1 0.616279 0.144478 0.495125
3166 1 0.611716 0.159279 0.496729
3235 1 0.60484 0.171661 0.498925
3237 1 0.615483 0.172312 0.491334
3236 1 0.612984 0.185943 0.494233
3305 1 0.608153 0.201573 0.495523
3373 1 0.592306 0.229535 0.497384
3304 1 0.602461 0.215381 0.497899
3306 1 0.614809 0.216437 0.492238
3375 1 0.609309 0.229586 0.494215
3370 1 0.570454 0.242766 0.499931
3372 1 0.584364 0.245054 0.495866
3374 1 0.598868 0.243931 0.493018
3376 1 0.614874 0.243434 0.490585
3432 1 0.504875 0.267674 0.49875
3434 1 0.520976 0.266864 0.498539
3439 1 0.561598 0.25427 0.497084
3441 1 0.576602 0.255791 0.494921
3443 1 0.590276 0.257555 0.492293
3503 1 0.511024 0.27968 0.495302
3505 1 0.527696 0.280371 0.495428
3436 1 0.535996 0.268266 0.498783
3438 1 0.552025 0.268209 0.494071
3507 1 0.543058 0.279534 0.493481
3440 1 0.566672 0.268258 0.491594
3442 1 0.58236 0.269601 0.490148
3504 1 0.517285 0.293395 0.492902
3502 1 0.500569 0.292727 0.490976
3506 1 0.535086 0.294628 0.49198
3996 1 0.516278 0.467901 0.491202
4065 1 0.512781 0.474612 0.498665
3994 1 0.502409 0.464856 0.493286
4067 1 0.529064 0.475565 0.495607
4069 1 0.545508 0.476655 0.491439
4068 1 0.538798 0.486165 0.499477
4070 1 0.554166 0.487598 0.497881
4072 1 0.56883 0.489821 0.493563
4143 1 0.581422 0.498324 0.498881
4074 1 0.585533 0.487531 0.493058
4076 1 0.602284 0.486512 0.491524
4145 1 0.596904 0.496473 0.49771
4078 1 0.619477 0.484508 0.490139
4147 1 0.612828 0.496415 0.496975
4149 1 0.629011 0.492559 0.495361
4151 1 0.642595 0.492977 0.493446
4153 1 0.659259 0.489713 0.493011
4155 1 0.675573 0.488075 0.490647
4154 1 0.670935 0.494718 0.497988
4156 1 0.686156 0.494894 0.495886
4158 1 0.702495 0.499746 0.494037
4160 1 0.717006 0.498837 0.492142
4162 1 0.732665 0.499014 0.490144
2817 1 0.606592 0.00439251 0.509733
2818 1 0.611031 0.0170697 0.503976
2819 1 0.615988 0.0018348 0.500158
2869 1 0.950126 0.00654776 0.502849
1 1 0.965107 0.0100186 0.504777
3 1 0.979372 0.00798842 0.5086
2887 1 0.607614 0.0333932 0.505463
2 1 0.973718 0.0198274 0.504317
4 1 0.988141 0.0232209 0.507015
73 1 0.982241 0.034246 0.501376
75 1 0.999668 0.0304103 0.502716
2886 1 0.602626 0.04816 0.507665
2955 1 0.597498 0.063703 0.509184
2957 1 0.609042 0.0621731 0.502242
2956 1 0.601431 0.0765516 0.504702
3025 1 0.600319 0.0917747 0.507151
3024 1 0.596684 0.106368 0.508205
3026 1 0.60891 0.104102 0.501849
3095 1 0.602856 0.118318 0.504171
3094 1 0.599569 0.132722 0.506582
3163 1 0.592572 0.147275 0.507611
3164 1 0.598526 0.159173 0.50367
3165 1 0.603809 0.145033 0.501747
3233 1 0.595387 0.173503 0.504311
3232 1 0.590642 0.190737 0.50596
3234 1 0.601577 0.18815 0.500013
3301 1 0.582784 0.206336 0.507126
3303 1 0.594999 0.201498 0.501223
3361 1 0.500826 0.22657 0.508061
3363 1 0.517969 0.227491 0.508498
3365 1 0.533565 0.22933 0.508184
3367 1 0.548654 0.228182 0.50755
3369 1 0.563644 0.231263 0.504721
3300 1 0.571735 0.219474 0.505366
3302 1 0.586841 0.216159 0.502223
3371 1 0.579811 0.231904 0.502005
3362 1 0.508444 0.239666 0.504313
3364 1 0.523392 0.24085 0.505281
3366 1 0.540887 0.242434 0.504519
3368 1 0.555811 0.241833 0.502677
3433 1 0.514292 0.252639 0.50075
3435 1 0.531179 0.254534 0.501393
3437 1 0.546921 0.254758 0.500356
4064 1 0.507434 0.482585 0.505619
4135 1 0.516658 0.493271 0.508495
4066 1 0.522769 0.484445 0.502154
4137 1 0.533399 0.496413 0.505702
4139 1 0.548497 0.49745 0.502865
4141 1 0.565947 0.498378 0.500628
4148 1 0.622924 0.499638 0.502192
2815 1 0.597471 0.00509746 0.516405
5 1 0.994914 0.0122236 0.512671
2816 1 0.601824 0.0203414 0.511707
2814 1 0.59167 0.021911 0.518125
2885 1 0.596541 0.0349265 0.511937
2883 1 0.587936 0.0375619 0.519643
2884 1 0.595082 0.0499688 0.514719
2953 1 0.589475 0.0654431 0.517185
2952 1 0.585099 0.0800901 0.518622
2954 1 0.592365 0.0786214 0.511116
3022 1 0.58455 0.106914 0.515147
3023 1 0.590869 0.0931858 0.513373
3091 1 0.581539 0.123372 0.518882
3093 1 0.593433 0.120158 0.513158
3092 1 0.587183 0.135768 0.513686
3090 1 0.573607 0.138025 0.519043
3161 1 0.581875 0.149575 0.51493
3158 1 0.561386 0.165216 0.519184
3160 1 0.575821 0.163792 0.514979
3162 1 0.588504 0.161533 0.510211
3222 1 0.511577 0.188483 0.517635
3224 1 0.529511 0.188512 0.516853
3226 1 0.54509 0.193027 0.515515
3227 1 0.554001 0.178699 0.517603
3228 1 0.561811 0.191107 0.514326
3229 1 0.569887 0.178807 0.514604
3231 1 0.582879 0.179123 0.51095
3230 1 0.576414 0.192224 0.511261
3291 1 0.502912 0.200335 0.514634
3293 1 0.519223 0.202762 0.514366
3295 1 0.535145 0.204012 0.513153
3297 1 0.553388 0.206151 0.514855
3299 1 0.567512 0.207159 0.510483
3292 1 0.510447 0.215528 0.511566
3294 1 0.52636 0.216497 0.512452
3296 1 0.54236 0.216264 0.512568
3298 1 0.558695 0.219374 0.510484
4133 1 0.501683 0.491359 0.512201
2813 1 0.583961 0.00905082 0.522783
2812 1 0.580958 0.0256571 0.525756
2881 1 0.57996 0.0401704 0.527746
2882 1 0.585929 0.0517477 0.522714
2951 1 0.581236 0.0677028 0.524745
2880 1 0.573481 0.0556412 0.528776
2950 1 0.575634 0.0830736 0.52642
3019 1 0.567339 0.0959724 0.52843
3021 1 0.580133 0.0956706 0.521389
3018 1 0.562021 0.111685 0.528708
3089 1 0.568037 0.123265 0.524382
3020 1 0.57591 0.108714 0.522772
3086 1 0.547828 0.138825 0.52876
3088 1 0.562069 0.136125 0.524719
3151 1 0.507478 0.152312 0.529588
3153 1 0.523465 0.152145 0.529299
3155 1 0.540628 0.151062 0.525955
3159 1 0.568528 0.151393 0.52051
3157 1 0.553879 0.151208 0.524218
3221 1 0.5037 0.17354 0.520859
3152 1 0.515414 0.162964 0.525659
3154 1 0.531669 0.165822 0.525386
3223 1 0.522115 0.176771 0.52121
3225 1 0.53907 0.177761 0.52041
3156 1 0.547981 0.166449 0.522777
5540 1 0.57 0.00131392 0.534952
2809 1 0.564794 0.0144416 0.537508
2811 1 0.575501 0.012741 0.530981
2808 1 0.559928 0.0305484 0.539209
2810 1 0.568956 0.0277774 0.532175
2879 1 0.568781 0.0444658 0.535404
2878 1 0.562311 0.0578398 0.536604
2949 1 0.571735 0.0697217 0.533276
2946 1 0.550955 0.0874438 0.540694
2947 1 0.558193 0.0730365 0.53892
2948 1 0.563873 0.0849445 0.534053
3015 1 0.541973 0.0999776 0.538343
3017 1 0.556756 0.0974073 0.534462
3012 1 0.517713 0.116246 0.54014
3014 1 0.534939 0.113664 0.538803
3016 1 0.54843 0.111981 0.532453
3087 1 0.553843 0.124343 0.530879
3082 1 0.515283 0.140618 0.535462
3081 1 0.507711 0.126389 0.538534
3084 1 0.531141 0.142122 0.531998
3083 1 0.525012 0.129231 0.538477
3085 1 0.540147 0.127223 0.534475
5536 1 0.547457 0.0058068 0.548602
5538 1 0.557992 0.00231217 0.541938
2805 1 0.541374 0.0209436 0.549926
2806 1 0.549048 0.0311936 0.545722
2807 1 0.551912 0.0183236 0.544623
2875 1 0.541705 0.0464616 0.546315
2877 1 0.55621 0.0449093 0.540844
2874 1 0.536518 0.0619831 0.548634
2876 1 0.54861 0.0593776 0.542182
2941 1 0.516534 0.0762005 0.550447
210 1 0.505461 0.0885427 0.548163
2943 1 0.530058 0.0760203 0.54773
2945 1 0.545397 0.074547 0.544771
2944 1 0.536541 0.0869836 0.543807
3011 1 0.511288 0.102826 0.542903
2942 1 0.520588 0.0895828 0.546282
3013 1 0.52788 0.101528 0.541381
280 1 0.501451 0.113012 0.542431
5534 1 0.535112 0.00781433 0.555584
5532 1 0.522762 0.00951221 0.559641
2803 1 0.529305 0.0248643 0.55697
70 1 0.504994 0.0383989 0.560475
2871 1 0.512981 0.0520414 0.556078
2873 1 0.528867 0.04896 0.553023
2802 1 0.522067 0.0370248 0.558627
2804 1 0.536326 0.036334 0.552275
140 1 0.506649 0.0641663 0.553897
2872 1 0.523063 0.063185 0.552345
2800 1 0.506754 0.0102003 0.563073
2801 1 0.513185 0.0242667 0.561458
5568 1 0.728094 0.970127 0.447717
2843 1 0.768708 0.980423 0.447607
2837 1 0.719672 0.983893 0.447798
2838 1 0.728349 0.997279 0.448955
2839 1 0.735153 0.982396 0.447455
2840 1 0.74505 0.995656 0.447129
2841 1 0.75228 0.982696 0.448088
2842 1 0.762538 0.995886 0.446078
2844 1 0.776217 0.995255 0.447775
4685 1 0.996387 0.657154 0.457215
4684 1 0.985145 0.671023 0.457972
4686 1 0.999894 0.672508 0.454097
4750 1 0.946205 0.691593 0.458129
4752 1 0.959515 0.695151 0.454955
4753 1 0.973109 0.684513 0.456717
4755 1 0.98887 0.684471 0.452527
4818 1 0.924299 0.713738 0.456576
4819 1 0.934625 0.700745 0.457067
4821 1 0.950077 0.707019 0.453508
4754 1 0.977173 0.69725 0.452717
4823 1 0.965309 0.708267 0.45127
4825 1 0.982083 0.711391 0.45075
4756 1 0.992782 0.699382 0.450353
4827 1 0.998458 0.713743 0.451123
4888 1 0.913168 0.723689 0.455948
4820 1 0.940735 0.716488 0.453329
4889 1 0.930697 0.726913 0.455115
4891 1 0.94581 0.730897 0.452051
4822 1 0.957492 0.718807 0.451295
4824 1 0.97093 0.723175 0.450739
4826 1 0.986186 0.726465 0.451746
4955 1 0.886196 0.732964 0.459164
4956 1 0.891355 0.747333 0.457358
4957 1 0.902968 0.734751 0.456886
4959 1 0.919984 0.738798 0.45526
4890 1 0.936986 0.741427 0.45299
4893 1 0.960725 0.735612 0.450673
4892 1 0.950366 0.747671 0.451303
4895 1 0.975602 0.737737 0.453601
4897 1 0.992794 0.740427 0.45358
5027 1 0.895756 0.760863 0.458149
4958 1 0.908186 0.750255 0.454965
4960 1 0.925186 0.75438 0.453553
5029 1 0.912256 0.765982 0.45535
4961 1 0.940519 0.758505 0.453657
4963 1 0.957509 0.762068 0.452491
4894 1 0.967659 0.751855 0.451993
4965 1 0.972083 0.76611 0.455261
4896 1 0.983632 0.75396 0.455414
4898 1 0.998316 0.756093 0.454724
5031 1 0.929026 0.76864 0.455579
4962 1 0.946246 0.773406 0.456067
4964 1 0.959483 0.775747 0.458562
4967 1 0.987042 0.76915 0.458035
5360 1 0.743511 0.886217 0.458382
5427 1 0.719282 0.900276 0.458533
5429 1 0.733527 0.900617 0.457207
5426 1 0.711269 0.916282 0.457555
5428 1 0.727316 0.913839 0.454788
5497 1 0.71803 0.928478 0.454216
5430 1 0.744186 0.914436 0.455164
5499 1 0.73307 0.927611 0.453987
5501 1 0.749288 0.927906 0.455629
5495 1 0.704205 0.930153 0.457545
5494 1 0.698213 0.943094 0.457304
5496 1 0.712185 0.942075 0.453541
5498 1 0.728654 0.940698 0.451626
5500 1 0.743206 0.939739 0.451059
5502 1 0.75749 0.942893 0.455275
5563 1 0.689661 0.956053 0.457101
5565 1 0.7048 0.957035 0.453377
5567 1 0.720419 0.956095 0.450451
5569 1 0.735752 0.955184 0.449522
5571 1 0.752057 0.953958 0.451467
5573 1 0.766962 0.957698 0.454507
5575 1 0.780694 0.9575 0.45814
5564 1 0.696133 0.969982 0.454471
5562 1 0.681162 0.971296 0.457234
5566 1 0.711264 0.969904 0.449944
5570 1 0.745133 0.969671 0.44968
5572 1 0.760559 0.968636 0.449735
5574 1 0.774853 0.969844 0.452906
5576 1 0.787478 0.971352 0.458004
2831 1 0.676038 0.984515 0.456662
2833 1 0.690021 0.984393 0.454581
2832 1 0.683929 0.998861 0.454941
2834 1 0.697161 0.998586 0.451763
2836 1 0.712828 0.997402 0.449959
2835 1 0.704407 0.983867 0.450715
2845 1 0.783725 0.984654 0.451366
2846 1 0.793582 0.996398 0.450111
2847 1 0.799704 0.984816 0.455563
2848 1 0.807704 0.999061 0.454092
2850 1 0.820188 0.999623 0.458217
4261 1 0.966301 0.500699 0.467795
4264 1 0.991627 0.510183 0.467768
4546 1 0.999595 0.619701 0.46748
4612 1 0.963853 0.638988 0.469196
4614 1 0.977445 0.641461 0.463507
4615 1 0.987519 0.629367 0.465358
4679 1 0.954522 0.651895 0.469206
4681 1 0.967661 0.654228 0.464421
4683 1 0.981456 0.655411 0.461163
4616 1 0.995221 0.643906 0.461971
4749 1 0.944685 0.677509 0.463685
4747 1 0.931068 0.672813 0.465634
4678 1 0.942264 0.660934 0.466946
4680 1 0.954917 0.666935 0.463748
4682 1 0.969525 0.66861 0.46127
4814 1 0.891996 0.693103 0.468518
4746 1 0.918195 0.684617 0.46524
4748 1 0.931705 0.688966 0.463334
4751 1 0.958351 0.680899 0.460422
4880 1 0.852236 0.712619 0.468982
4883 1 0.879007 0.702969 0.465551
4816 1 0.906219 0.697021 0.464678
4885 1 0.893313 0.708202 0.462682
4887 1 0.909321 0.71104 0.460779
4817 1 0.91983 0.69938 0.460315
4948 1 0.830159 0.732127 0.466175
4949 1 0.84305 0.721419 0.467568
4951 1 0.855537 0.725544 0.463706
4953 1 0.871363 0.729455 0.460662
4882 1 0.866941 0.714524 0.463902
4884 1 0.882509 0.718771 0.461744
4886 1 0.897695 0.720751 0.459324
5017 1 0.818118 0.743514 0.464891
5019 1 0.831256 0.745458 0.461656
4950 1 0.844339 0.734474 0.461927
5021 1 0.847152 0.749278 0.460241
4952 1 0.860233 0.74054 0.461468
4954 1 0.876198 0.743436 0.459297
5083 1 0.780873 0.76569 0.466302
5016 1 0.807896 0.758053 0.465863
5018 1 0.821388 0.757677 0.461731
5020 1 0.837507 0.761778 0.460873
5022 1 0.855265 0.764237 0.460347
5023 1 0.863899 0.752921 0.460661
5024 1 0.8691 0.767727 0.460314
5025 1 0.880427 0.758455 0.45959
5080 1 0.757195 0.775983 0.469026
5082 1 0.770545 0.777663 0.464709
5084 1 0.784792 0.780262 0.46104
5085 1 0.797983 0.76939 0.463761
5086 1 0.802239 0.78155 0.460719
5087 1 0.812113 0.769871 0.462046
5088 1 0.818285 0.783447 0.46172
5089 1 0.828312 0.77321 0.461689
5091 1 0.8443 0.774955 0.460715
5093 1 0.857595 0.780668 0.46222
5026 1 0.885856 0.774221 0.461244
5095 1 0.875332 0.781934 0.462708
5097 1 0.892824 0.784719 0.463916
5028 1 0.903072 0.774037 0.460497
5030 1 0.917991 0.779105 0.459321
5032 1 0.934057 0.782775 0.459784
4966 1 0.975556 0.781213 0.46003
4968 1 0.991547 0.779959 0.46186
5148 1 0.735128 0.800412 0.468509
5149 1 0.746554 0.790349 0.467503
5151 1 0.760433 0.791393 0.465766
5150 1 0.751504 0.803066 0.465217
5153 1 0.774942 0.79111 0.460913
5155 1 0.78974 0.794103 0.460696
5157 1 0.805859 0.795734 0.461521
5090 1 0.833544 0.787642 0.461741
5159 1 0.823516 0.7985 0.463848
5092 1 0.848885 0.792167 0.462953
5161 1 0.839668 0.803353 0.464716
5094 1 0.866226 0.794547 0.465271
5096 1 0.881346 0.797503 0.466768
5099 1 0.908145 0.789198 0.464362
5098 1 0.896294 0.801027 0.468021
5101 1 0.92406 0.792347 0.46443
5100 1 0.913112 0.803346 0.468113
5103 1 0.938653 0.794893 0.464368
5033 1 0.950551 0.787473 0.460615
5034 1 0.951213 0.797705 0.466967
5035 1 0.965944 0.789088 0.463731
5036 1 0.967837 0.798239 0.469154
5037 1 0.982689 0.790433 0.465402
5039 1 0.99439 0.79135 0.469068
5217 1 0.725402 0.815167 0.467186
5219 1 0.742317 0.814443 0.464254
5221 1 0.75753 0.816653 0.463116
5152 1 0.766115 0.804001 0.463081
5154 1 0.781205 0.805308 0.461508
5223 1 0.773603 0.820216 0.462694
5156 1 0.798288 0.81005 0.463059
5225 1 0.787775 0.820402 0.464657
5158 1 0.812502 0.809383 0.464824
5160 1 0.829055 0.813932 0.465405
5163 1 0.853364 0.806211 0.467217
5162 1 0.845681 0.817214 0.467843
5165 1 0.868597 0.809224 0.469247
5102 1 0.929018 0.80517 0.468691
5104 1 0.944053 0.809923 0.468907
5214 1 0.694928 0.836073 0.469366
5216 1 0.716504 0.830144 0.467622
5218 1 0.731942 0.828693 0.463865
5220 1 0.746097 0.828794 0.460538
5222 1 0.761743 0.831256 0.462166
5224 1 0.778638 0.832361 0.46385
5226 1 0.793976 0.836035 0.466412
5227 1 0.804087 0.823148 0.466768
5229 1 0.818944 0.823989 0.467879
5283 1 0.687128 0.849908 0.469218
5285 1 0.706263 0.843487 0.465188
5287 1 0.720575 0.843405 0.463644
5289 1 0.737734 0.843188 0.461522
5291 1 0.754345 0.846424 0.460622
5293 1 0.769694 0.84708 0.462955
5295 1 0.784796 0.848044 0.46534
5353 1 0.691382 0.874871 0.468476
5284 1 0.696975 0.858872 0.465961
5355 1 0.704977 0.872897 0.463363
5288 1 0.729941 0.857988 0.46253
5286 1 0.714593 0.859703 0.463536
5357 1 0.719565 0.872618 0.462253
5290 1 0.743235 0.859426 0.461431
5359 1 0.736411 0.87177 0.460358
5292 1 0.759097 0.859407 0.463528
5361 1 0.752631 0.874154 0.460753
5294 1 0.776548 0.862094 0.464529
5296 1 0.789136 0.86321 0.46763
5354 1 0.697053 0.88837 0.464826
5356 1 0.711411 0.886366 0.461912
5358 1 0.727401 0.884358 0.459529
5362 1 0.757031 0.887997 0.46219
5363 1 0.765737 0.875795 0.463503
5365 1 0.781086 0.876157 0.467894
5364 1 0.770809 0.889929 0.4654
5366 1 0.785353 0.891053 0.468767
5423 1 0.691178 0.90467 0.463936
5425 1 0.703324 0.900987 0.460143
5431 1 0.750971 0.901317 0.459494
5433 1 0.763035 0.902743 0.464285
5435 1 0.775413 0.906357 0.468422
5422 1 0.68444 0.916367 0.465806
5424 1 0.699026 0.915082 0.460728
5432 1 0.756631 0.915049 0.459746
5434 1 0.76719 0.919985 0.464524
5490 1 0.672604 0.946178 0.468288
5491 1 0.677802 0.930239 0.467828
5493 1 0.690636 0.928985 0.461423
5492 1 0.684385 0.94352 0.461802
5503 1 0.763463 0.931055 0.460062
5505 1 0.777827 0.933105 0.465046
5504 1 0.770779 0.944598 0.459687
5506 1 0.78564 0.945004 0.464593
5559 1 0.664462 0.962176 0.468543
5561 1 0.675635 0.958407 0.462913
5577 1 0.79326 0.96112 0.463608
5508 1 0.800958 0.94945 0.469132
5579 1 0.809597 0.962219 0.467825
5560 1 0.669963 0.973665 0.462165
5578 1 0.802507 0.975878 0.461854
5580 1 0.819382 0.973912 0.4655
5582 1 0.832681 0.976098 0.469207
2829 1 0.663097 0.989881 0.463258
2849 1 0.812922 0.986661 0.459861
2851 1 0.827035 0.985719 0.463716
4258 1 0.94259 0.515367 0.476624
4257 1 0.934973 0.501157 0.471772
4260 1 0.959078 0.512954 0.473993
4259 1 0.948707 0.503069 0.470125
4262 1 0.974182 0.510509 0.470344
4329 1 0.952356 0.523982 0.479274
4331 1 0.96862 0.522574 0.477275
4333 1 0.985204 0.522804 0.473446
4332 1 0.976569 0.535855 0.477836
4334 1 0.992017 0.53678 0.473589
4403 1 0.98524 0.549187 0.477846
4404 1 0.993079 0.564601 0.476021
4543 1 0.979825 0.603111 0.476936
4545 1 0.993312 0.605559 0.472494
4474 1 0.991922 0.59263 0.477345
4540 1 0.955193 0.612278 0.479575
4542 1 0.97177 0.616845 0.476723
4544 1 0.984482 0.616999 0.471593
4608 1 0.934998 0.637346 0.478037
4609 1 0.946069 0.625096 0.478616
4611 1 0.959354 0.625867 0.47457
4610 1 0.949162 0.637907 0.473945
4613 1 0.973887 0.629217 0.470798
4606 1 0.926804 0.649438 0.478308
4677 1 0.940708 0.649629 0.472677
4744 1 0.903659 0.672787 0.476951
4745 1 0.917591 0.672325 0.471589
4676 1 0.927537 0.660983 0.471751
4675 1 0.913654 0.661028 0.477648
4812 1 0.877561 0.693912 0.473419
4813 1 0.891236 0.684217 0.474512
4815 1 0.904578 0.681483 0.469421
4878 1 0.836965 0.710532 0.47472
4879 1 0.849779 0.703359 0.477739
4881 1 0.864646 0.703563 0.472132
4946 1 0.816118 0.731581 0.472256
4945 1 0.81561 0.721888 0.479306
4947 1 0.828102 0.721666 0.472552
5013 1 0.792239 0.74277 0.476036
4944 1 0.804063 0.733283 0.477109
5015 1 0.804533 0.74537 0.470826
5010 1 0.752641 0.767142 0.476981
5011 1 0.76392 0.753075 0.478039
5081 1 0.768648 0.76593 0.472832
5012 1 0.779301 0.754591 0.473207
5014 1 0.791702 0.755931 0.46971
5079 1 0.742937 0.776916 0.474307
5145 1 0.706999 0.797327 0.475538
5076 1 0.717424 0.785759 0.478158
5147 1 0.722487 0.799178 0.472045
5078 1 0.731525 0.787392 0.472899
5040 1 0.99936 0.800192 0.474478
5038 1 0.983492 0.800579 0.470417
5146 1 0.711767 0.811144 0.471731
5144 1 0.699612 0.810918 0.476497
5164 1 0.860477 0.819398 0.471838
5166 1 0.874739 0.82121 0.473039
5167 1 0.884975 0.810794 0.470152
5169 1 0.900128 0.814285 0.471148
5171 1 0.917893 0.817192 0.472729
5173 1 0.931424 0.819845 0.472977
5105 1 0.957584 0.812565 0.470451
5107 1 0.974894 0.813814 0.472709
5109 1 0.990382 0.81099 0.475914
5213 1 0.689783 0.824249 0.475388
5212 1 0.681513 0.837869 0.474248
5215 1 0.704573 0.823872 0.470403
5231 1 0.835317 0.828819 0.470091
5233 1 0.849256 0.830708 0.472844
5235 1 0.864474 0.831797 0.476702
5237 1 0.879498 0.834558 0.47792
5168 1 0.890157 0.823642 0.474257
5170 1 0.906412 0.82723 0.475002
5239 1 0.893458 0.837542 0.479525
5172 1 0.921784 0.830967 0.478111
5174 1 0.939108 0.832629 0.477952
5175 1 0.948473 0.825131 0.474464
5106 1 0.963152 0.823725 0.47565
5108 1 0.98127 0.824133 0.476912
5281 1 0.672985 0.851721 0.473791
5297 1 0.800721 0.851882 0.469496
5228 1 0.80926 0.839493 0.470131
5299 1 0.814401 0.855419 0.471882
5230 1 0.824043 0.840031 0.471456
5301 1 0.829751 0.85387 0.476594
5232 1 0.840585 0.843588 0.474364
5234 1 0.856024 0.843928 0.478952
5280 1 0.668074 0.865512 0.475716
5282 1 0.682643 0.863896 0.472106
5298 1 0.803701 0.866418 0.472184
5300 1 0.820686 0.868955 0.475111
5303 1 0.845441 0.858063 0.478894
5349 1 0.663971 0.881125 0.478292
5351 1 0.678424 0.878364 0.472273
5350 1 0.672391 0.892731 0.47527
5352 1 0.685176 0.891364 0.470022
5367 1 0.794582 0.875693 0.471685
5368 1 0.800463 0.892082 0.472616
5369 1 0.810982 0.879229 0.474273
5370 1 0.813265 0.892818 0.478228
5371 1 0.823591 0.880819 0.479501
5419 1 0.66519 0.906868 0.476491
5421 1 0.679256 0.905694 0.470162
5437 1 0.791957 0.906658 0.472275
5439 1 0.806946 0.908287 0.475067
5441 1 0.820185 0.909321 0.478769
5418 1 0.659833 0.923911 0.478579
5420 1 0.673029 0.91928 0.472241
5436 1 0.783094 0.920544 0.469623
5438 1 0.797912 0.919011 0.473046
5440 1 0.81127 0.920685 0.477224
5487 1 0.653365 0.938218 0.47958
5489 1 0.664792 0.935347 0.472785
5507 1 0.792162 0.934599 0.469605
5509 1 0.806544 0.934874 0.473024
5511 1 0.81782 0.93436 0.477388
5488 1 0.657844 0.949532 0.472849
5486 1 0.647266 0.951903 0.479163
5510 1 0.81423 0.94993 0.472919
5512 1 0.827256 0.948869 0.475332
5581 1 0.825798 0.962417 0.471027
5514 1 0.842043 0.952005 0.478053
5583 1 0.840254 0.964044 0.474657
5558 1 0.659184 0.97681 0.469648
5557 1 0.653607 0.966047 0.47506
5556 1 0.649245 0.979912 0.47584
5584 1 0.845888 0.977398 0.471524
5585 1 0.852101 0.967043 0.47762
5586 1 0.860182 0.982108 0.476379
2825 1 0.644322 0.994875 0.477251
2827 1 0.653366 0.992487 0.470688
2853 1 0.83615 0.989884 0.469389
2855 1 0.852143 0.989753 0.471834
2857 1 0.866897 0.995281 0.476195
4239 1 0.791118 0.503606 0.489441
4241 1 0.806421 0.500808 0.489241
4252 1 0.897626 0.504337 0.487112
4254 1 0.912877 0.505966 0.483311
4325 1 0.923751 0.516176 0.486972
4256 1 0.928891 0.508344 0.479603
4327 1 0.938269 0.521075 0.483178
4328 1 0.948568 0.533317 0.48612
4397 1 0.939895 0.546196 0.489727
4330 1 0.96242 0.536341 0.482131
4399 1 0.955927 0.547001 0.486359
4401 1 0.970431 0.550592 0.482651
4398 1 0.948407 0.557442 0.489464
4400 1 0.962524 0.560958 0.484625
4402 1 0.978503 0.56214 0.481622
4468 1 0.945748 0.586563 0.488346
4469 1 0.954282 0.572792 0.486585
4470 1 0.961555 0.5863 0.483418
4471 1 0.969742 0.574169 0.483411
4472 1 0.975487 0.588109 0.480678
4473 1 0.98649 0.577288 0.48148
4535 1 0.933583 0.60038 0.488199
4539 1 0.950014 0.599529 0.485529
4541 1 0.965491 0.601929 0.481065
4537 1 0.926122 0.611116 0.487514
4538 1 0.942059 0.611042 0.483448
4607 1 0.929951 0.623774 0.48189
4673 1 0.907671 0.63578 0.487627
4536 1 0.917445 0.625279 0.486618
4605 1 0.922849 0.637061 0.482587
4672 1 0.898892 0.648912 0.488172
4674 1 0.910856 0.648145 0.482835
4738 1 0.848365 0.677687 0.488621
4740 1 0.873409 0.672122 0.486699
4741 1 0.886871 0.661714 0.487348
4742 1 0.88824 0.670971 0.481096
4743 1 0.900749 0.661931 0.482569
4807 1 0.835162 0.6883 0.488169
4808 1 0.84985 0.690568 0.482759
4810 1 0.86402 0.693105 0.479646
4809 1 0.863427 0.681497 0.484296
4811 1 0.876593 0.683417 0.479794
4875 1 0.812387 0.709915 0.486556
4876 1 0.825024 0.712168 0.479983
4877 1 0.838835 0.701121 0.482033
4806 1 0.825247 0.701694 0.48716
4941 1 0.777043 0.731403 0.486929
4874 1 0.802298 0.722679 0.484379
4940 1 0.764321 0.740934 0.485754
4942 1 0.777243 0.744862 0.480338
4943 1 0.791499 0.735184 0.482934
5006 1 0.728511 0.765261 0.486139
5008 1 0.74124 0.764266 0.483495
5007 1 0.740345 0.754119 0.489307
5009 1 0.752355 0.75424 0.483994
5077 1 0.729202 0.77421 0.479737
5075 1 0.715072 0.775454 0.485077
5143 1 0.693354 0.798279 0.481732
5072 1 0.691049 0.789425 0.487845
5141 1 0.68187 0.801109 0.489634
5074 1 0.703643 0.788601 0.483429
5142 1 0.685408 0.812007 0.481509
5110 1 0.995153 0.820904 0.482412
5209 1 0.666332 0.829565 0.487068
5211 1 0.679027 0.827176 0.481987
5176 1 0.955084 0.837015 0.480299
5177 1 0.969354 0.834268 0.479873
5179 1 0.984657 0.83496 0.483499
5208 1 0.656633 0.841723 0.487079
5277 1 0.648278 0.855417 0.48685
5210 1 0.66927 0.841623 0.480039
5279 1 0.661879 0.854066 0.481262
5236 1 0.868235 0.846439 0.481798
5238 1 0.883566 0.847762 0.482322
5240 1 0.8999 0.851728 0.483679
5241 1 0.910778 0.839414 0.480152
5243 1 0.92713 0.843066 0.481007
5242 1 0.915388 0.853405 0.485029
5245 1 0.942395 0.845395 0.483237
5244 1 0.930664 0.856409 0.486031
5247 1 0.959517 0.848427 0.485744
5178 1 0.975209 0.846125 0.484959
5276 1 0.639516 0.866851 0.486781
5278 1 0.655114 0.869643 0.481891
5302 1 0.834549 0.869554 0.480154
5304 1 0.84737 0.87148 0.482477
5305 1 0.859273 0.859947 0.482139
5306 1 0.86412 0.874164 0.485539
5307 1 0.873539 0.860238 0.484604
5309 1 0.88897 0.862544 0.48549
5308 1 0.880269 0.87416 0.487919
5311 1 0.905638 0.865988 0.488002
5313 1 0.91949 0.868865 0.489274
5246 1 0.946885 0.860336 0.488838
5345 1 0.637112 0.882679 0.488767
5347 1 0.648948 0.881545 0.484134
5373 1 0.838797 0.883016 0.48336
5375 1 0.854703 0.884872 0.486493
5348 1 0.657743 0.895373 0.481054
5417 1 0.653582 0.909136 0.482421
5346 1 0.644618 0.897743 0.486255
5372 1 0.829143 0.895884 0.482475
5443 1 0.834575 0.909987 0.483566
5374 1 0.845611 0.897183 0.484993
5376 1 0.858823 0.900809 0.488648
5415 1 0.640679 0.911291 0.488995
5414 1 0.635026 0.926239 0.489786
5416 1 0.648905 0.923738 0.484006
5442 1 0.826621 0.921477 0.480977
5445 1 0.848918 0.913579 0.487146
5444 1 0.84265 0.925356 0.484005
5447 1 0.862747 0.916176 0.489788
5485 1 0.641921 0.940146 0.486005
5513 1 0.834613 0.93605 0.480293
5446 1 0.856828 0.928985 0.487123
5515 1 0.848603 0.940717 0.484343
5517 1 0.863999 0.943636 0.487133
5484 1 0.636884 0.954186 0.4868
5516 1 0.857092 0.955161 0.483091
5518 1 0.872157 0.959086 0.487272
5553 1 0.630253 0.968721 0.48757
5554 1 0.638254 0.981159 0.481465
5555 1 0.641147 0.967791 0.480977
5587 1 0.866454 0.97065 0.481262
5589 1 0.879883 0.973763 0.485254
5552 1 0.626671 0.985395 0.488684
2823 1 0.633644 0.996475 0.484348
5588 1 0.875451 0.984176 0.480306
5590 1 0.889126 0.988398 0.485353
2859 1 0.881318 0.997777 0.479724
4152 1 0.65453 0.500263 0.49891
4229 1 0.711658 0.506665 0.499129
4231 1 0.729048 0.506534 0.497692
4233 1 0.742226 0.504884 0.495387
4235 1 0.75828 0.50718 0.49353
4238 1 0.785553 0.511944 0.496384
4237 1 0.774264 0.50627 0.491414
4236 1 0.770521 0.514061 0.499377
4240 1 0.80123 0.5077 0.496011
4242 1 0.819406 0.505416 0.494678
4244 1 0.834886 0.504823 0.49465
4315 1 0.846863 0.513501 0.49952
4246 1 0.851328 0.503137 0.493875
4248 1 0.867497 0.501159 0.491232
4317 1 0.862737 0.512125 0.498476
4250 1 0.883142 0.503503 0.490149
4319 1 0.877911 0.514682 0.494562
4321 1 0.892267 0.516021 0.494058
4323 1 0.907604 0.516368 0.490209
4320 1 0.886986 0.526549 0.498857
4322 1 0.902105 0.527356 0.495818
4324 1 0.917745 0.528195 0.493166
4326 1 0.933756 0.530166 0.490031
4395 1 0.925331 0.542926 0.494524
4393 1 0.911101 0.539146 0.497934
4463 1 0.908471 0.57005 0.497842
4394 1 0.918412 0.555553 0.497429
4465 1 0.923479 0.569894 0.4948
4396 1 0.933017 0.554439 0.493514
4467 1 0.938415 0.571231 0.491013
4464 1 0.91369 0.583903 0.49542
4466 1 0.928911 0.585198 0.49176
4533 1 0.907598 0.597386 0.496395
4534 1 0.920077 0.597948 0.491317
4601 1 0.888981 0.620204 0.497655
4604 1 0.902956 0.622368 0.491592
4603 1 0.89857 0.608606 0.496718
4532 1 0.913003 0.613311 0.491883
4600 1 0.87922 0.634083 0.497108
4602 1 0.893713 0.63416 0.492776
4668 1 0.860594 0.659198 0.497983
4669 1 0.870933 0.648062 0.497712
4670 1 0.872818 0.660321 0.491874
4671 1 0.884844 0.648536 0.491836
4736 1 0.836403 0.677557 0.494526
4737 1 0.848439 0.669709 0.496176
4739 1 0.860569 0.671069 0.491062
4805 1 0.824213 0.688265 0.493789
4873 1 0.801983 0.712021 0.492492
4871 1 0.789251 0.714218 0.498517
4804 1 0.81441 0.700742 0.493316
4870 1 0.777268 0.724442 0.496715
4872 1 0.790308 0.723711 0.490744
4936 1 0.738877 0.744623 0.497462
4938 1 0.750164 0.74151 0.491224
4939 1 0.763851 0.732799 0.492683
4937 1 0.751367 0.734226 0.49869
5002 1 0.701063 0.766258 0.498066
5004 1 0.714884 0.764375 0.491237
5005 1 0.726818 0.755336 0.494924
5003 1 0.714998 0.755383 0.499643
5071 1 0.692135 0.778624 0.496386
5073 1 0.703565 0.777307 0.490104
5070 1 0.681265 0.789872 0.495946
5140 1 0.675528 0.817034 0.489813
5139 1 0.675066 0.806919 0.496566
5138 1 0.663974 0.818614 0.495213
5205 1 0.640728 0.830899 0.499292
5207 1 0.652671 0.831409 0.493319
5204 1 0.630902 0.843879 0.497919
5275 1 0.63658 0.856563 0.492966
5206 1 0.643229 0.844122 0.492523
5249 1 0.974037 0.855008 0.490583
5180 1 0.988248 0.846602 0.489878
2381 1 0.988455 0.854928 0.495533
5273 1 0.623914 0.85791 0.499805
5272 1 0.616945 0.873248 0.499737
5274 1 0.627519 0.870739 0.492598
5315 1 0.935345 0.870917 0.490964
5248 1 0.961006 0.861722 0.493428
5317 1 0.951754 0.873799 0.495014
5250 1 0.975529 0.864093 0.4989
5343 1 0.62422 0.885398 0.495815
5377 1 0.869668 0.886747 0.490784
5379 1 0.883962 0.890219 0.491414
5310 1 0.894445 0.876447 0.490216
5312 1 0.91032 0.88092 0.492164
5381 1 0.89794 0.892341 0.494158
5314 1 0.923511 0.883196 0.493113
5316 1 0.938653 0.884336 0.496256
5342 1 0.619975 0.900475 0.497453
5344 1 0.63296 0.895931 0.491665
5378 1 0.873701 0.90238 0.491101
5380 1 0.890822 0.905703 0.494028
5382 1 0.901578 0.90773 0.497335
5384 1 0.918312 0.909503 0.498707
5383 1 0.912035 0.895851 0.496703
5385 1 0.928349 0.895342 0.497417
5413 1 0.626865 0.912881 0.492666
5449 1 0.878857 0.918476 0.493213
5451 1 0.894586 0.922096 0.495789
5453 1 0.907351 0.923277 0.49955
5481 1 0.620631 0.94237 0.498985
5412 1 0.62572 0.929007 0.4967
5483 1 0.63147 0.941297 0.492176
5448 1 0.870571 0.931375 0.49164
5450 1 0.88547 0.93486 0.495181
5452 1 0.89943 0.93688 0.496192
5454 1 0.913558 0.936585 0.499714
5482 1 0.626376 0.955679 0.493285
5519 1 0.879598 0.948492 0.491007
5520 1 0.88713 0.9623 0.490119
5521 1 0.894423 0.949183 0.49353
5523 1 0.905804 0.953006 0.497783
5551 1 0.621836 0.971067 0.494856
5591 1 0.891781 0.977682 0.489835
5522 1 0.899319 0.964429 0.495081
5593 1 0.907346 0.976905 0.494945
5524 1 0.912907 0.967035 0.49947
5595 1 0.922455 0.979475 0.498629
5550 1 0.617734 0.986475 0.497408
5592 1 0.901865 0.989797 0.49018
5596 1 0.927907 0.993169 0.497861
5594 1 0.913745 0.991177 0.492679
4138 1 0.542754 0.505238 0.509689
4140 1 0.559467 0.506108 0.509402
4142 1 0.574291 0.505488 0.506461
4144 1 0.59127 0.50644 0.505446
4146 1 0.605941 0.505421 0.502658
4217 1 0.615955 0.508811 0.508994
4219 1 0.631415 0.508304 0.508644
4150 1 0.638995 0.502577 0.501178
4221 1 0.649008 0.509244 0.507151
4223 1 0.664488 0.508036 0.504436
4225 1 0.680908 0.505807 0.503291
4226 1 0.691041 0.512385 0.50854
4227 1 0.69517 0.505795 0.500814
4228 1 0.705437 0.512696 0.507183
4230 1 0.722572 0.515668 0.503466
4232 1 0.738691 0.513328 0.504325
4234 1 0.752662 0.514538 0.500803
4307 1 0.782315 0.517163 0.505362
4309 1 0.796445 0.516278 0.503471
4311 1 0.812101 0.515739 0.502028
4313 1 0.829907 0.514803 0.500547
4303 1 0.748073 0.520571 0.508959
4305 1 0.765001 0.520979 0.507143
4310 1 0.806976 0.52659 0.508807
4312 1 0.821985 0.523728 0.506873
4314 1 0.839715 0.524036 0.505534
4316 1 0.854983 0.524213 0.502642
4318 1 0.871817 0.525499 0.500308
4383 1 0.833516 0.536034 0.508324
4385 1 0.849057 0.536553 0.506753
4387 1 0.864354 0.538258 0.506232
4386 1 0.857786 0.551691 0.509909
4388 1 0.875567 0.552022 0.508168
4389 1 0.881291 0.537517 0.503382
4390 1 0.890601 0.552843 0.505237
4391 1 0.897781 0.538062 0.501963
4457 1 0.866655 0.564782 0.50965
4459 1 0.881441 0.565611 0.507733
4461 1 0.896397 0.569131 0.505528
4392 1 0.904683 0.554508 0.501344
4460 1 0.888203 0.582566 0.507448
4462 1 0.903467 0.583522 0.501944
4529 1 0.876905 0.596577 0.505923
4531 1 0.892753 0.59571 0.500667
4528 1 0.86898 0.609465 0.506636
4597 1 0.860151 0.62217 0.507332
4599 1 0.875038 0.623687 0.502301
4530 1 0.883204 0.608509 0.50118
4596 1 0.850505 0.635065 0.506678
4598 1 0.865166 0.635907 0.503108
4664 1 0.832247 0.659717 0.508819
4666 1 0.847529 0.659662 0.503918
4665 1 0.842703 0.647293 0.508892
4667 1 0.855722 0.648091 0.502851
4733 1 0.823059 0.671247 0.508318
4735 1 0.835486 0.669148 0.501649
4801 1 0.802056 0.693632 0.507582
4732 1 0.8107 0.681873 0.507856
4803 1 0.813012 0.691401 0.500568
4734 1 0.824262 0.679547 0.50174
4800 1 0.790627 0.704979 0.506221
4802 1 0.801529 0.703644 0.500511
4866 1 0.753196 0.725409 0.507485
4867 1 0.7669 0.717329 0.510193
4868 1 0.763639 0.72375 0.500997
4869 1 0.778041 0.71498 0.504179
4932 1 0.713281 0.747175 0.507329
4934 1 0.72465 0.743626 0.502841
4935 1 0.738255 0.733816 0.505325
5000 1 0.689238 0.766172 0.50382
5001 1 0.701031 0.757652 0.505587
5067 1 0.66904 0.783344 0.509666
4998 1 0.676438 0.769603 0.510021
5069 1 0.678969 0.780106 0.502547
5066 1 0.66013 0.796145 0.508472
5068 1 0.670822 0.795145 0.501771
5134 1 0.638186 0.820166 0.506302
5135 1 0.648766 0.808449 0.508059
5136 1 0.650486 0.820732 0.500791
5137 1 0.661311 0.80745 0.501516
5203 1 0.629432 0.832572 0.505657
5202 1 0.621998 0.845573 0.506247
5271 1 0.615669 0.861976 0.505908
5319 1 0.963715 0.873086 0.500012
2382 1 0.989079 0.86272 0.503234
5339 1 0.603439 0.891559 0.509107
5270 1 0.609315 0.875247 0.507789
5341 1 0.613892 0.888487 0.500894
5318 1 0.95387 0.886974 0.500228
2451 1 0.976407 0.875008 0.504824
5320 1 0.965438 0.886335 0.505984
2452 1 0.981111 0.888617 0.507729
2453 1 0.992313 0.87746 0.508511
5340 1 0.608763 0.902531 0.504874
5387 1 0.94516 0.897625 0.50022
5389 1 0.959219 0.901776 0.503831
2521 1 0.97403 0.899539 0.509115
5409 1 0.607212 0.918408 0.506636
5411 1 0.617793 0.916263 0.50107
5455 1 0.922792 0.924694 0.501207
5386 1 0.933655 0.910768 0.502028
5457 1 0.939103 0.926862 0.502941
5388 1 0.94973 0.913444 0.503357
5390 1 0.964286 0.917919 0.505512
5408 1 0.60027 0.934257 0.508958
5410 1 0.611459 0.929368 0.502266
5479 1 0.607494 0.945843 0.503075
5456 1 0.929007 0.939598 0.502621
5458 1 0.943362 0.941175 0.506679
5459 1 0.954642 0.928989 0.506041
5478 1 0.604147 0.962386 0.507242
5480 1 0.615 0.958321 0.500553
5525 1 0.920261 0.953824 0.501895
5527 1 0.936977 0.953881 0.504604
5529 1 0.950019 0.953998 0.509738
5547 1 0.602848 0.97666 0.509889
5549 1 0.611577 0.974385 0.502012
5526 1 0.928316 0.969636 0.503158
5528 1 0.944744 0.968386 0.507882
5597 1 0.93645 0.980097 0.503273
5548 1 0.610061 0.990082 0.506048
5598 1 0.941686 0.994806 0.502766
5599 1 0.947949 0.982632 0.507633
5600 1 0.956682 0.996419 0.506753
4134 1 0.513318 0.5014 0.516601
4136 1 0.525392 0.505893 0.512718
4209 1 0.552033 0.516252 0.514588
4207 1 0.538239 0.514677 0.517317
4211 1 0.568014 0.515397 0.513291
4213 1 0.584147 0.514799 0.511585
4215 1 0.600267 0.512755 0.51055
4216 1 0.611136 0.517441 0.516718
4220 1 0.642615 0.517185 0.512938
4222 1 0.657416 0.515563 0.512328
4224 1 0.674312 0.51429 0.511348
4210 1 0.561999 0.525002 0.519157
4212 1 0.579129 0.524869 0.51798
4214 1 0.594164 0.521389 0.5175
4218 1 0.626878 0.51894 0.515056
4289 1 0.636167 0.526641 0.520118
4291 1 0.652676 0.526303 0.51877
4293 1 0.668327 0.524132 0.51815
4295 1 0.685481 0.521282 0.515806
4296 1 0.694169 0.53233 0.519705
4297 1 0.699992 0.523101 0.513717
4301 1 0.731946 0.519706 0.510991
4299 1 0.715706 0.523842 0.511864
4300 1 0.727072 0.532216 0.517849
4302 1 0.742708 0.531593 0.515079
4304 1 0.758937 0.529559 0.515303
4306 1 0.775437 0.526062 0.513591
4308 1 0.791861 0.52731 0.511082
4298 1 0.709977 0.536429 0.517015
4371 1 0.735714 0.544079 0.52018
4373 1 0.752765 0.542478 0.519635
4375 1 0.769636 0.539757 0.518536
4377 1 0.785643 0.539474 0.515869
4379 1 0.802077 0.537791 0.514206
4378 1 0.793902 0.552457 0.518919
4381 1 0.818593 0.53717 0.511575
4380 1 0.81007 0.54868 0.516255
4382 1 0.825901 0.549082 0.514173
4384 1 0.841082 0.549392 0.511626
4451 1 0.818164 0.562347 0.519304
4453 1 0.833701 0.562725 0.516833
4455 1 0.849636 0.56413 0.512585
4452 1 0.827831 0.577794 0.519446
4454 1 0.841998 0.578412 0.514814
4458 1 0.873347 0.580458 0.510557
4456 1 0.858399 0.578049 0.512387
4523 1 0.834754 0.59247 0.516296
4522 1 0.826103 0.604701 0.517744
4525 1 0.850962 0.590985 0.512985
4524 1 0.840494 0.604244 0.513195
4527 1 0.864674 0.593752 0.510309
4591 1 0.818669 0.617969 0.520311
4593 1 0.83214 0.618832 0.517095
4526 1 0.855022 0.607836 0.510708
4595 1 0.844058 0.621318 0.510522
4592 1 0.826034 0.632062 0.519678
4594 1 0.839513 0.633665 0.514989
4662 1 0.820541 0.657715 0.51438
4661 1 0.819077 0.645665 0.520204
4660 1 0.807868 0.658642 0.52011
4663 1 0.83152 0.645964 0.514972
4731 1 0.812568 0.672334 0.516008
4797 1 0.777503 0.695558 0.519039
4799 1 0.792144 0.695286 0.513772
4728 1 0.786751 0.684134 0.5203
4730 1 0.799344 0.683132 0.514323
4796 1 0.766027 0.709303 0.518893
4798 1 0.779037 0.70687 0.511567
4862 1 0.728004 0.730966 0.518271
4864 1 0.739448 0.728036 0.514074
4865 1 0.753521 0.71713 0.51604
4928 1 0.689225 0.747972 0.520172
4930 1 0.70353 0.748569 0.514362
4933 1 0.726982 0.739322 0.510405
4931 1 0.715124 0.7404 0.515516
4997 1 0.67626 0.759357 0.517756
4999 1 0.689066 0.757343 0.512593
4996 1 0.668227 0.772313 0.517092
5065 1 0.660609 0.78748 0.516873
5064 1 0.64836 0.797931 0.515639
5133 1 0.637784 0.808384 0.514174
5131 1 0.625096 0.813483 0.520294
5201 1 0.620645 0.839011 0.512671
5132 1 0.628688 0.823043 0.513401
5198 1 0.599351 0.85477 0.5191
5200 1 0.611619 0.850371 0.513179
5269 1 0.604968 0.864355 0.514375
5268 1 0.600142 0.879618 0.514713
2454 1 0.996226 0.888904 0.511863
5338 1 0.598726 0.907221 0.511683
5337 1 0.593996 0.895732 0.517564
2523 1 0.986124 0.902469 0.512451
5336 1 0.589588 0.910722 0.520227
5407 1 0.593506 0.921897 0.512786
2522 1 0.977451 0.916514 0.51104
2593 1 0.980341 0.927487 0.51619
2524 1 0.991948 0.915443 0.516764
5406 1 0.593038 0.93793 0.517255
5460 1 0.958393 0.941606 0.512044
2591 1 0.966612 0.930159 0.512027
2592 1 0.972017 0.942646 0.515688
2594 1 0.986897 0.940217 0.518344
5475 1 0.587807 0.951406 0.519881
5477 1 0.597927 0.949323 0.511163
5476 1 0.595075 0.963458 0.513703
2661 1 0.964692 0.955464 0.513713
2663 1 0.980397 0.954934 0.517835
5545 1 0.592017 0.977905 0.515831
5530 1 0.955498 0.97034 0.512375
2662 1 0.967918 0.972129 0.516547
2664 1 0.984506 0.970152 0.520363
5544 1 0.587699 0.992782 0.520133
5546 1 0.598404 0.990041 0.513379
2731 1 0.961913 0.983904 0.510968
2732 1 0.970068 0.99775 0.511275
2733 1 0.977543 0.983393 0.515471
2734 1 0.985118 0.997841 0.515577
2735 1 0.991054 0.98421 0.519327
4203 1 0.508497 0.507586 0.52515
4205 1 0.52163 0.511645 0.521384
4204 1 0.517735 0.51892 0.529872
4206 1 0.531643 0.522204 0.525076
4208 1 0.54506 0.52456 0.522102
4277 1 0.541564 0.532189 0.529387
4279 1 0.558054 0.53282 0.52652
4281 1 0.572773 0.533065 0.525974
4283 1 0.589819 0.531618 0.523823
4285 1 0.604806 0.529284 0.522434
4287 1 0.618907 0.529413 0.521717
4290 1 0.645485 0.534807 0.525529
4292 1 0.661189 0.533874 0.523651
4294 1 0.679002 0.534264 0.521612
4284 1 0.597972 0.538953 0.528622
4286 1 0.615066 0.538905 0.528503
4288 1 0.631054 0.536579 0.527322
4361 1 0.655935 0.546584 0.529765
4363 1 0.673259 0.544594 0.528289
4365 1 0.689448 0.544307 0.526057
4367 1 0.704998 0.543762 0.524299
4369 1 0.720008 0.544947 0.522254
4372 1 0.745661 0.553547 0.524198
4374 1 0.762475 0.551858 0.523501
4376 1 0.778319 0.553188 0.521868
4368 1 0.712418 0.556912 0.525725
4366 1 0.699393 0.557039 0.529028
4370 1 0.730393 0.559499 0.522849
4439 1 0.723113 0.571348 0.526694
4441 1 0.739525 0.56725 0.527536
4443 1 0.756393 0.565611 0.528093
4445 1 0.77066 0.565055 0.524502
4449 1 0.803143 0.564262 0.520439
4447 1 0.786342 0.563694 0.521675
4442 1 0.747117 0.579293 0.5302
4444 1 0.764644 0.580242 0.529191
4446 1 0.780841 0.577838 0.52612
4448 1 0.796842 0.577025 0.523823
4450 1 0.812152 0.576185 0.522298
4515 1 0.773807 0.591849 0.530559
4518 1 0.797869 0.603819 0.528897
4517 1 0.790834 0.589942 0.528207
4521 1 0.819481 0.591725 0.521685
4519 1 0.804761 0.590169 0.52651
4520 1 0.812512 0.604395 0.523094
4589 1 0.806761 0.617564 0.526741
4588 1 0.79811 0.631186 0.529048
4590 1 0.811843 0.633465 0.523833
4656 1 0.779649 0.659813 0.530586
4657 1 0.790451 0.645019 0.530154
4658 1 0.797005 0.659721 0.527367
4659 1 0.805388 0.644938 0.526452
4727 1 0.785559 0.672466 0.525291
4725 1 0.770845 0.671216 0.530185
4729 1 0.799491 0.673464 0.522828
4793 1 0.74863 0.694513 0.529501
4724 1 0.758107 0.683512 0.530364
4795 1 0.763852 0.694711 0.524304
4726 1 0.772413 0.68457 0.525436
4792 1 0.73618 0.707997 0.527988
4794 1 0.752414 0.707823 0.52423
4858 1 0.70154 0.731067 0.529386
4860 1 0.713954 0.727845 0.522676
4859 1 0.712088 0.719154 0.530307
4861 1 0.726148 0.718961 0.525533
4863 1 0.740013 0.718402 0.521009
4927 1 0.68961 0.739738 0.527574
4929 1 0.703867 0.739846 0.521783
4995 1 0.665873 0.762419 0.525277
4926 1 0.677018 0.752176 0.526158
4994 1 0.658209 0.777303 0.524272
4992 1 0.646303 0.778054 0.529724
5062 1 0.635313 0.800832 0.522332
5061 1 0.637696 0.792842 0.52986
5063 1 0.647481 0.789966 0.52379
5129 1 0.615058 0.81655 0.527378
5060 1 0.625905 0.803577 0.52869
5128 1 0.603673 0.828968 0.526948
5130 1 0.617879 0.8277 0.520609
5196 1 0.591742 0.856299 0.527711
5197 1 0.597498 0.842808 0.526315
5199 1 0.608971 0.840445 0.52087
5265 1 0.586178 0.870741 0.528228
5267 1 0.595125 0.868123 0.521148
5266 1 0.5893 0.885268 0.522125
5335 1 0.584516 0.898478 0.525852
5405 1 0.58847 0.925286 0.521644
5334 1 0.579491 0.91476 0.527082
5403 1 0.577072 0.928739 0.529413
5404 1 0.585737 0.938804 0.525226
2595 1 0.994437 0.929888 0.520451
5473 1 0.579197 0.955268 0.527561
2665 1 0.992057 0.955558 0.52168
5474 1 0.585986 0.965247 0.522618
5543 1 0.581502 0.981896 0.523865
2666 1 0.999623 0.970454 0.523284
5542 1 0.577483 0.997535 0.527879
4202 1 0.502967 0.512781 0.533512
4273 1 0.513188 0.526356 0.537295
4275 1 0.527526 0.528422 0.533844
4276 1 0.537047 0.540189 0.537323
4278 1 0.553568 0.540781 0.534253
4280 1 0.56736 0.541888 0.533759
4282 1 0.581557 0.5415 0.531253
4351 1 0.578859 0.550325 0.539894
4353 1 0.594919 0.548047 0.536706
4355 1 0.609251 0.548293 0.533711
4357 1 0.626416 0.548453 0.533401
4359 1 0.641356 0.546553 0.531896
4356 1 0.620759 0.557181 0.539238
4358 1 0.638767 0.557303 0.538823
4360 1 0.652634 0.555139 0.537466
4362 1 0.66843 0.556711 0.534651
4433 1 0.680064 0.568198 0.538648
4364 1 0.683846 0.556558 0.531033
4435 1 0.693981 0.567539 0.534523
4437 1 0.709327 0.5691 0.530771
4436 1 0.702226 0.579908 0.53706
4438 1 0.715219 0.582903 0.533561
4440 1 0.732403 0.581028 0.531732
4507 1 0.710726 0.594282 0.540795
4509 1 0.726349 0.594687 0.537057
4511 1 0.742455 0.593749 0.535257
4513 1 0.757708 0.591146 0.532485
4514 1 0.766703 0.605886 0.534134
4516 1 0.782752 0.604854 0.533116
4510 1 0.736032 0.609081 0.538914
4512 1 0.753312 0.607282 0.536296
4583 1 0.761531 0.619678 0.538043
4585 1 0.775503 0.619156 0.534675
4587 1 0.790701 0.617125 0.530847
4584 1 0.768858 0.633657 0.537111
4586 1 0.783375 0.632732 0.532568
4653 1 0.762122 0.647775 0.53986
4652 1 0.753061 0.659975 0.54076
4654 1 0.764955 0.660196 0.53486
4655 1 0.777333 0.647095 0.534942
4723 1 0.755433 0.67215 0.535288
4789 1 0.719023 0.695111 0.539298
4720 1 0.729855 0.684413 0.539694
4722 1 0.745574 0.683724 0.536087
4791 1 0.733296 0.696412 0.534248
4788 1 0.707028 0.708171 0.537692
4790 1 0.723458 0.70927 0.533741
4856 1 0.690219 0.731392 0.535773
4857 1 0.698183 0.7208 0.536609
4925 1 0.679699 0.741631 0.533474
4993 1 0.659078 0.766725 0.53268
4922 1 0.658591 0.757701 0.539859
4924 1 0.669366 0.756332 0.533932
4990 1 0.636529 0.779436 0.535758
4991 1 0.646799 0.769861 0.537071
5059 1 0.625159 0.792867 0.53504
5127 1 0.604498 0.818568 0.534081
5125 1 0.592796 0.82106 0.539629
5058 1 0.613759 0.80527 0.53339
5124 1 0.58235 0.830798 0.537889
5126 1 0.594464 0.831446 0.532848
5195 1 0.586683 0.84475 0.532913
5193 1 0.578065 0.846643 0.539542
5194 1 0.582212 0.858088 0.534658
5263 1 0.57614 0.873342 0.536135
5262 1 0.568904 0.887611 0.537952
5264 1 0.580335 0.886229 0.53063
5331 1 0.564825 0.905199 0.539301
5333 1 0.574818 0.901883 0.533601
5330 1 0.560548 0.920836 0.540804
5332 1 0.571637 0.915713 0.534507
5401 1 0.566707 0.931985 0.53626
5400 1 0.563215 0.945904 0.540112
5402 1 0.573545 0.941349 0.532057
5471 1 0.568855 0.954098 0.53531
5470 1 0.566297 0.97146 0.537936
5472 1 0.576537 0.968995 0.530896
5539 1 0.562254 0.98699 0.539147
5541 1 0.574559 0.984435 0.53235
4272 1 0.510368 0.535466 0.544268
4274 1 0.524345 0.535392 0.542379
4343 1 0.51829 0.54447 0.54975
4345 1 0.533594 0.545336 0.547771
4347 1 0.547595 0.549801 0.542069
4349 1 0.562501 0.550868 0.541088
4348 1 0.55687 0.5599 0.548936
4350 1 0.572738 0.560359 0.545796
4352 1 0.589241 0.559841 0.54358
4421 1 0.581923 0.570726 0.549934
4354 1 0.605213 0.55782 0.541447
4423 1 0.59977 0.568068 0.549018
4425 1 0.61612 0.566196 0.546148
4427 1 0.631146 0.564895 0.545726
4429 1 0.647282 0.563876 0.544524
4431 1 0.663319 0.565071 0.541382
4426 1 0.622976 0.576839 0.550369
4428 1 0.639722 0.575465 0.549811
4430 1 0.655895 0.576779 0.547163
4432 1 0.673899 0.576026 0.546878
4501 1 0.665468 0.589066 0.550978
4434 1 0.687475 0.577365 0.543464
4503 1 0.68101 0.590506 0.547969
4505 1 0.695814 0.590723 0.544111
4504 1 0.690217 0.599785 0.549021
4506 1 0.706237 0.604662 0.547241
4577 1 0.712529 0.61929 0.547539
4508 1 0.720741 0.608369 0.542058
4579 1 0.729103 0.621365 0.544679
4581 1 0.745783 0.619172 0.541689
4578 1 0.722674 0.630959 0.549684
4580 1 0.739345 0.633738 0.546463
4582 1 0.755404 0.633906 0.542414
4648 1 0.721217 0.658766 0.55003
4649 1 0.731881 0.646256 0.549588
4651 1 0.747907 0.646374 0.544816
4717 1 0.711117 0.669956 0.550066
4719 1 0.725429 0.671767 0.546604
4721 1 0.741455 0.671146 0.541964
4650 1 0.73798 0.661227 0.545965
4785 1 0.691318 0.695883 0.549611
4716 1 0.701532 0.685393 0.549484
4787 1 0.70612 0.695092 0.543663
4718 1 0.714819 0.683567 0.545389
4784 1 0.68362 0.707911 0.547441
4786 1 0.696217 0.709255 0.544359
4853 1 0.674839 0.721257 0.548036
4855 1 0.688007 0.722745 0.543429
4921 1 0.654178 0.745921 0.5469
4923 1 0.667853 0.745846 0.540892
4854 1 0.676134 0.733523 0.541326
4852 1 0.665274 0.73228 0.547505
4918 1 0.632331 0.759915 0.549955
4920 1 0.646726 0.758701 0.544998
4988 1 0.623113 0.781683 0.542274
4986 1 0.6112 0.783459 0.548556
4987 1 0.619987 0.770603 0.549172
4989 1 0.635199 0.772386 0.543501
5055 1 0.600901 0.798036 0.548082
5057 1 0.611935 0.793252 0.54125
5054 1 0.589214 0.811423 0.545752
5056 1 0.604113 0.807465 0.541201
5122 1 0.570637 0.835698 0.544885
5121 1 0.565126 0.822597 0.550338
5123 1 0.579012 0.822131 0.544268
5191 1 0.566846 0.851888 0.546464
5190 1 0.56038 0.86732 0.548747
5192 1 0.572641 0.862472 0.54154
5261 1 0.566393 0.876971 0.542978
5259 1 0.556707 0.880906 0.550298
5258 1 0.549357 0.895072 0.550787
5260 1 0.561537 0.893213 0.545759
5329 1 0.553638 0.909728 0.546507
5328 1 0.546701 0.921869 0.54742
5397 1 0.545266 0.935604 0.5503
5399 1 0.555443 0.933887 0.544042
5467 1 0.54868 0.962543 0.550246
5398 1 0.552934 0.947476 0.546178
5469 1 0.56062 0.961099 0.543389
5466 1 0.543748 0.978247 0.550324
5468 1 0.555526 0.973602 0.544782
5537 1 0.552085 0.989093 0.546202
4341 1 0.504293 0.54515 0.551551
4342 1 0.51467 0.5536 0.557435
4344 1 0.527783 0.557193 0.554518
4346 1 0.54313 0.556939 0.551431
4415 1 0.538327 0.564894 0.560489
4417 1 0.551898 0.568216 0.556614
4419 1 0.566989 0.570524 0.553355
4418 1 0.561534 0.578363 0.560306
4420 1 0.577301 0.582351 0.557559
4422 1 0.593705 0.579934 0.554248
4493 1 0.602071 0.587629 0.559844
4424 1 0.610333 0.577885 0.552345
4497 1 0.632204 0.588058 0.553915
4491 1 0.584619 0.590227 0.560923
4495 1 0.616828 0.589999 0.556358
4496 1 0.628012 0.602354 0.558978
4498 1 0.642664 0.59995 0.55592
4499 1 0.649243 0.58993 0.551909
4500 1 0.658749 0.60199 0.554841
4502 1 0.675503 0.60088 0.555098
4569 1 0.652623 0.613947 0.55768
4571 1 0.667036 0.616154 0.557096
4573 1 0.683722 0.614145 0.554435
4575 1 0.697674 0.615413 0.551419
4639 1 0.651047 0.642763 0.560462
4570 1 0.659669 0.630257 0.558063
4568 1 0.645913 0.628578 0.560295
4572 1 0.673189 0.628162 0.556271
4574 1 0.690536 0.628877 0.554277
4643 1 0.682309 0.641733 0.556765
4576 1 0.705199 0.631684 0.551265
4645 1 0.698128 0.642487 0.554559
4640 1 0.657283 0.657824 0.55909
4641 1 0.664971 0.643594 0.558126
4642 1 0.67326 0.657283 0.557004
4644 1 0.690727 0.65607 0.554721
4646 1 0.705632 0.657021 0.552416
4647 1 0.715883 0.644976 0.553186
4711 1 0.664843 0.670464 0.55784
4713 1 0.679004 0.668459 0.555107
4715 1 0.695671 0.671357 0.553205
4710 1 0.657362 0.683848 0.560784
4712 1 0.671523 0.680956 0.555411
4781 1 0.665454 0.695935 0.558088
4783 1 0.676518 0.696342 0.552837
4714 1 0.684717 0.68379 0.552652
4780 1 0.655392 0.708427 0.558151
4782 1 0.670206 0.708564 0.552626
4849 1 0.647661 0.722948 0.558581
4851 1 0.659194 0.72112 0.552521
4915 1 0.613746 0.747194 0.55988
4919 1 0.641572 0.747708 0.551109
4848 1 0.636718 0.734403 0.556494
4917 1 0.627388 0.747815 0.555822
4850 1 0.650917 0.735658 0.553085
4914 1 0.60364 0.758832 0.558635
4916 1 0.619371 0.761672 0.554825
4982 1 0.584717 0.785387 0.558364
4984 1 0.596716 0.784456 0.552788
4983 1 0.592505 0.772344 0.557427
4985 1 0.605949 0.769522 0.553216
5053 1 0.587163 0.79954 0.552432
5051 1 0.574863 0.796819 0.557868
5050 1 0.564363 0.809782 0.55782
5052 1 0.576391 0.810793 0.551609
5120 1 0.56231 0.839264 0.552242
5119 1 0.558931 0.824906 0.558145
5118 1 0.552038 0.841026 0.560703
5189 1 0.55869 0.854704 0.555607
5188 1 0.553927 0.866801 0.556712
5257 1 0.544624 0.880988 0.556282
5325 1 0.531517 0.909982 0.55905
5327 1 0.541254 0.910031 0.55276
5256 1 0.537671 0.895817 0.557527
5324 1 0.526953 0.924848 0.560725
5326 1 0.538731 0.924219 0.554357
5395 1 0.534785 0.93747 0.556756
5394 1 0.53213 0.95153 0.559837
5396 1 0.540793 0.949802 0.552973
5463 1 0.525358 0.965418 0.560778
5464 1 0.531287 0.980836 0.554741
5465 1 0.536106 0.967076 0.554785
5533 1 0.527484 0.993988 0.558154
5535 1 0.540369 0.993414 0.5523
4411 1 0.505337 0.564055 0.561692
4413 1 0.522288 0.562566 0.562918
4412 1 0.514743 0.572047 0.568419
4414 1 0.531673 0.57351 0.565945
4483 1 0.524464 0.585486 0.570659
4416 1 0.548873 0.578236 0.563441
4485 1 0.540504 0.587732 0.570019
4486 1 0.548638 0.600935 0.571415
4487 1 0.555418 0.590099 0.566499
4489 1 0.569564 0.591851 0.563382
4488 1 0.563604 0.601174 0.568211
4490 1 0.579837 0.60251 0.566134
4492 1 0.594697 0.602193 0.56334
4494 1 0.611337 0.600385 0.562893
4561 1 0.589529 0.614792 0.569228
4563 1 0.605705 0.613646 0.566458
4565 1 0.621919 0.614929 0.563499
4567 1 0.639399 0.614457 0.561403
4633 1 0.605673 0.640989 0.570123
4562 1 0.598927 0.627638 0.569738
4564 1 0.61467 0.627585 0.567754
4635 1 0.620531 0.641939 0.566414
4566 1 0.630049 0.629072 0.563559
4637 1 0.635972 0.641905 0.563355
4634 1 0.613403 0.655183 0.568647
4636 1 0.626553 0.654646 0.564589
4638 1 0.643622 0.654565 0.562136
4703 1 0.604451 0.668466 0.57089
4705 1 0.619832 0.66904 0.567401
4707 1 0.634233 0.668721 0.562236
4709 1 0.650128 0.670174 0.561947
4706 1 0.62627 0.681669 0.566992
4708 1 0.641669 0.68414 0.565414
4775 1 0.618506 0.696452 0.570374
4774 1 0.609595 0.707598 0.570919
4776 1 0.624533 0.70897 0.568045
4778 1 0.640213 0.709539 0.562949
4777 1 0.634051 0.697868 0.565944
4779 1 0.649624 0.699357 0.561906
4843 1 0.601392 0.722848 0.57035
4845 1 0.61705 0.72033 0.566707
4847 1 0.633819 0.720967 0.563015
4911 1 0.581745 0.745984 0.568722
4913 1 0.599431 0.745948 0.565101
4842 1 0.593409 0.733813 0.569216
4846 1 0.622044 0.734556 0.561606
4844 1 0.609552 0.734199 0.565483
4908 1 0.559799 0.75865 0.570409
4910 1 0.574458 0.759729 0.56761
4912 1 0.588342 0.759613 0.563194
4979 1 0.565409 0.771596 0.567199
4980 1 0.570135 0.785389 0.564453
4981 1 0.580104 0.775042 0.562794
5047 1 0.551443 0.802258 0.569112
4978 1 0.557091 0.787421 0.569055
5049 1 0.561872 0.798191 0.563581
5046 1 0.545286 0.815461 0.571125
5048 1 0.557584 0.814829 0.565935
5117 1 0.549794 0.829516 0.566034
5185 1 0.534064 0.856056 0.567887
5187 1 0.548435 0.855306 0.56382
5116 1 0.541621 0.842375 0.568566
5184 1 0.526906 0.871151 0.567357
5186 1 0.540554 0.868847 0.563262
5253 1 0.520102 0.885306 0.56709
5255 1 0.532905 0.882035 0.562621
5252 1 0.510665 0.898911 0.569288
5254 1 0.525572 0.898355 0.564872
5323 1 0.517749 0.911662 0.565201
5322 1 0.513276 0.926551 0.565855
5321 1 0.504702 0.913407 0.569055
5391 1 0.506606 0.940498 0.567321
5393 1 0.521314 0.938889 0.561925
5392 1 0.516755 0.953875 0.563689
2660 1 0.502482 0.955504 0.567743
5461 1 0.510559 0.970037 0.564092
5462 1 0.520187 0.98089 0.561903
2730 1 0.503883 0.982692 0.566332
5531 1 0.514041 0.994979 0.562167
4481 1 0.508939 0.585695 0.57362
1750 1 0.501631 0.598629 0.577572
4482 1 0.517509 0.599367 0.574896
4484 1 0.531095 0.599025 0.572404
4551 1 0.51008 0.611761 0.579049
4553 1 0.527135 0.611013 0.577271
4554 1 0.534806 0.624322 0.580316
4552 1 0.5202 0.623923 0.581504
4555 1 0.540946 0.613447 0.574267
4556 1 0.547843 0.6248 0.575829
4557 1 0.558111 0.61368 0.573148
4559 1 0.57234 0.613491 0.572037
4558 1 0.56584 0.626283 0.575419
4627 1 0.559815 0.636453 0.580368
4560 1 0.582582 0.626772 0.573864
4629 1 0.575934 0.638456 0.578055
4631 1 0.592468 0.641109 0.575387
4628 1 0.569696 0.650185 0.580741
4630 1 0.583732 0.652898 0.576844
4632 1 0.59713 0.655557 0.572353
4699 1 0.575878 0.666301 0.578864
4701 1 0.589898 0.667121 0.574203
4698 1 0.566092 0.679044 0.581431
4700 1 0.581322 0.679287 0.578709
4769 1 0.573418 0.693434 0.579849
4771 1 0.587584 0.695817 0.576232
4702 1 0.598192 0.681322 0.575147
4773 1 0.602869 0.694383 0.572293
4704 1 0.612907 0.681924 0.571659
4768 1 0.564809 0.706185 0.579726
4770 1 0.578984 0.707015 0.577233
4772 1 0.59423 0.708817 0.574047
4837 1 0.556445 0.719131 0.579133
4839 1 0.571088 0.721693 0.57818
4838 1 0.561935 0.731068 0.575099
4841 1 0.586858 0.721029 0.573445
4905 1 0.538195 0.74536 0.57908
4836 1 0.54728 0.732189 0.577561
4907 1 0.552394 0.744822 0.575129
4909 1 0.569358 0.746301 0.572765
4840 1 0.578584 0.733146 0.574508
4904 1 0.532898 0.762186 0.579744
4906 1 0.544722 0.761106 0.575639
4973 1 0.524072 0.774709 0.581358
4977 1 0.550448 0.77415 0.572698
4975 1 0.536897 0.777146 0.575853
4974 1 0.530712 0.78974 0.578995
4976 1 0.54356 0.790374 0.575213
5044 1 0.530912 0.817107 0.576249
5042 1 0.51843 0.817326 0.580662
5043 1 0.524076 0.803654 0.579967
5045 1 0.537438 0.804635 0.575584
5113 1 0.523974 0.831713 0.576852
5115 1 0.538759 0.829807 0.572121
5112 1 0.516137 0.842915 0.57867
5114 1 0.531144 0.845601 0.573985
2450 1 0.500404 0.873597 0.577777
5182 1 0.513635 0.872809 0.572475
5181 1 0.509249 0.858205 0.577912
5183 1 0.520525 0.857759 0.573447
5251 1 0.506769 0.886369 0.574188
1820 1 0.502512 0.626062 0.58245
4621 1 0.512895 0.635725 0.585852
4623 1 0.529062 0.637403 0.584102
4625 1 0.544721 0.636624 0.581733
1890 1 0.505521 0.650076 0.589285
4622 1 0.520307 0.651744 0.586465
4624 1 0.535477 0.650828 0.584699
4626 1 0.552784 0.649595 0.583123
4691 1 0.513238 0.665465 0.589352
4693 1 0.527797 0.665394 0.58606
4695 1 0.543097 0.664041 0.585442
4696 1 0.551801 0.67754 0.58575
4697 1 0.559465 0.664062 0.58267
4761 1 0.512703 0.69256 0.591107
4692 1 0.52087 0.679562 0.589161
4763 1 0.528096 0.693933 0.58988
4694 1 0.536091 0.67888 0.587579
4765 1 0.543534 0.693791 0.586999
4767 1 0.558938 0.691338 0.582118
2030 1 0.502301 0.707794 0.591204
4762 1 0.516536 0.706881 0.588939
4764 1 0.533761 0.705537 0.584943
4766 1 0.549243 0.706904 0.581859
4831 1 0.509868 0.722082 0.588184
4833 1 0.523633 0.7197 0.584056
4835 1 0.540537 0.72016 0.582469
2100 1 0.502216 0.737611 0.588815
4832 1 0.51833 0.73505 0.585894
4834 1 0.531862 0.73241 0.582102
4903 1 0.525288 0.74682 0.583189
4901 1 0.511082 0.750305 0.587264
2170 1 0.502542 0.763626 0.587166
4902 1 0.520223 0.762202 0.585299
4971 1 0.512137 0.778108 0.585862
2240 1 0.502743 0.792338 0.587596
5041 1 0.511149 0.803539 0.585833
4972 1 0.519102 0.788828 0.583741
2310 1 0.503957 0.817571 0.586373
5111 1 0.508511 0.831661 0.58178
2380 1 0.502316 0.844997 0.582323
1960 1 0.504358 0.680475 0.592298
ITEM: TIMESTEP
400000
ITEM: NUMBER OF ATOMS
5600
ITEM: BOX BOUNDS pp pp pp
-3.3284999999999989e+01 3.3284999999999989e+01
-3.2943606359959993e+01 3.2943606359959993e+01
-5.7059999999999988e+01 5.7059999999999988e+01
ITEM: ATOMS id type xs ys zs
3570 1 0.00511263 0.252151 0.416863
771 1 0.0132252 0.264788 0.419367
3710 1 0.0119456 0.308298 0.419452
3779 1 0.00505984 0.322601 0.416949
3780 1 0.0135853 0.335775 0.41802
3849 1 0.00876244 0.35066 0.417614
564 1 0.0294175 0.19415 0.428602
562 1 0.0132871 0.197459 0.426332
631 1 0.00746957 0.20943 0.42228
633 1 0.0225237 0.206723 0.423927
635 1 0.0394643 0.20594 0.424984
638 1 0.0666102 0.212816 0.424964
637 1 0.0561065 0.203491 0.427753
3500 1 0.00341727 0.224298 0.420958
632 1 0.0184848 0.22299 0.421513
634 1 0.0327025 0.218873 0.421392
636 1 0.0497344 0.217968 0.423396
705 1 0.0428373 0.231526 0.421327
707 1 0.058442 0.227509 0.424646
709 1 0.0728944 0.22737 0.429001
701 1 0.00952823 0.23818 0.421192
702 1 0.0204949 0.249842 0.419452
703 1 0.0266586 0.236103 0.421133
704 1 0.0369504 0.247202 0.42129
706 1 0.0515121 0.243273 0.424863
708 1 0.068706 0.241273 0.426775
773 1 0.027727 0.262109 0.422106
775 1 0.0444923 0.259566 0.425008
777 1 0.0602881 0.257328 0.426756
779 1 0.0768232 0.256096 0.428561
3640 1 0.006241 0.279039 0.419928
772 1 0.0211689 0.27648 0.419546
774 1 0.0383139 0.274723 0.422655
776 1 0.0528101 0.271333 0.426601
778 1 0.0700829 0.270639 0.427136
841 1 0.0158686 0.293723 0.42022
3709 1 0.00195703 0.295179 0.417689
843 1 0.0325448 0.287655 0.422454
845 1 0.0488745 0.288613 0.424708
844 1 0.042295 0.300501 0.422699
847 1 0.0632559 0.284988 0.426852
846 1 0.057917 0.300118 0.426204
842 1 0.0250076 0.304345 0.421661
911 1 0.0207955 0.322041 0.420666
913 1 0.0355018 0.31683 0.421552
915 1 0.0495386 0.315383 0.423656
917 1 0.0635311 0.313646 0.427546
912 1 0.0305508 0.331125 0.419284
914 1 0.044983 0.329269 0.421697
916 1 0.0591189 0.328711 0.427066
981 1 0.0259356 0.347725 0.418575
983 1 0.0396462 0.344228 0.420266
985 1 0.0549632 0.343463 0.423719
987 1 0.0685413 0.341865 0.426396
3850 1 0.018237 0.360825 0.420424
3848 1 0.00237047 0.364281 0.417932
982 1 0.0343048 0.360562 0.418549
984 1 0.050844 0.357311 0.421583
1053 1 0.0425089 0.373646 0.420583
986 1 0.064539 0.357447 0.424623
1055 1 0.0567693 0.37168 0.421636
1057 1 0.0725968 0.371111 0.426003
3919 1 0.0110299 0.376215 0.420413
3918 1 0.0039705 0.390005 0.422278
1051 1 0.0263327 0.375491 0.419878
3920 1 0.0190847 0.389617 0.421802
1052 1 0.0365043 0.387804 0.420696
1054 1 0.0506783 0.388226 0.420935
1056 1 0.063471 0.384369 0.42412
1058 1 0.0807459 0.384926 0.427663
3989 1 0.0128153 0.401212 0.425199
1121 1 0.0287348 0.403042 0.424283
1123 1 0.0451442 0.401957 0.424283
1125 1 0.0619566 0.399617 0.424935
1127 1 0.0797593 0.398625 0.426895
3990 1 0.023014 0.413854 0.427876
1122 1 0.0402312 0.416031 0.426479
1124 1 0.056395 0.412714 0.425059
1195 1 0.0638697 0.426929 0.426906
1126 1 0.0706759 0.412045 0.426308
1197 1 0.0794307 0.424718 0.429061
492 1 0.00903508 0.171831 0.434737
494 1 0.0227777 0.169586 0.434424
496 1 0.0400411 0.167822 0.436124
500 1 0.0701279 0.159349 0.439293
498 1 0.0548573 0.163618 0.438284
569 1 0.0647455 0.175577 0.435815
571 1 0.0815225 0.171883 0.435835
561 1 0.00186741 0.184838 0.429995
563 1 0.0196149 0.181825 0.429692
566 1 0.0467168 0.193564 0.430129
567 1 0.0510035 0.177298 0.434096
565 1 0.0350564 0.181542 0.43201
568 1 0.0598417 0.189457 0.431964
570 1 0.0753202 0.185519 0.434137
572 1 0.0902943 0.183797 0.434864
574 1 0.106949 0.183526 0.438007
643 1 0.0979816 0.196353 0.435007
639 1 0.0705102 0.200345 0.431704
641 1 0.0832549 0.199643 0.433867
642 1 0.0944977 0.210879 0.433308
644 1 0.107626 0.21064 0.436625
640 1 0.0791634 0.213654 0.431653
711 1 0.0887489 0.225732 0.432543
713 1 0.103018 0.224894 0.436029
710 1 0.0827201 0.240284 0.430661
712 1 0.0977146 0.237684 0.4328
714 1 0.110912 0.239278 0.437347
781 1 0.091221 0.25444 0.431092
783 1 0.102104 0.253453 0.435761
780 1 0.0850383 0.270441 0.429337
849 1 0.0775499 0.286062 0.429774
851 1 0.0926999 0.285225 0.4331
782 1 0.0976318 0.2708 0.433776
848 1 0.0715208 0.30089 0.429698
850 1 0.086941 0.299833 0.432664
852 1 0.0985542 0.298788 0.437559
919 1 0.078337 0.312407 0.433357
921 1 0.0905759 0.312481 0.437405
918 1 0.0736834 0.327397 0.43055
920 1 0.0863721 0.327807 0.435919
989 1 0.0795975 0.341261 0.432599
988 1 0.076235 0.356706 0.429823
990 1 0.0904966 0.354603 0.435104
1059 1 0.0860535 0.369808 0.431957
1061 1 0.0986591 0.369828 0.438182
1060 1 0.0942168 0.382802 0.434751
1129 1 0.0926523 0.396561 0.431005
1130 1 0.102784 0.411513 0.432639
1131 1 0.104906 0.396565 0.436704
3988 1 0.00752341 0.417068 0.429462
4059 1 0.0159556 0.428594 0.431505
1191 1 0.0321364 0.426106 0.431544
1193 1 0.0487271 0.427476 0.429088
1128 1 0.0878319 0.411517 0.429085
1199 1 0.0958113 0.424401 0.43213
4058 1 0.0103006 0.441109 0.436898
4057 1 -0.000648104 0.430778 0.433861
4060 1 0.0259977 0.439662 0.433831
1192 1 0.0408471 0.440747 0.433726
1194 1 0.0577503 0.440035 0.43267
1196 1 0.0731067 0.438488 0.431278
1198 1 0.0876245 0.439552 0.431636
1200 1 0.103475 0.438367 0.434787
1261 1 0.0350067 0.453244 0.436633
1263 1 0.0511824 0.452219 0.435124
1265 1 0.0667881 0.454508 0.43311
1267 1 0.0825483 0.453395 0.432414
1269 1 0.0981653 0.452578 0.435475
1271 1 0.113533 0.452233 0.437807
1262 1 0.044247 0.466381 0.440169
1264 1 0.0584218 0.468752 0.436718
1266 1 0.0749712 0.468887 0.435009
1337 1 0.0871785 0.481403 0.437947
1268 1 0.091711 0.466763 0.436673
1270 1 0.106078 0.466979 0.437889
428 1 0.0489624 0.139921 0.44557
430 1 0.0656887 0.136586 0.446105
432 1 0.0813177 0.132245 0.445228
434 1 0.0970363 0.128959 0.446649
505 1 0.107471 0.142037 0.446003
507 1 0.122374 0.140517 0.447731
509 1 0.138945 0.140623 0.448638
422 1 0.00318214 0.153018 0.445266
495 1 0.0294683 0.156068 0.439743
426 1 0.0340973 0.145526 0.44631
424 1 0.0186948 0.147268 0.445834
497 1 0.0427838 0.154573 0.44182
499 1 0.0590451 0.15068 0.441802
501 1 0.0755823 0.146848 0.441179
502 1 0.0872753 0.159252 0.439686
503 1 0.091084 0.143211 0.442555
504 1 0.100903 0.155137 0.441679
506 1 0.118104 0.15249 0.443158
508 1 0.133025 0.151853 0.445438
493 1 0.0144866 0.161099 0.441207
573 1 0.0977799 0.169287 0.438411
575 1 0.111981 0.167842 0.440441
577 1 0.127215 0.167023 0.443038
579 1 0.141834 0.166412 0.447634
576 1 0.121776 0.180816 0.440828
645 1 0.113455 0.196384 0.439799
578 1 0.137116 0.180495 0.444969
647 1 0.128555 0.195315 0.44408
649 1 0.142614 0.196396 0.448446
646 1 0.122897 0.209772 0.44212
648 1 0.13543 0.209308 0.4473
715 1 0.115777 0.224884 0.439969
717 1 0.129053 0.223731 0.446366
716 1 0.121983 0.238835 0.443849
785 1 0.116535 0.254623 0.441236
787 1 0.128748 0.253395 0.447039
853 1 0.104112 0.281798 0.439854
784 1 0.108658 0.26763 0.440898
786 1 0.123291 0.26848 0.446235
855 1 0.117489 0.280867 0.445597
854 1 0.10872 0.295114 0.444328
923 1 0.104029 0.311441 0.44161
922 1 0.0968344 0.324766 0.441298
924 1 0.109466 0.324079 0.448382
991 1 0.0914417 0.342599 0.439328
993 1 0.102834 0.339504 0.445297
992 1 0.099052 0.356948 0.442696
1063 1 0.109445 0.367683 0.445868
1062 1 0.1064 0.381106 0.441269
1133 1 0.114985 0.394887 0.444491
1132 1 0.113169 0.407934 0.440647
1134 1 0.122645 0.407903 0.447475
1201 1 0.108164 0.422423 0.438175
1203 1 0.118495 0.422454 0.444605
1202 1 0.116637 0.43756 0.441209
1204 1 0.125845 0.435181 0.447405
4127 1 0.00452973 0.452508 0.441667
4129 1 0.0201024 0.453033 0.439391
1273 1 0.126341 0.45028 0.442361
4128 1 0.0109511 0.465579 0.444252
4130 1 0.0271617 0.464042 0.441288
4199 1 0.0220304 0.478911 0.445487
1331 1 0.0376222 0.478233 0.443473
1333 1 0.0536759 0.481332 0.44169
1335 1 0.0692748 0.4821 0.438956
1339 1 0.103091 0.480102 0.439548
1272 1 0.121671 0.464788 0.439584
1341 1 0.115095 0.47924 0.441579
1274 1 0.133404 0.464827 0.443946
1343 1 0.127953 0.47858 0.44394
1345 1 0.141865 0.47743 0.449095
4200 1 0.0321657 0.492834 0.447471
1332 1 0.0460115 0.492892 0.445617
1334 1 0.061508 0.493104 0.444036
1336 1 0.0790581 0.495202 0.441736
1338 1 0.095236 0.493307 0.440076
1340 1 0.110406 0.495713 0.442007
1342 1 0.123439 0.493958 0.442726
1344 1 0.13771 0.491185 0.447002
366 1 0.108855 0.106051 0.456811
368 1 0.123115 0.0995842 0.457587
370 1 0.138709 0.0986212 0.458145
372 1 0.155271 0.0977187 0.460617
356 1 0.0286847 0.123219 0.454447
355 1 0.0199455 0.115678 0.459547
358 1 0.04406 0.118556 0.455502
431 1 0.0707571 0.123041 0.45096
360 1 0.0609026 0.114713 0.456379
433 1 0.0880203 0.119502 0.4522
362 1 0.0783712 0.111477 0.455633
364 1 0.0943601 0.107993 0.457317
435 1 0.103705 0.119174 0.45126
437 1 0.117885 0.11479 0.453538
439 1 0.133238 0.111915 0.454553
441 1 0.1492 0.110019 0.454905
442 1 0.158954 0.124991 0.45556
443 1 0.164313 0.10945 0.459351
423 1 0.00832394 0.1401 0.449918
354 1 0.0116557 0.125316 0.45426
425 1 0.0215912 0.136586 0.450934
427 1 0.0380927 0.130066 0.450311
429 1 0.0549933 0.126677 0.450423
436 1 0.112656 0.128965 0.449925
438 1 0.129626 0.125384 0.450149
440 1 0.143289 0.124411 0.451952
511 1 0.152321 0.138417 0.453387
513 1 0.167683 0.136735 0.457884
510 1 0.149232 0.152217 0.4497
512 1 0.160903 0.152338 0.45462
581 1 0.155634 0.167224 0.452192
583 1 0.167739 0.166357 0.458721
580 1 0.148334 0.180714 0.449828
651 1 0.153963 0.195008 0.455504
582 1 0.162474 0.179465 0.456284
650 1 0.146719 0.209023 0.453265
719 1 0.139163 0.223509 0.451611
721 1 0.152988 0.221653 0.458203
718 1 0.133566 0.237928 0.449608
720 1 0.1455 0.236174 0.456591
788 1 0.134124 0.265836 0.452943
789 1 0.138413 0.252501 0.455816
790 1 0.145581 0.26575 0.459768
857 1 0.126784 0.281524 0.451451
859 1 0.138875 0.279068 0.458178
856 1 0.120578 0.293907 0.449661
858 1 0.133453 0.29492 0.457235
925 1 0.116585 0.309341 0.448444
927 1 0.127383 0.307083 0.454688
926 1 0.121757 0.322999 0.4537
995 1 0.116738 0.338655 0.451444
997 1 0.126375 0.338922 0.456624
928 1 0.134068 0.321468 0.458138
994 1 0.106631 0.352178 0.451231
996 1 0.12023 0.353046 0.455695
1065 1 0.114714 0.367775 0.453547
1064 1 0.114666 0.382006 0.449321
1066 1 0.122306 0.379042 0.457685
1135 1 0.126116 0.394029 0.452742
1136 1 0.130243 0.407652 0.456209
1205 1 0.132486 0.422566 0.451118
1206 1 0.13877 0.434942 0.454576
1275 1 0.134666 0.448837 0.448519
1276 1 0.145303 0.46116 0.451819
1277 1 0.146067 0.448018 0.456338
4197 1 0.00714263 0.477269 0.448717
1347 1 0.151423 0.473256 0.456887
4196 1 0.00316259 0.488308 0.454072
4198 1 0.0178494 0.489469 0.451889
1346 1 0.149364 0.488872 0.45338
294 1 0.0857118 0.0861768 0.466978
296 1 0.10022 0.0825946 0.467279
298 1 0.116612 0.078062 0.467534
369 1 0.128595 0.086934 0.461972
300 1 0.133311 0.0747371 0.468523
371 1 0.144625 0.0850845 0.463689
373 1 0.157904 0.0823448 0.466211
375 1 0.174148 0.0803745 0.467261
377 1 0.188377 0.0778694 0.468547
284 1 0.00981837 0.108773 0.464279
286 1 0.0244618 0.102944 0.465465
359 1 0.0506061 0.106376 0.460611
288 1 0.0388441 0.0986089 0.465732
290 1 0.056371 0.0960146 0.465564
361 1 0.0677592 0.103161 0.461492
292 1 0.0719315 0.0899094 0.46735
363 1 0.0825958 0.100581 0.462755
365 1 0.0978723 0.0946168 0.461735
367 1 0.112754 0.0912918 0.461714
374 1 0.168323 0.0930852 0.463377
376 1 0.184869 0.0926438 0.464269
447 1 0.190814 0.105407 0.46485
378 1 0.199063 0.0897681 0.466773
449 1 0.207604 0.105169 0.468137
353 1 0.00234446 0.119686 0.460288
357 1 0.0336016 0.111437 0.461684
444 1 0.174664 0.122037 0.45944
445 1 0.176234 0.107812 0.461644
446 1 0.187594 0.120298 0.462532
448 1 0.200388 0.120306 0.465734
515 1 0.183225 0.135152 0.460402
517 1 0.195213 0.132365 0.466419
514 1 0.176185 0.151145 0.460233
516 1 0.187088 0.146232 0.465643
585 1 0.181688 0.163298 0.463476
586 1 0.184666 0.176876 0.467618
653 1 0.166763 0.192592 0.460029
584 1 0.172859 0.178599 0.463599
655 1 0.177755 0.192873 0.467369
652 1 0.1604 0.209088 0.459571
654 1 0.170647 0.20771 0.465438
723 1 0.164323 0.220782 0.46484
722 1 0.156572 0.235756 0.462945
791 1 0.150684 0.248777 0.461688
724 1 0.168661 0.234243 0.469144
792 1 0.158297 0.262855 0.466181
793 1 0.164015 0.250218 0.467477
861 1 0.150073 0.275582 0.46531
860 1 0.147283 0.291715 0.462465
929 1 0.139993 0.307673 0.462057
931 1 0.150417 0.306869 0.467583
930 1 0.144113 0.319204 0.465587
999 1 0.139714 0.332899 0.462782
998 1 0.131847 0.347982 0.462464
1000 1 0.143949 0.347086 0.46781
1067 1 0.125785 0.362998 0.460365
1069 1 0.137483 0.360344 0.466944
1068 1 0.136324 0.376817 0.463548
1137 1 0.133593 0.392031 0.460102
1139 1 0.142134 0.391566 0.467323
1138 1 0.141498 0.404406 0.46346
1207 1 0.13972 0.419202 0.458399
1209 1 0.149016 0.418729 0.467028
1208 1 0.149373 0.432639 0.461504
1279 1 0.156868 0.445697 0.464634
1278 1 0.154308 0.459993 0.459411
1280 1 0.162204 0.458816 0.467717
1349 1 0.158889 0.472801 0.464943
1348 1 0.156795 0.487975 0.461658
1350 1 0.16628 0.486387 0.469255
307 1 0.186763 0.0529705 0.47811
309 1 0.202037 0.0526915 0.479766
224 1 0.0794234 0.0676906 0.478862
226 1 0.0953394 0.0643406 0.480407
299 1 0.122146 0.0702696 0.475398
301 1 0.138656 0.065136 0.47598
303 1 0.154965 0.0620268 0.476876
305 1 0.170746 0.0586599 0.476648
304 1 0.165788 0.0693276 0.471199
306 1 0.180956 0.0653508 0.472257
308 1 0.19588 0.0652446 0.474145
310 1 0.211463 0.0649117 0.474898
312 1 0.227542 0.0619024 0.477886
214 1 0.00431551 0.0876167 0.476461
216 1 0.0199421 0.0821657 0.476196
218 1 0.034722 0.0841512 0.478758
220 1 0.0494483 0.0750536 0.478581
289 1 0.0453247 0.0886737 0.472395
222 1 0.0647513 0.0723043 0.478625
291 1 0.0599596 0.0842316 0.472086
293 1 0.0756371 0.0783283 0.472305
297 1 0.106357 0.0712425 0.473653
295 1 0.0903702 0.0739009 0.474146
302 1 0.148509 0.0723855 0.469622
379 1 0.205505 0.0771516 0.471114
381 1 0.222611 0.0762757 0.4723
383 1 0.239322 0.0746635 0.474489
385 1 0.251471 0.0792699 0.47778
285 1 0.0136904 0.096276 0.47059
287 1 0.0306091 0.0935087 0.47118
382 1 0.23047 0.0886594 0.472461
380 1 0.215189 0.0918186 0.470227
451 1 0.223103 0.103922 0.472007
384 1 0.241776 0.0921557 0.476378
453 1 0.23618 0.10491 0.474601
455 1 0.248195 0.104612 0.478742
386 1 0.255471 0.0929025 0.479573
450 1 0.212859 0.11792 0.47194
452 1 0.229216 0.117466 0.474679
519 1 0.206261 0.131628 0.473329
521 1 0.220256 0.131848 0.475565
518 1 0.199114 0.146168 0.47193
520 1 0.211636 0.147444 0.476192
587 1 0.191243 0.161765 0.46977
589 1 0.202816 0.160285 0.476021
588 1 0.196172 0.174824 0.475216
657 1 0.189288 0.190376 0.473973
612 1 0.364957 0.190433 0.477176
613 1 0.375783 0.180154 0.479201
615 1 0.391912 0.18277 0.477666
614 1 0.380637 0.196069 0.476929
656 1 0.181048 0.205612 0.473972
658 1 0.192284 0.203492 0.480345
683 1 0.370469 0.207266 0.477905
685 1 0.384674 0.212797 0.477352
616 1 0.395613 0.19872 0.476654
725 1 0.173952 0.220268 0.471518
727 1 0.188006 0.218748 0.476912
684 1 0.374224 0.224579 0.477555
686 1 0.389697 0.228727 0.478867
687 1 0.399836 0.218319 0.476628
795 1 0.173946 0.248044 0.475079
726 1 0.181013 0.234066 0.475666
755 1 0.378386 0.239548 0.479539
688 1 0.406642 0.234769 0.477074
757 1 0.395501 0.244141 0.477488
759 1 0.410258 0.249518 0.475538
690 1 0.420985 0.23624 0.477176
794 1 0.169736 0.261542 0.472361
756 1 0.383711 0.255334 0.479103
758 1 0.397899 0.261409 0.476619
760 1 0.412899 0.265859 0.476091
761 1 0.424181 0.252552 0.476752
763 1 0.43826 0.256573 0.47908
863 1 0.160692 0.276301 0.470748
865 1 0.17101 0.273421 0.477197
827 1 0.388173 0.272024 0.47894
828 1 0.388024 0.288004 0.47957
829 1 0.400783 0.277288 0.476995
762 1 0.428397 0.268274 0.475862
831 1 0.415531 0.280414 0.475614
764 1 0.44133 0.272576 0.479734
862 1 0.156124 0.291172 0.469458
933 1 0.161858 0.303402 0.474878
864 1 0.166775 0.287869 0.477803
830 1 0.404306 0.292578 0.476308
832 1 0.421136 0.297601 0.475819
833 1 0.431674 0.283755 0.477218
834 1 0.435962 0.30134 0.476847
836 1 0.453731 0.302186 0.477234
835 1 0.445164 0.287643 0.478146
837 1 0.462739 0.292081 0.478932
932 1 0.155626 0.317904 0.472745
934 1 0.165963 0.314862 0.480202
901 1 0.410229 0.308098 0.477365
903 1 0.427271 0.311465 0.476616
905 1 0.442142 0.31554 0.47634
907 1 0.456912 0.317389 0.478054
838 1 0.468726 0.309334 0.478852
1001 1 0.149435 0.330418 0.469672
1003 1 0.16029 0.329557 0.477123
902 1 0.415929 0.322433 0.477971
904 1 0.431663 0.327811 0.476342
906 1 0.44701 0.331011 0.474885
908 1 0.463186 0.332039 0.476082
909 1 0.471818 0.322731 0.478112
910 1 0.476846 0.339036 0.477114
1002 1 0.151711 0.344789 0.475091
973 1 0.420613 0.337929 0.475745
974 1 0.42492 0.351954 0.478998
975 1 0.435889 0.343231 0.476192
977 1 0.452317 0.344848 0.475183
979 1 0.465996 0.347366 0.473396
3711 1 0.482494 0.352159 0.475028
3642 1 0.492768 0.34198 0.479118
3713 1 0.497578 0.352888 0.474789
1071 1 0.149905 0.360309 0.473293
1072 1 0.156473 0.374216 0.477786
976 1 0.441275 0.358552 0.47749
1047 1 0.446763 0.372679 0.477324
978 1 0.456854 0.361619 0.474243
980 1 0.472767 0.363564 0.474501
3712 1 0.48777 0.365329 0.47087
1070 1 0.146298 0.37513 0.469682
1141 1 0.153377 0.388282 0.473395
1049 1 0.463243 0.377177 0.47503
1048 1 0.45284 0.38815 0.477154
3781 1 0.478294 0.378802 0.47202
3784 1 0.497473 0.393925 0.471639
3783 1 0.492601 0.378652 0.470698
3782 1 0.482712 0.393332 0.471153
1140 1 0.150911 0.402786 0.470438
1142 1 0.162553 0.401917 0.476872
1119 1 0.4594 0.403412 0.477487
1050 1 0.467055 0.391474 0.474278
3851 1 0.473373 0.405836 0.474593
3853 1 0.489835 0.407365 0.471019
1211 1 0.157917 0.416261 0.473764
3852 1 0.480637 0.420768 0.474971
3854 1 0.496042 0.420835 0.472713
1210 1 0.156525 0.429453 0.469402
1212 1 0.164197 0.430591 0.478104
1281 1 0.163743 0.444493 0.472292
3923 1 0.488353 0.433015 0.477993
1282 1 0.171699 0.456495 0.476541
1351 1 0.167315 0.470483 0.47285
1352 1 0.17254 0.483812 0.476916
229 1 0.115907 0.0519106 0.487335
231 1 0.13151 0.0486128 0.487324
233 1 0.148888 0.0441699 0.488364
234 1 0.160098 0.0494432 0.482204
236 1 0.176293 0.0463608 0.483316
235 1 0.165356 0.0413755 0.489527
238 1 0.19194 0.0446733 0.485743
240 1 0.207039 0.043644 0.485952
311 1 0.217926 0.0516666 0.480924
242 1 0.223049 0.042117 0.487829
313 1 0.232823 0.0518282 0.48379
315 1 0.249719 0.0543346 0.484781
146 1 0.0146539 0.0637091 0.489249
144 1 -0.000805627 0.0641551 0.487832
148 1 0.0314784 0.061782 0.489782
221 1 0.0549149 0.0627866 0.485014
223 1 0.0674053 0.0598757 0.484992
225 1 0.082638 0.0559458 0.484875
227 1 0.0987381 0.0525792 0.48627
228 1 0.110667 0.0608129 0.481316
230 1 0.127037 0.0597664 0.48109
232 1 0.143439 0.0534682 0.481592
314 1 0.243574 0.0644801 0.47907
316 1 0.258128 0.0662541 0.481741
317 1 0.26592 0.0550535 0.48811
318 1 0.272899 0.0684723 0.484949
320 1 0.289504 0.0705932 0.48878
215 1 0.00949072 0.0763205 0.482546
217 1 0.023159 0.0727078 0.482855
219 1 0.0395235 0.0702722 0.483876
387 1 0.265633 0.0794828 0.4826
389 1 0.280392 0.0805044 0.484084
391 1 0.296054 0.0825708 0.487954
457 1 0.26397 0.106147 0.480225
388 1 0.272913 0.0933861 0.481492
390 1 0.288539 0.0945032 0.484405
392 1 0.302544 0.095152 0.484943
394 1 0.318541 0.0985972 0.485328
397 1 0.335505 0.100041 0.485595
398 1 0.350218 0.104102 0.488559
454 1 0.242449 0.119147 0.478889
456 1 0.256459 0.118211 0.480738
459 1 0.278444 0.107297 0.482079
458 1 0.270094 0.122405 0.481693
460 1 0.283112 0.123258 0.483176
461 1 0.293139 0.108581 0.483047
462 1 0.297694 0.121359 0.484347
463 1 0.310588 0.109403 0.483566
465 1 0.31559 0.122315 0.482448
396 1 0.325719 0.112508 0.482824
467 1 0.342477 0.113529 0.485158
469 1 0.357324 0.120493 0.48705
471 1 0.37179 0.122914 0.48817
523 1 0.233595 0.132073 0.480157
525 1 0.246807 0.131463 0.483374
527 1 0.260486 0.134553 0.48469
529 1 0.274818 0.1365 0.486295
531 1 0.292626 0.137806 0.485427
464 1 0.305406 0.131175 0.482401
535 1 0.318938 0.138267 0.483662
466 1 0.332405 0.126234 0.484472
537 1 0.334761 0.140886 0.483512
468 1 0.346224 0.132288 0.484525
470 1 0.362774 0.135853 0.484357
472 1 0.378444 0.139316 0.486273
522 1 0.22493 0.146649 0.481674
593 1 0.228998 0.159053 0.487056
524 1 0.237259 0.145348 0.486765
526 1 0.252454 0.143914 0.488383
530 1 0.285243 0.150144 0.489081
532 1 0.297538 0.154265 0.488504
534 1 0.31345 0.152766 0.48895
533 1 0.304287 0.144877 0.483308
536 1 0.325552 0.153942 0.486337
539 1 0.352294 0.145064 0.483135
538 1 0.340728 0.158478 0.481955
541 1 0.366791 0.14945 0.482667
543 1 0.381723 0.153023 0.48377
474 1 0.392918 0.143905 0.489599
545 1 0.395121 0.15854 0.486748
590 1 0.204965 0.173874 0.48136
591 1 0.216432 0.159995 0.481855
592 1 0.219156 0.173285 0.487638
607 1 0.332659 0.169407 0.48663
540 1 0.355892 0.160375 0.481961
609 1 0.346985 0.173972 0.482102
611 1 0.361006 0.17776 0.481149
542 1 0.370282 0.165829 0.482041
544 1 0.385183 0.1689 0.481598
546 1 0.398692 0.173467 0.484393
547 1 0.409946 0.164453 0.490545
659 1 0.198908 0.186825 0.481592
661 1 0.211005 0.186283 0.48727
608 1 0.336825 0.186891 0.486225
610 1 0.350099 0.1909 0.482338
617 1 0.405835 0.188896 0.481589
548 1 0.415307 0.178757 0.485879
619 1 0.4192 0.194623 0.48513
550 1 0.428777 0.183495 0.488484
660 1 0.205109 0.200015 0.485822
679 1 0.342424 0.20184 0.486291
681 1 0.356069 0.204108 0.480688
618 1 0.408258 0.205862 0.479727
620 1 0.422425 0.207387 0.483279
621 1 0.43509 0.198244 0.487156
728 1 0.188372 0.230524 0.483784
729 1 0.199334 0.213084 0.484504
749 1 0.336262 0.228885 0.487866
680 1 0.346733 0.217439 0.484331
751 1 0.350619 0.231125 0.485242
682 1 0.360958 0.219037 0.481015
689 1 0.414191 0.221404 0.47963
691 1 0.429332 0.223469 0.482465
693 1 0.444442 0.230387 0.486302
622 1 0.439102 0.215102 0.486813
797 1 0.183354 0.244878 0.482676
799 1 0.19184 0.242376 0.489234
752 1 0.355962 0.246802 0.487831
753 1 0.363528 0.236323 0.482106
692 1 0.434221 0.239481 0.479697
694 1 0.44918 0.245843 0.483636
796 1 0.180196 0.260566 0.479813
798 1 0.188584 0.257165 0.487647
823 1 0.360219 0.262267 0.486614
754 1 0.368914 0.251596 0.482285
825 1 0.372391 0.265808 0.481352
765 1 0.452887 0.261914 0.483054
696 1 0.462899 0.251049 0.487136
767 1 0.468284 0.266776 0.486832
867 1 0.17962 0.272127 0.486529
824 1 0.361719 0.276569 0.487169
826 1 0.374347 0.281854 0.482364
766 1 0.458453 0.277513 0.480894
768 1 0.472755 0.280916 0.483782
769 1 0.48232 0.271887 0.488963
866 1 0.174683 0.284835 0.484203
935 1 0.170024 0.301862 0.482421
895 1 0.366833 0.29407 0.488368
897 1 0.379134 0.299345 0.483413
899 1 0.394236 0.302958 0.479763
839 1 0.47641 0.296496 0.483131
770 1 0.487903 0.28704 0.486561
3571 1 0.491798 0.301129 0.485359
936 1 0.17595 0.312922 0.487151
896 1 0.371777 0.309021 0.488867
898 1 0.384204 0.313881 0.484026
900 1 0.398893 0.318626 0.480135
840 1 0.482615 0.312406 0.481245
3572 1 0.496022 0.313673 0.483582
1005 1 0.170993 0.328932 0.484619
969 1 0.393556 0.329329 0.484409
971 1 0.406166 0.334708 0.48009
3641 1 0.486723 0.326111 0.480816
1073 1 0.157809 0.35734 0.4807
1004 1 0.165059 0.342265 0.482577
1075 1 0.168663 0.355112 0.48865
970 1 0.398813 0.346272 0.486836
972 1 0.411298 0.349134 0.482189
1074 1 0.166589 0.369984 0.485793
1041 1 0.407172 0.359546 0.488237
1043 1 0.419362 0.365212 0.48342
1045 1 0.431344 0.368056 0.480968
1143 1 0.16339 0.385317 0.480841
1145 1 0.172136 0.38605 0.488291
1044 1 0.425577 0.378949 0.485933
1046 1 0.43668 0.385385 0.480619
1115 1 0.430683 0.39483 0.48786
1144 1 0.168745 0.398892 0.484387
1117 1 0.443607 0.399884 0.481247
1116 1 0.438329 0.408603 0.488904
1213 1 0.165784 0.415031 0.481085
1215 1 0.175428 0.413038 0.489255
1118 1 0.450323 0.412759 0.484823
1189 1 0.458504 0.423595 0.486762
1120 1 0.46775 0.41677 0.480353
1214 1 0.173495 0.428704 0.485729
1283 1 0.172656 0.443871 0.479978
1285 1 0.179432 0.441466 0.489045
3921 1 0.471951 0.430959 0.481718
1190 1 0.46693 0.438245 0.488587
3922 1 0.482507 0.443402 0.484546
3924 1 0.499136 0.445841 0.482167
1284 1 0.180406 0.454449 0.484568
3993 1 0.49337 0.453145 0.489935
1353 1 0.176356 0.470008 0.480631
1355 1 0.186509 0.467533 0.487505
1354 1 0.183727 0.483044 0.48496
1423 1 0.181263 0.498184 0.481526
1425 1 0.189565 0.49675 0.489611
166 1 0.169066 0.0349952 0.498221
168 1 0.184456 0.0323669 0.499043
243 1 0.228359 0.0334547 0.494882
76 1 0.00882397 0.0436817 0.500719
149 1 0.035646 0.0525591 0.497095
151 1 0.0493387 0.0474125 0.498883
153 1 0.0664366 0.0469968 0.498963
154 1 0.0745114 0.0515699 0.491419
155 1 0.0815936 0.0435204 0.499075
156 1 0.0898476 0.0459724 0.491836
158 1 0.105373 0.0433443 0.493811
160 1 0.121803 0.0434369 0.493161
162 1 0.137833 0.0387717 0.494358
164 1 0.154204 0.0370702 0.496348
237 1 0.181229 0.0397719 0.491543
239 1 0.198428 0.0392096 0.493502
241 1 0.212116 0.0382594 0.495121
244 1 0.238838 0.0421635 0.489298
245 1 0.244216 0.0388248 0.498168
246 1 0.254593 0.045356 0.492693
248 1 0.269985 0.0474259 0.495977
250 1 0.284438 0.0478758 0.499687
145 1 0.00572413 0.0543481 0.495871
147 1 0.0208929 0.0546611 0.495626
150 1 0.0446721 0.0589176 0.491591
152 1 0.0584743 0.0531202 0.492473
319 1 0.280844 0.0582193 0.491903
321 1 0.294042 0.0607223 0.495667
323 1 0.309035 0.0637577 0.499752
322 1 0.304042 0.0719162 0.493605
393 1 0.311901 0.0850828 0.488845
324 1 0.319588 0.0753049 0.494404
395 1 0.328249 0.0883646 0.490712
326 1 0.336286 0.0781878 0.496136
329 1 0.348072 0.0807266 0.499495
328 1 0.343289 0.0896585 0.491268
399 1 0.355831 0.0954315 0.495194
401 1 0.369656 0.102333 0.499217
400 1 0.363891 0.109625 0.492537
402 1 0.377455 0.115388 0.494933
473 1 0.384858 0.128988 0.490611
475 1 0.395002 0.135613 0.497869
595 1 0.241994 0.157443 0.491671
528 1 0.268123 0.147102 0.490759
597 1 0.257151 0.158475 0.492785
599 1 0.273361 0.160091 0.493612
476 1 0.405176 0.148387 0.492228
478 1 0.415634 0.154884 0.496848
594 1 0.232656 0.170117 0.492984
596 1 0.24648 0.172016 0.496097
598 1 0.26359 0.171405 0.497498
600 1 0.27979 0.174687 0.496479
601 1 0.288956 0.163681 0.493894
602 1 0.294112 0.177507 0.496287
605 1 0.319823 0.167486 0.491057
603 1 0.305123 0.16744 0.492716
549 1 0.420375 0.170755 0.492977
480 1 0.427536 0.160092 0.500352
551 1 0.437186 0.172314 0.495201
663 1 0.222573 0.184592 0.493301
665 1 0.235417 0.184035 0.497756
671 1 0.284394 0.187314 0.499927
669 1 0.269434 0.186718 0.500447
673 1 0.300629 0.192563 0.497307
604 1 0.311366 0.181686 0.494234
675 1 0.317377 0.195229 0.495051
606 1 0.324804 0.18213 0.489666
552 1 0.442659 0.189024 0.493158
554 1 0.457862 0.195091 0.497257
553 1 0.449925 0.182222 0.499687
731 1 0.211191 0.212768 0.492046
664 1 0.229267 0.198503 0.498629
662 1 0.214383 0.199435 0.493315
733 1 0.222485 0.214423 0.496972
674 1 0.306149 0.20589 0.497195
676 1 0.320847 0.211908 0.494788
677 1 0.328993 0.19977 0.491182
678 1 0.335121 0.215866 0.491679
623 1 0.447647 0.203206 0.492271
625 1 0.462119 0.209705 0.495584
730 1 0.200523 0.227239 0.490322
732 1 0.213038 0.226645 0.49701
745 1 0.308201 0.222497 0.496294
747 1 0.320836 0.225429 0.492475
624 1 0.45284 0.219556 0.490455
626 1 0.466438 0.224311 0.494619
801 1 0.20316 0.239851 0.497077
746 1 0.313095 0.238325 0.497971
748 1 0.327503 0.241326 0.492589
750 1 0.343084 0.242958 0.490577
695 1 0.457554 0.23643 0.490256
697 1 0.470419 0.242058 0.493223
628 1 0.477884 0.233305 0.49799
699 1 0.484228 0.248224 0.496657
800 1 0.195861 0.255213 0.496263
817 1 0.319075 0.250733 0.49995
819 1 0.333065 0.25426 0.495943
820 1 0.339527 0.266876 0.499941
821 1 0.348536 0.257159 0.492944
698 1 0.476916 0.256682 0.491542
700 1 0.489074 0.264478 0.495096
869 1 0.187983 0.270598 0.493781
870 1 0.193631 0.283647 0.500252
822 1 0.35107 0.269995 0.494212
3501 1 0.495752 0.275948 0.493411
868 1 0.186351 0.285927 0.49207
939 1 0.189027 0.298207 0.497879
937 1 0.179591 0.298051 0.490682
892 1 0.349519 0.299142 0.5002
893 1 0.354489 0.28806 0.493311
938 1 0.182831 0.313012 0.495707
963 1 0.353037 0.31291 0.500349
894 1 0.360264 0.305468 0.493881
965 1 0.36746 0.319822 0.495435
1007 1 0.17818 0.32817 0.49415
966 1 0.375315 0.332539 0.496727
967 1 0.380393 0.323123 0.489474
968 1 0.388166 0.338142 0.491345
1006 1 0.173669 0.342589 0.490922
1077 1 0.176755 0.355459 0.496409
1008 1 0.182364 0.339479 0.498136
1037 1 0.384274 0.346516 0.499718
1039 1 0.394869 0.351755 0.494529
1076 1 0.175118 0.370044 0.492764
1078 1 0.18218 0.369457 0.500133
1040 1 0.402706 0.366 0.496246
1042 1 0.413365 0.372278 0.490557
1147 1 0.182543 0.384693 0.496626
1111 1 0.407436 0.379974 0.498768
1113 1 0.422458 0.385216 0.494147
1146 1 0.18042 0.399547 0.491267
1114 1 0.425574 0.402022 0.495105
1217 1 0.184969 0.411076 0.498142
1216 1 0.182751 0.427334 0.49369
1185 1 0.431155 0.416207 0.496539
1187 1 0.444607 0.42222 0.491361
1287 1 0.191637 0.439476 0.496454
1186 1 0.441164 0.429681 0.499516
1188 1 0.45528 0.434987 0.494423
1286 1 0.188117 0.453671 0.492171
1288 1 0.201237 0.450268 0.498421
1259 1 0.462288 0.447152 0.496907
3991 1 0.477098 0.449807 0.493029
3992 1 0.486646 0.460091 0.497986
1356 1 0.190392 0.481424 0.492729
1357 1 0.195953 0.465315 0.495385
1358 1 0.204341 0.478382 0.498548
1427 1 0.199222 0.493688 0.497928
77 1 0.0148588 0.0329179 0.507135
6 1 0.00682759 0.0225437 0.509398
79 1 0.0309942 0.0342128 0.509032
86 1 0.0876279 0.0349119 0.506789
88 1 0.104354 0.0294141 0.507854
90 1 0.121237 0.0294914 0.509968
163 1 0.143888 0.034362 0.503149
165 1 0.159444 0.0296705 0.504449
167 1 0.175664 0.0274946 0.506019
169 1 0.190872 0.0242264 0.507334
171 1 0.208355 0.0257233 0.50947
170 1 0.201859 0.0317607 0.501181
172 1 0.216652 0.0305623 0.502256
173 1 0.223139 0.0222309 0.510348
174 1 0.233239 0.0305521 0.503976
176 1 0.249192 0.0337443 0.506512
178 1 0.266284 0.0343272 0.510164
78 1 0.023964 0.0437748 0.502692
80 1 0.0411747 0.0422942 0.505306
82 1 0.0591215 0.0402285 0.505667
84 1 0.0726448 0.0384676 0.507119
157 1 0.0976628 0.0376132 0.499463
159 1 0.113116 0.0354466 0.501111
161 1 0.128267 0.0361143 0.501336
247 1 0.260505 0.038747 0.50191
249 1 0.276011 0.0387891 0.504656
251 1 0.293123 0.0419074 0.506439
253 1 0.306596 0.0459427 0.510348
252 1 0.301223 0.0504326 0.502643
254 1 0.316941 0.0580189 0.505715
256 1 0.331552 0.0607157 0.509285
325 1 0.325505 0.0687112 0.501876
327 1 0.339665 0.0691544 0.50385
260 1 0.353986 0.0765888 0.50717
330 1 0.362307 0.0888261 0.501294
331 1 0.370307 0.0832963 0.508777
332 1 0.376851 0.0963915 0.505461
403 1 0.382897 0.110099 0.501835
404 1 0.390325 0.12118 0.499163
405 1 0.396294 0.114416 0.506599
406 1 0.402185 0.129837 0.505272
477 1 0.407893 0.142158 0.500022
408 1 0.412848 0.134906 0.509046
479 1 0.419307 0.148223 0.50566
481 1 0.43318 0.15754 0.509069
482 1 0.440006 0.169412 0.503789
484 1 0.453231 0.173865 0.508032
666 1 0.24071 0.196783 0.502632
668 1 0.25759 0.195995 0.502429
667 1 0.252283 0.182991 0.500026
555 1 0.46221 0.187428 0.504805
557 1 0.473945 0.193448 0.509306
735 1 0.232924 0.212335 0.501582
737 1 0.246953 0.209306 0.504915
739 1 0.262867 0.208437 0.505849
670 1 0.274425 0.200691 0.501667
672 1 0.289586 0.204158 0.500141
556 1 0.468382 0.20167 0.501561
558 1 0.481478 0.207999 0.506426
734 1 0.226661 0.226657 0.50168
736 1 0.237818 0.225064 0.506956
738 1 0.253541 0.222479 0.510018
741 1 0.279763 0.213471 0.504331
740 1 0.269002 0.223385 0.509681
742 1 0.284091 0.227113 0.50657
743 1 0.295433 0.215433 0.502041
627 1 0.473594 0.217402 0.499988
629 1 0.485879 0.224035 0.505095
803 1 0.215703 0.238805 0.503302
805 1 0.228434 0.239572 0.5077
744 1 0.298486 0.230491 0.50283
813 1 0.289526 0.239658 0.507328
815 1 0.303785 0.245994 0.504823
630 1 0.494604 0.236113 0.501387
871 1 0.200558 0.268157 0.500651
802 1 0.208695 0.252107 0.50174
873 1 0.21159 0.265722 0.508223
804 1 0.219966 0.253577 0.508185
814 1 0.295467 0.256419 0.50832
816 1 0.310761 0.259273 0.505661
818 1 0.324529 0.26293 0.502269
3431 1 0.500261 0.252847 0.500338
872 1 0.206148 0.279883 0.506937
887 1 0.316518 0.273227 0.507643
889 1 0.329873 0.278214 0.503997
891 1 0.34475 0.283083 0.499982
941 1 0.198985 0.295331 0.505697
888 1 0.323678 0.289484 0.508908
890 1 0.337597 0.293304 0.505747
940 1 0.18979 0.31001 0.504544
961 1 0.341067 0.307605 0.505893
962 1 0.347329 0.324396 0.506316
1009 1 0.185169 0.323734 0.5019
1011 1 0.195452 0.322361 0.508806
1033 1 0.357486 0.337769 0.508859
964 1 0.361387 0.328282 0.50286
1010 1 0.19335 0.337969 0.50547
1079 1 0.185597 0.353167 0.503584
1035 1 0.368884 0.342319 0.50418
1036 1 0.377436 0.354155 0.506597
1080 1 0.194576 0.366471 0.507001
1107 1 0.383525 0.368328 0.508334
1038 1 0.390846 0.360193 0.501204
1109 1 0.395621 0.373282 0.503345
1149 1 0.190947 0.381267 0.503861
1110 1 0.403483 0.388141 0.507105
1219 1 0.195977 0.40903 0.502753
1148 1 0.189492 0.394296 0.49969
1150 1 0.199867 0.394304 0.50667
1181 1 0.410992 0.403188 0.507694
1112 1 0.415366 0.394888 0.500783
1218 1 0.194337 0.424733 0.499587
1220 1 0.201126 0.423411 0.508039
1183 1 0.420244 0.410499 0.501669
1184 1 0.428066 0.424609 0.504357
1289 1 0.20457 0.436853 0.503747
1255 1 0.438213 0.435197 0.507692
1257 1 0.450014 0.442096 0.50318
1290 1 0.209783 0.450255 0.505721
1359 1 0.207844 0.464818 0.502283
1258 1 0.458032 0.452671 0.506191
1260 1 0.471361 0.458503 0.501273
1360 1 0.210561 0.478359 0.508429
4061 1 0.48188 0.470063 0.505484
4063 1 0.496602 0.470314 0.501317
4062 1 0.494001 0.478807 0.50999
1429 1 0.208562 0.491224 0.504627
2738 1 0.0176219 0.000396693 0.519909
7 1 0.0110002 0.012068 0.516325
9 1 0.0284376 0.0133537 0.517995
95 1 0.156512 0.0166302 0.519904
97 1 0.173236 0.0147516 0.51987
100 1 0.196337 0.0181963 0.515492
8 1 0.0223635 0.0223755 0.512799
10 1 0.0393215 0.0224019 0.514599
12 1 0.052773 0.0217774 0.51642
83 1 0.0632086 0.0317424 0.513974
14 1 0.0688502 0.0171408 0.518131
85 1 0.0785745 0.0289069 0.514129
87 1 0.094793 0.0243464 0.513674
89 1 0.109178 0.0232506 0.516777
92 1 0.135536 0.0297998 0.510216
93 1 0.140266 0.0197381 0.518557
91 1 0.126386 0.024629 0.518296
94 1 0.149124 0.0235521 0.511266
96 1 0.164031 0.0238662 0.513635
98 1 0.181655 0.020581 0.513349
102 1 0.213193 0.0188712 0.518673
104 1 0.226906 0.0190162 0.519874
175 1 0.239577 0.0258083 0.513219
177 1 0.253621 0.0279229 0.515792
179 1 0.2717 0.0268602 0.518211
180 1 0.283788 0.0328508 0.511787
81 1 0.048038 0.0347435 0.511044
182 1 0.297261 0.0346629 0.514666
184 1 0.313854 0.0385362 0.517447
255 1 0.324085 0.0475593 0.512778
257 1 0.337764 0.0553422 0.516366
258 1 0.345935 0.0647832 0.51163
259 1 0.35999 0.0714866 0.514261
262 1 0.372343 0.076693 0.518084
333 1 0.3803 0.0890395 0.51359
334 1 0.389316 0.102357 0.509039
335 1 0.396322 0.0937329 0.516361
336 1 0.404346 0.107468 0.513739
407 1 0.408718 0.121972 0.511919
338 1 0.413522 0.11307 0.518392
409 1 0.420619 0.128107 0.515664
411 1 0.433186 0.134162 0.51895
410 1 0.42508 0.142037 0.511851
412 1 0.439049 0.148152 0.515972
414 1 0.455119 0.151581 0.518761
416 1 0.471153 0.156609 0.519696
483 1 0.445723 0.161734 0.511704
485 1 0.459096 0.164236 0.514384
487 1 0.475707 0.167693 0.515471
486 1 0.468822 0.179292 0.51153
489 1 0.490195 0.17287 0.519168
488 1 0.481748 0.184677 0.516281
490 1 0.496713 0.186115 0.516763
560 1 0.494887 0.214222 0.510715
559 1 0.487608 0.198723 0.512263
807 1 0.244329 0.237622 0.512139
809 1 0.260893 0.236554 0.512454
808 1 0.250708 0.249359 0.51555
811 1 0.274992 0.238117 0.510506
875 1 0.226867 0.265188 0.512812
806 1 0.234219 0.251804 0.512783
877 1 0.239223 0.261644 0.517047
879 1 0.256455 0.262991 0.516525
810 1 0.267765 0.250638 0.514248
812 1 0.282651 0.253239 0.512016
881 1 0.272512 0.265305 0.514463
874 1 0.217688 0.278604 0.512342
876 1 0.231118 0.276141 0.517141
880 1 0.262311 0.278618 0.518098
882 1 0.277301 0.281155 0.51648
885 1 0.303014 0.272945 0.510768
883 1 0.288275 0.269603 0.512331
884 1 0.294839 0.284145 0.51611
943 1 0.209099 0.293323 0.512263
945 1 0.221997 0.29137 0.516776
953 1 0.287713 0.294536 0.520119
955 1 0.30236 0.295816 0.517945
886 1 0.30897 0.285706 0.513757
957 1 0.315967 0.299182 0.515228
942 1 0.202168 0.307284 0.509694
1013 1 0.209522 0.321039 0.514244
944 1 0.214318 0.305478 0.516816
959 1 0.330316 0.301341 0.512272
958 1 0.32374 0.315255 0.514988
960 1 0.336042 0.318215 0.511176
1012 1 0.202421 0.334786 0.512129
1014 1 0.215622 0.332923 0.517472
1029 1 0.330935 0.328646 0.517805
1031 1 0.341459 0.332751 0.51268
1081 1 0.197357 0.350059 0.511205
1083 1 0.211389 0.347993 0.516663
1030 1 0.338289 0.341409 0.520336
1032 1 0.351012 0.34648 0.516197
1034 1 0.365182 0.349514 0.510945
1103 1 0.358348 0.359387 0.51843
1082 1 0.203363 0.362903 0.514368
1105 1 0.372449 0.360935 0.513776
1151 1 0.20012 0.378676 0.511012
1152 1 0.206027 0.392559 0.516292
1153 1 0.208854 0.376215 0.519317
1108 1 0.392232 0.382029 0.51096
1106 1 0.378548 0.375282 0.516788
1177 1 0.387827 0.389293 0.518719
1221 1 0.20472 0.407682 0.511842
1223 1 0.216857 0.405756 0.518474
1179 1 0.401456 0.396555 0.513165
1178 1 0.393989 0.403837 0.520041
1222 1 0.212096 0.420324 0.514172
1180 1 0.407168 0.412764 0.515063
1182 1 0.415383 0.419622 0.509482
1251 1 0.41349 0.424214 0.519487
1291 1 0.21072 0.436101 0.510633
1293 1 0.220038 0.433376 0.518962
1253 1 0.425721 0.431397 0.512739
1252 1 0.41882 0.439779 0.521222
1254 1 0.433855 0.440994 0.516045
1292 1 0.218172 0.448597 0.513321
1361 1 0.214795 0.463672 0.511864
1363 1 0.224139 0.462407 0.51921
1256 1 0.448138 0.447991 0.512403
1327 1 0.454811 0.457313 0.515697
1329 1 0.467594 0.463598 0.509739
1362 1 0.223028 0.476738 0.515865
1328 1 0.463592 0.470734 0.519043
1330 1 0.477663 0.475149 0.513151
1431 1 0.21669 0.49198 0.512077
4131 1 0.487885 0.488194 0.517125
11 1 0.043172 0.00980093 0.520505
13 1 0.0590404 0.00998328 0.523052
15 1 0.0733591 0.0102076 0.525293
17 1 0.0884674 0.00977237 0.528311
19 1 0.105724 0.00938255 0.530001
20 1 0.116745 0.0167677 0.522993
22 1 0.132637 0.0167471 0.526228
24 1 0.146958 0.0138862 0.525915
26 1 0.162457 0.0114452 0.526809
28 1 0.179586 0.0116168 0.529527
99 1 0.188987 0.0135399 0.521743
30 1 0.195516 0.00877601 0.529503
101 1 0.205382 0.0144816 0.524124
103 1 0.219546 0.0134032 0.527019
105 1 0.236263 0.0143596 0.528452
107 1 0.2487 0.0172587 0.531464
16 1 0.0852409 0.018278 0.520499
18 1 0.100661 0.0188279 0.522756
106 1 0.244975 0.0192941 0.52199
108 1 0.259984 0.0212204 0.524346
110 1 0.275668 0.0246087 0.527623
181 1 0.287172 0.0302541 0.521758
183 1 0.302812 0.0345152 0.525236
187 1 0.317934 0.0397634 0.527562
185 1 0.328351 0.0456175 0.521693
189 1 0.333868 0.0385172 0.530556
188 1 0.342331 0.047771 0.525473
186 1 0.351568 0.0603961 0.519951
190 1 0.357192 0.0534394 0.528602
261 1 0.366454 0.0651232 0.522888
263 1 0.379975 0.0709013 0.525648
264 1 0.387769 0.0840522 0.520407
266 1 0.401959 0.0876841 0.52447
265 1 0.393171 0.0757896 0.528992
337 1 0.406829 0.0998433 0.521879
339 1 0.418137 0.106062 0.525616
268 1 0.41106 0.0935237 0.528229
340 1 0.425626 0.120758 0.522893
341 1 0.433266 0.111598 0.530489
342 1 0.44082 0.126643 0.526612
413 1 0.445782 0.138372 0.522405
344 1 0.45524 0.130143 0.529927
346 1 0.468903 0.135611 0.532068
415 1 0.462104 0.143637 0.524832
417 1 0.476448 0.145965 0.527282
418 1 0.484669 0.156821 0.521853
419 1 0.493591 0.147723 0.527944
420 1 0.497779 0.15955 0.524132
878 1 0.245616 0.276631 0.519156
947 1 0.23817 0.291789 0.519898
949 1 0.253163 0.290065 0.522317
951 1 0.271813 0.291027 0.520523
1015 1 0.221014 0.318886 0.520219
946 1 0.22805 0.305072 0.521974
948 1 0.24412 0.303568 0.522112
1017 1 0.236516 0.319652 0.524597
950 1 0.259507 0.303168 0.524034
1019 1 0.251676 0.316705 0.526403
1021 1 0.266636 0.317702 0.526469
952 1 0.276941 0.306093 0.523907
954 1 0.29371 0.309077 0.521835
956 1 0.309951 0.310053 0.521088
1016 1 0.229204 0.333744 0.52375
1018 1 0.243003 0.331248 0.527472
1020 1 0.258814 0.331497 0.528368
1023 1 0.28431 0.320859 0.526304
1022 1 0.276317 0.331623 0.528492
1025 1 0.301243 0.323136 0.526533
1024 1 0.293268 0.334285 0.528855
1027 1 0.317464 0.324003 0.522819
1026 1 0.309082 0.335836 0.528958
1028 1 0.324361 0.338296 0.525161
1085 1 0.222449 0.345507 0.522848
1087 1 0.235252 0.347172 0.527448
1097 1 0.316485 0.34995 0.530124
1099 1 0.328841 0.35176 0.526595
1101 1 0.34511 0.354308 0.523089
1084 1 0.214989 0.360065 0.521548
1086 1 0.228212 0.358601 0.527894
1155 1 0.222298 0.373393 0.525894
1100 1 0.336938 0.36487 0.529241
1102 1 0.352752 0.367953 0.524156
1104 1 0.366933 0.369785 0.521172
1154 1 0.219111 0.389644 0.522505
1156 1 0.229787 0.386821 0.527778
1173 1 0.361781 0.380536 0.527183
1175 1 0.374309 0.38566 0.523418
1225 1 0.225782 0.40392 0.525677
1174 1 0.366592 0.3955 0.528709
1176 1 0.38125 0.39909 0.52557
1224 1 0.222048 0.420256 0.521931
1226 1 0.231553 0.416011 0.528348
1247 1 0.388749 0.412338 0.527321
1249 1 0.399673 0.420441 0.522876
1248 1 0.396483 0.426973 0.530001
1294 1 0.224548 0.446308 0.522929
1295 1 0.227019 0.433273 0.525938
1296 1 0.234232 0.444996 0.53072
1250 1 0.407161 0.435305 0.52568
1365 1 0.233811 0.459194 0.527845
1321 1 0.413154 0.449423 0.527834
1323 1 0.426392 0.452032 0.525138
1325 1 0.440136 0.451721 0.520152
1324 1 0.438762 0.460925 0.529073
1364 1 0.231005 0.474698 0.523563
1366 1 0.241719 0.471586 0.531558
1326 1 0.449942 0.464087 0.52379
1397 1 0.461587 0.47586 0.527416
1433 1 0.227244 0.489074 0.520492
1435 1 0.238763 0.488131 0.527662
1399 1 0.472081 0.484006 0.521562
4132 1 0.498079 0.497445 0.52081
1400 1 0.483403 0.492594 0.526116
2744 1 0.0641725 0.000264289 0.529772
2746 1 0.0781321 0.00232155 0.531918
2748 1 0.0948121 0.00231436 0.534056
2750 1 0.110291 0.000899891 0.5367
21 1 0.121081 0.0104509 0.532031
23 1 0.136657 0.00670157 0.533336
25 1 0.150471 0.00898937 0.533818
27 1 0.166283 0.00617477 0.535712
29 1 0.183417 0.00583158 0.53586
31 1 0.199579 0.00262014 0.538556
32 1 0.210271 0.0104411 0.533958
34 1 0.225632 0.00900497 0.535526
36 1 0.240687 0.0109783 0.537366
38 1 0.254351 0.0115015 0.539878
109 1 0.263795 0.0194802 0.534476
111 1 0.278432 0.0234826 0.536612
112 1 0.289476 0.0298807 0.530356
113 1 0.295019 0.02341 0.53862
114 1 0.306549 0.0334548 0.533196
116 1 0.324951 0.0302119 0.535716
118 1 0.337574 0.0343128 0.538254
191 1 0.348364 0.0429401 0.534411
122 1 0.363211 0.0467273 0.536158
193 1 0.378191 0.0513094 0.53866
192 1 0.371939 0.0583301 0.531611
194 1 0.384759 0.0653083 0.534407
196 1 0.397136 0.0663125 0.537211
267 1 0.403947 0.080336 0.533206
269 1 0.416703 0.0866953 0.537261
270 1 0.42548 0.0984839 0.53195
272 1 0.439364 0.103382 0.535871
274 1 0.454875 0.105448 0.53981
343 1 0.44549 0.115803 0.533117
345 1 0.459314 0.119937 0.53636
347 1 0.475926 0.12688 0.536209
350 1 0.499876 0.139722 0.534615
349 1 0.491234 0.128223 0.538103
348 1 0.483982 0.136801 0.532263
1089 1 0.251588 0.346064 0.530925
1091 1 0.268979 0.344903 0.530379
1090 1 0.259571 0.356975 0.53476
1093 1 0.285174 0.34508 0.532144
1095 1 0.301859 0.348097 0.532966
1157 1 0.236769 0.372966 0.531682
1088 1 0.243962 0.358505 0.531434
1159 1 0.252168 0.372627 0.534981
1161 1 0.269157 0.371009 0.537032
1092 1 0.276807 0.356518 0.535943
1163 1 0.285619 0.373157 0.538268
1094 1 0.291537 0.360658 0.535668
1165 1 0.300506 0.374878 0.537994
1096 1 0.307113 0.363161 0.534467
1098 1 0.322959 0.363551 0.531618
1158 1 0.243614 0.386289 0.532195
1160 1 0.258847 0.385044 0.537502
1167 1 0.316734 0.374714 0.53701
1168 1 0.32453 0.38802 0.539796
1169 1 0.330916 0.376439 0.535764
1170 1 0.341187 0.390309 0.537785
1171 1 0.345822 0.377447 0.531473
1172 1 0.355208 0.3917 0.534261
1227 1 0.238186 0.402572 0.530017
1229 1 0.251515 0.399986 0.536025
1243 1 0.362508 0.403332 0.536787
1245 1 0.376323 0.409269 0.531519
1228 1 0.246621 0.415956 0.534084
1230 1 0.259703 0.413375 0.540361
1244 1 0.37012 0.415965 0.540772
1246 1 0.38317 0.421437 0.534993
1297 1 0.239828 0.429376 0.532769
1298 1 0.244904 0.444186 0.538417
1299 1 0.253963 0.429797 0.53832
1317 1 0.39232 0.434034 0.538895
1319 1 0.40233 0.440818 0.533435
1367 1 0.24466 0.4562 0.536083
1320 1 0.408994 0.453047 0.53672
1322 1 0.423821 0.459559 0.533074
1368 1 0.250232 0.471536 0.538488
1393 1 0.433813 0.469797 0.536044
1394 1 0.443628 0.479906 0.540182
1395 1 0.44856 0.474211 0.532257
1437 1 0.24853 0.486385 0.533304
1439 1 0.257263 0.485309 0.540532
1396 1 0.458237 0.484793 0.536377
1398 1 0.470873 0.488011 0.531095
1467 1 0.468035 0.494969 0.538442
1469 1 0.480835 0.499252 0.535136
33 1 0.215425 0.00200853 0.542087
35 1 0.230233 0.00361483 0.543735
2764 1 0.220075 -0.000663455 0.550387
37 1 0.244366 0.00459589 0.546319
39 1 0.261914 0.0070152 0.548394
40 1 0.270279 0.014558 0.54347
42 1 0.288112 0.0156954 0.543254
44 1 0.301938 0.0179066 0.547272
115 1 0.311418 0.0262821 0.541253
46 1 0.316309 0.022506 0.549937
117 1 0.327218 0.0270584 0.544929
119 1 0.342284 0.0316 0.546394
121 1 0.357095 0.032981 0.550172
120 1 0.351331 0.0393684 0.542138
123 1 0.368157 0.0410094 0.544264
124 1 0.379439 0.0459307 0.547951
195 1 0.388329 0.0560284 0.542377
197 1 0.402565 0.0646045 0.546327
199 1 0.418381 0.0681955 0.549546
198 1 0.410186 0.0750279 0.542235
200 1 0.425082 0.0823804 0.545379
202 1 0.440658 0.0872602 0.549541
206 1 0.47313 0.0899096 0.55046
271 1 0.43149 0.0938822 0.541092
204 1 0.455003 0.0894157 0.550162
273 1 0.445595 0.0958298 0.54406
275 1 0.463382 0.0981326 0.544982
277 1 0.480414 0.102208 0.545045
279 1 0.49556 0.1036 0.545194
208 1 0.490685 0.0901988 0.54894
276 1 0.468959 0.113335 0.541466
278 1 0.485244 0.114895 0.541644
1162 1 0.273132 0.38619 0.539588
1164 1 0.290627 0.385299 0.541646
1166 1 0.307146 0.386641 0.54098
1231 1 0.266498 0.399612 0.540801
1233 1 0.282785 0.396935 0.543642
1235 1 0.300109 0.399677 0.543036
1237 1 0.316963 0.401023 0.542058
1239 1 0.332466 0.402852 0.541639
1241 1 0.349711 0.402972 0.539897
1301 1 0.266037 0.42615 0.544159
1232 1 0.273901 0.410702 0.543461
1303 1 0.282184 0.424784 0.546403
1234 1 0.288689 0.411831 0.545652
1305 1 0.300215 0.425343 0.547038
1236 1 0.3071 0.412459 0.545119
1307 1 0.315671 0.42624 0.547823
1238 1 0.325354 0.413328 0.545318
1309 1 0.333531 0.427123 0.547132
1240 1 0.342213 0.413204 0.544755
1311 1 0.34847 0.42607 0.547739
1242 1 0.357793 0.414016 0.544431
1313 1 0.365206 0.42667 0.546241
1300 1 0.25857 0.442755 0.542971
1302 1 0.273967 0.439359 0.547042
1304 1 0.290284 0.438268 0.550235
1306 1 0.306671 0.437188 0.549916
1308 1 0.322134 0.438366 0.549924
1312 1 0.355571 0.439309 0.550889
1314 1 0.371103 0.439533 0.549022
1315 1 0.379791 0.429536 0.543727
1316 1 0.385004 0.443066 0.546143
1369 1 0.255041 0.456563 0.542141
1371 1 0.269172 0.454991 0.546364
1373 1 0.281665 0.452212 0.550932
1387 1 0.393439 0.455952 0.548295
1318 1 0.398316 0.447866 0.542321
1389 1 0.406189 0.458357 0.545784
1370 1 0.262168 0.471492 0.544693
1372 1 0.27721 0.469505 0.549176
1391 1 0.420138 0.462447 0.540382
1390 1 0.415576 0.471455 0.548688
1392 1 0.429463 0.475822 0.544396
1440 1 0.265825 0.497815 0.543163
1441 1 0.27186 0.482702 0.546364
1442 1 0.280647 0.496061 0.54918
1443 1 0.286898 0.48275 0.552623
1463 1 0.439776 0.48969 0.547733
1465 1 0.452964 0.491649 0.543315
2766 1 0.237471 9.79303e-05 0.552929
2768 1 0.252613 -0.000818581 0.554295
2770 1 0.266435 0.00095005 0.556713
41 1 0.277434 0.00937299 0.550693
43 1 0.292649 0.0104626 0.552593
45 1 0.309462 0.0129309 0.554312
2776 1 0.314356 0.00420771 0.563055
47 1 0.324242 0.0125896 0.557541
49 1 0.339464 0.0156482 0.55993
48 1 0.333684 0.0224375 0.552602
50 1 0.348695 0.0224418 0.554563
52 1 0.364026 0.0278133 0.558788
53 1 0.379287 0.0292381 0.561105
56 1 0.395265 0.0344658 0.561134
54 1 0.372137 0.0364852 0.553742
125 1 0.387096 0.0419057 0.555757
126 1 0.393904 0.0524627 0.550618
127 1 0.403316 0.045744 0.55832
129 1 0.420609 0.0485529 0.560912
131 1 0.43563 0.048518 0.560273
139 1 0.497921 0.0525394 0.559145
128 1 0.409898 0.0558913 0.553643
130 1 0.425175 0.0585836 0.555875
132 1 0.442659 0.0624756 0.55833
134 1 0.457754 0.0650581 0.559207
136 1 0.474844 0.0662718 0.559966
138 1 0.491838 0.0647095 0.556904
201 1 0.432861 0.0721337 0.552544
203 1 0.44932 0.0762333 0.555811
205 1 0.465264 0.0796112 0.555136
207 1 0.481974 0.0784263 0.553307
209 1 0.498817 0.0763439 0.551367
1310 1 0.339467 0.439538 0.552391
1375 1 0.297691 0.450624 0.55387
1377 1 0.314995 0.451005 0.553884
1379 1 0.329306 0.452446 0.554688
1381 1 0.345812 0.449713 0.555311
1383 1 0.362226 0.451961 0.554398
1385 1 0.376852 0.454407 0.550774
1374 1 0.291076 0.46633 0.55449
1445 1 0.300997 0.478215 0.557028
1447 1 0.315999 0.479814 0.559041
1376 1 0.307957 0.465077 0.557163
1378 1 0.323056 0.464287 0.557746
1449 1 0.332353 0.478555 0.559916
1380 1 0.337416 0.464788 0.558064
1382 1 0.355112 0.464751 0.55696
1451 1 0.34607 0.478654 0.560377
1453 1 0.362957 0.47859 0.560732
1384 1 0.370292 0.4637 0.558877
1386 1 0.385398 0.466511 0.553995
1455 1 0.37829 0.478159 0.560673
1388 1 0.402931 0.469207 0.552312
1457 1 0.393348 0.477733 0.558147
1444 1 0.294363 0.494405 0.555112
1446 1 0.308867 0.49297 0.560496
1458 1 0.403449 0.490911 0.560238
1459 1 0.408886 0.482135 0.554851
1461 1 0.425044 0.486227 0.551299
1460 1 0.417968 0.49442 0.558187
1462 1 0.432061 0.499221 0.554326
2778 1 0.331162 0.00356978 0.564637
51 1 0.353743 0.0168349 0.562992
2780 1 0.347368 0.00843021 0.567953
2782 1 0.362991 0.00901411 0.570114
2794 1 0.461021 0.0122893 0.56996
2796 1 0.473059 0.0128803 0.566176
2798 1 0.489905 0.0130726 0.566559
2784 1 0.370315 0.0192113 0.564265
55 1 0.387552 0.0201827 0.565454
57 1 0.401271 0.0225396 0.567317
58 1 0.411174 0.0369519 0.564844
59 1 0.417307 0.0257695 0.569021
60 1 0.4256 0.0366706 0.564301
61 1 0.435055 0.0240912 0.569285
63 1 0.452554 0.0231957 0.568736
65 1 0.468801 0.0255319 0.566335
67 1 0.483423 0.0274943 0.566883
69 1 0.500127 0.0243718 0.565571
62 1 0.440973 0.0365061 0.564078
133 1 0.449647 0.0515391 0.563842
64 1 0.458753 0.0382772 0.56512
135 1 0.466136 0.052857 0.564628
66 1 0.475553 0.0380771 0.564565
137 1 0.481517 0.0524505 0.562145
68 1 0.491263 0.0394868 0.563419
1448 1 0.326078 0.491491 0.56295
1450 1 0.33882 0.4929 0.563642
1452 1 0.355718 0.492677 0.563728
1454 1 0.372874 0.491903 0.563962
1456 1 0.389211 0.492397 0.561652
2785 1 0.385297 0.00151287 0.57937
2787 1 0.403084 0.000968176 0.57866
2788 1 0.410064 0.0114765 0.573748
2786 1 0.393856 0.0129697 0.574135
2790 1 0.425539 0.0113638 0.572477
2792 1 0.443364 0.0116585 0.571609
1403 1 0.0556255 0.506755 0.448058
1405 1 0.0718539 0.505889 0.445241
1407 1 0.0858674 0.507579 0.443325
1409 1 0.103214 0.509373 0.442314
1411 1 0.121104 0.509437 0.443542
1413 1 0.133272 0.504468 0.446666
1406 1 0.0783312 0.51971 0.445777
1408 1 0.0936749 0.520918 0.442813
1479 1 0.102192 0.535081 0.444743
1410 1 0.110158 0.522412 0.444142
1412 1 0.127366 0.521851 0.445432
1477 1 0.0871301 0.533892 0.447389
1481 1 0.119391 0.535536 0.446381
1480 1 0.110841 0.547021 0.447536
4690 1 0.0286111 0.679523 0.449569
1891 1 0.0364074 0.694194 0.447445
4758 1 0.00996282 0.703414 0.447747
4760 1 0.0259378 0.706671 0.447638
4267 1 0.0129698 0.499578 0.459192
4269 1 0.0261717 0.503379 0.453698
1401 1 0.0410706 0.505453 0.450344
4270 1 0.036627 0.516224 0.456527
1415 1 0.14563 0.503322 0.451211
1416 1 0.153213 0.516065 0.455633
1417 1 0.15527 0.50148 0.457981
1402 1 0.0470729 0.520575 0.45062
1471 1 0.0437658 0.530177 0.457823
1404 1 0.0646965 0.520039 0.448137
1473 1 0.0560112 0.530806 0.45253
1475 1 0.0725525 0.533835 0.449761
1483 1 0.134099 0.534264 0.450192
1414 1 0.1399 0.519833 0.450582
1485 1 0.146608 0.531478 0.454507
1472 1 0.0512878 0.542494 0.457751
1474 1 0.0652935 0.544579 0.454331
1476 1 0.0777438 0.547259 0.451309
1478 1 0.0947389 0.54644 0.448998
1482 1 0.12776 0.549174 0.44954
1484 1 0.141604 0.545082 0.45342
1486 1 0.157011 0.544393 0.457439
1543 1 0.0603887 0.55612 0.458605
1544 1 0.0657327 0.573055 0.457063
1545 1 0.0720488 0.55961 0.454102
1547 1 0.0852242 0.559726 0.451759
1549 1 0.102475 0.560611 0.450622
1551 1 0.120285 0.560353 0.450834
1553 1 0.136269 0.56083 0.452996
1555 1 0.150895 0.558965 0.455249
1546 1 0.0792846 0.573434 0.454578
1615 1 0.0720249 0.586816 0.456461
1617 1 0.0865297 0.588441 0.455309
1548 1 0.0940481 0.573573 0.451764
1619 1 0.102671 0.586967 0.454748
1550 1 0.109953 0.575284 0.452319
1552 1 0.127368 0.573678 0.453299
1623 1 0.135715 0.589046 0.456016
1554 1 0.144169 0.57477 0.456202
1616 1 0.077856 0.600709 0.455857
1618 1 0.0948796 0.599831 0.455706
1621 1 0.118683 0.587206 0.453822
1620 1 0.110893 0.60059 0.456512
1622 1 0.125508 0.602243 0.459316
1685 1 0.068788 0.614705 0.458444
1687 1 0.0869601 0.613172 0.458271
1689 1 0.103779 0.613425 0.457659
1691 1 0.118439 0.616441 0.459388
1751 1 0.0361714 0.63832 0.457142
1682 1 0.0442576 0.62673 0.459282
1753 1 0.0530413 0.640909 0.454592
1684 1 0.0613397 0.626554 0.457707
1755 1 0.068438 0.642015 0.458089
1686 1 0.0784372 0.626624 0.457775
1688 1 0.0954562 0.629127 0.459637
4618 1 0.00928305 0.646537 0.459321
4620 1 0.0251263 0.649801 0.454181
1752 1 0.0425425 0.654421 0.454115
1754 1 0.0608867 0.653617 0.454862
1757 1 0.083434 0.642277 0.458847
1756 1 0.0780261 0.65569 0.455929
4687 1 0.0111796 0.660826 0.454121
4688 1 0.0155934 0.675054 0.451006
4689 1 0.0269085 0.66224 0.451623
1821 1 0.0392677 0.670528 0.451859
1823 1 0.0548238 0.666791 0.45292
1825 1 0.0700554 0.668902 0.45504
1827 1 0.0847045 0.669794 0.456399
1829 1 0.100518 0.671295 0.459937
4757 1 0.00410955 0.686654 0.450041
4759 1 0.0206265 0.691875 0.448976
1822 1 0.0456058 0.682648 0.449944
1893 1 0.0512389 0.696597 0.449327
1824 1 0.061803 0.683483 0.452788
1895 1 0.0666709 0.696987 0.454523
1826 1 0.0755559 0.684626 0.456077
1828 1 0.0916978 0.684854 0.458013
1892 1 0.0420514 0.710253 0.450584
1894 1 0.0569902 0.709872 0.451216
1896 1 0.0716072 0.709628 0.457565
1897 1 0.0824398 0.697213 0.457319
4829 1 0.014888 0.716024 0.451159
4828 1 0.00275123 0.727725 0.452697
1961 1 0.0304614 0.718975 0.451713
4830 1 0.0185573 0.733355 0.453459
1963 1 0.0460467 0.723917 0.452861
1965 1 0.0615702 0.72441 0.45617
4899 1 0.0091738 0.747246 0.454321
2031 1 0.0250339 0.746328 0.457805
1962 1 0.034595 0.733548 0.455003
1964 1 0.0503768 0.736994 0.457755
4900 1 0.0159287 0.758286 0.457828
4266 1 0.00492655 0.512084 0.463704
4268 1 0.0208772 0.515457 0.460944
1418 1 0.160132 0.514201 0.462525
1419 1 0.162249 0.500788 0.46655
4337 1 0.0145251 0.525259 0.466557
4339 1 0.0301004 0.526678 0.461928
1487 1 0.158238 0.529442 0.459319
1489 1 0.166294 0.527989 0.467277
4338 1 0.0232552 0.537757 0.466977
4340 1 0.0385522 0.542515 0.463043
1488 1 0.16659 0.541904 0.463434
4409 1 0.0302584 0.552705 0.467873
4410 1 0.036952 0.568239 0.465057
1541 1 0.0458632 0.556176 0.463158
1542 1 0.0519361 0.569249 0.462342
1557 1 0.163139 0.558598 0.461912
1559 1 0.173587 0.555075 0.468211
4479 1 0.0288844 0.581218 0.467438
1611 1 0.0429227 0.582699 0.463334
1613 1 0.0572783 0.584648 0.460117
1556 1 0.158195 0.572744 0.460778
1625 1 0.151601 0.5884 0.460915
1558 1 0.170759 0.572423 0.466588
1627 1 0.163726 0.586237 0.464823
4478 1 0.0179541 0.59515 0.468681
4480 1 0.0352619 0.597256 0.466059
1612 1 0.0490691 0.598071 0.462986
1614 1 0.0628633 0.60121 0.459713
1624 1 0.141603 0.601611 0.45832
1626 1 0.156433 0.600629 0.463192
1628 1 0.170051 0.602256 0.467297
4547 1 0.00974177 0.608193 0.469098
4548 1 0.0134629 0.622605 0.464778
4550 1 0.0298678 0.625184 0.461657
4549 1 0.024555 0.609912 0.463901
1681 1 0.0380189 0.611032 0.461405
1683 1 0.0531733 0.613703 0.459176
1693 1 0.132323 0.61572 0.460716
1695 1 0.147771 0.614912 0.462275
1697 1 0.161359 0.616168 0.466928
4617 1 0.00340042 0.632768 0.462695
4619 1 0.0193493 0.635898 0.46012
1690 1 0.110029 0.629238 0.460521
1692 1 0.125165 0.629923 0.460632
1694 1 0.1389 0.630385 0.462431
1696 1 0.15462 0.629644 0.466696
1759 1 0.100751 0.644285 0.459427
1758 1 0.0931754 0.658027 0.458548
1761 1 0.117746 0.644903 0.461206
1760 1 0.109361 0.65811 0.460433
1762 1 0.124158 0.65946 0.46158
1763 1 0.134094 0.645004 0.462257
1764 1 0.138912 0.657311 0.465124
1765 1 0.145859 0.642734 0.4662
1831 1 0.114335 0.672102 0.462126
1833 1 0.129786 0.673487 0.464292
1830 1 0.10719 0.685426 0.462463
1832 1 0.123798 0.687613 0.462343
1834 1 0.139306 0.687408 0.466651
1898 1 0.0842599 0.709385 0.462088
1899 1 0.0975237 0.699357 0.462839
1900 1 0.102987 0.712597 0.462991
1901 1 0.113443 0.699793 0.463493
1902 1 0.118182 0.710884 0.468552
1903 1 0.128468 0.700227 0.466389
1967 1 0.076118 0.724305 0.461177
1969 1 0.0933319 0.724747 0.46367
1971 1 0.108321 0.725819 0.469034
2033 1 0.038779 0.748508 0.460678
1966 1 0.0667698 0.736824 0.461324
2035 1 0.0555195 0.749643 0.46223
2037 1 0.0713192 0.749521 0.465376
1968 1 0.0834262 0.737572 0.463686
2039 1 0.0860691 0.750152 0.470134
2032 1 0.0304095 0.758916 0.462868
2034 1 0.0459838 0.762075 0.465967
2036 1 0.0590654 0.761836 0.467546
4969 1 0.00319729 0.768461 0.459771
4970 1 0.00674665 0.77992 0.466525
2101 1 0.0173843 0.770624 0.463316
2103 1 0.0324289 0.769154 0.46794
2102 1 0.0241017 0.782185 0.468629
1420 1 0.168155 0.515088 0.470321
1421 1 0.169636 0.498695 0.47466
1422 1 0.176811 0.512925 0.478643
4335 1 -0.00223676 0.523681 0.46979
1491 1 0.178269 0.526273 0.473768
4336 1 0.0078083 0.537791 0.470971
4407 1 0.0156845 0.550705 0.471425
4405 1 0.00175898 0.552427 0.473294
1490 1 0.175236 0.539834 0.469776
1492 1 0.184557 0.539536 0.478871
4406 1 0.00761015 0.566334 0.47227
4408 1 0.0223554 0.567375 0.468652
1561 1 0.182168 0.553576 0.47524
1560 1 0.178562 0.570786 0.472423
4477 1 0.01409 0.580393 0.471724
4475 1 -0.000110189 0.581252 0.475211
1629 1 0.177109 0.587266 0.47063
1631 1 0.183438 0.583803 0.477438
4476 1 0.00389053 0.594983 0.472549
1630 1 0.180729 0.600459 0.475536
1699 1 0.176366 0.617051 0.472745
1698 1 0.168232 0.6296 0.47205
1769 1 0.172982 0.643143 0.47612
1700 1 0.179892 0.629419 0.478052
1766 1 0.149756 0.658558 0.470757
1767 1 0.159009 0.644489 0.470155
1768 1 0.166758 0.65636 0.474006
1835 1 0.145472 0.672402 0.468663
1837 1 0.159288 0.672829 0.47373
1836 1 0.151187 0.688134 0.472489
1838 1 0.165158 0.686078 0.477618
1905 1 0.143157 0.702462 0.471785
1904 1 0.132621 0.71364 0.472313
1907 1 0.156336 0.700254 0.47657
1973 1 0.122631 0.725884 0.474045
1975 1 0.13638 0.724248 0.477811
1906 1 0.146348 0.714108 0.476833
1970 1 0.0966458 0.738497 0.469165
2041 1 0.100283 0.750985 0.475188
1972 1 0.111156 0.739082 0.47419
2038 1 0.0751151 0.761578 0.471464
2040 1 0.0907031 0.760735 0.475857
2105 1 0.0481884 0.771906 0.471164
2104 1 0.0382957 0.782834 0.471542
2106 1 0.0535868 0.78306 0.476797
2107 1 0.0646377 0.772496 0.473893
2109 1 0.0787723 0.772033 0.478262
2171 1 0.00944981 0.792145 0.470472
2172 1 0.0153366 0.799589 0.478441
2173 1 0.0248169 0.791158 0.474149
2175 1 0.040105 0.792357 0.478018
2241 1 0.00602805 0.813119 0.479404
1424 1 0.187356 0.51133 0.486911
1493 1 0.187621 0.525264 0.483054
1494 1 0.190646 0.541406 0.486858
1563 1 0.188678 0.554659 0.483596
1564 1 0.193119 0.568854 0.488371
1562 1 0.187685 0.568621 0.48007
1633 1 0.19162 0.583078 0.48566
1632 1 0.191079 0.600333 0.483141
1701 1 0.185398 0.613479 0.47947
1703 1 0.198201 0.613343 0.486553
1702 1 0.192581 0.627157 0.48427
1773 1 0.198077 0.641399 0.488014
1771 1 0.187478 0.642398 0.481538
1770 1 0.179399 0.65532 0.481015
1772 1 0.189777 0.656725 0.488283
1839 1 0.171591 0.670572 0.479722
1841 1 0.183204 0.670399 0.486037
1840 1 0.174798 0.685132 0.485054
1909 1 0.168064 0.700097 0.482341
1910 1 0.173901 0.714259 0.486113
1911 1 0.179857 0.698133 0.488847
1908 1 0.160064 0.71463 0.48167
1977 1 0.150719 0.728918 0.481187
1979 1 0.165887 0.72714 0.48636
1974 1 0.125307 0.73853 0.479131
1976 1 0.141189 0.740136 0.481724
1978 1 0.156424 0.741143 0.486056
2042 1 0.105016 0.763159 0.481364
2043 1 0.115531 0.751008 0.479842
2044 1 0.119011 0.76398 0.485204
2045 1 0.131078 0.749539 0.484742
2046 1 0.135636 0.765435 0.488798
2047 1 0.145584 0.753553 0.486764
2108 1 0.0682364 0.782662 0.481234
2110 1 0.0841125 0.782935 0.485773
2111 1 0.0937414 0.773443 0.482946
2113 1 0.109584 0.776379 0.486616
2115 1 0.123666 0.777975 0.488836
2174 1 0.030552 0.801257 0.482258
2176 1 0.0452779 0.803176 0.484784
2177 1 0.0567103 0.793117 0.481813
2179 1 0.0700159 0.793457 0.487099
2112 1 0.0963173 0.786137 0.489392
2243 1 0.0181506 0.813418 0.484329
2245 1 0.0318286 0.814422 0.486368
2242 1 0.0100235 0.82599 0.486167
2311 1 -0.000510295 0.835201 0.488647
1426 1 0.195438 0.509805 0.493839
1495 1 0.193178 0.52638 0.491091
1497 1 0.201057 0.52313 0.498539
1496 1 0.199362 0.53877 0.494495
1567 1 0.206208 0.552767 0.498957
1565 1 0.19834 0.552414 0.491276
1566 1 0.204958 0.566859 0.496267
1635 1 0.201878 0.581471 0.493717
1634 1 0.199681 0.59688 0.490841
1636 1 0.209095 0.593379 0.498262
1705 1 0.206509 0.608849 0.493647
1706 1 0.214172 0.623208 0.498211
1704 1 0.205182 0.626753 0.490123
1775 1 0.20972 0.639892 0.495041
1774 1 0.201697 0.653278 0.494169
1843 1 0.1936 0.667991 0.493977
1842 1 0.187736 0.684162 0.490702
1844 1 0.199146 0.679907 0.49776
1913 1 0.194987 0.696474 0.493938
1912 1 0.187405 0.712769 0.492981
1914 1 0.196364 0.710979 0.499852
1981 1 0.176056 0.726162 0.491677
1983 1 0.186397 0.7235 0.49901
1980 1 0.168507 0.739061 0.492673
1982 1 0.179151 0.738676 0.49818
2048 1 0.151238 0.766805 0.492627
2049 1 0.161293 0.752801 0.49012
2051 1 0.173193 0.75331 0.497751
2050 1 0.166355 0.765166 0.497504
2117 1 0.140029 0.777938 0.493311
2119 1 0.155306 0.777426 0.498934
2178 1 0.058657 0.802575 0.490427
2181 1 0.0852415 0.79563 0.492283
2180 1 0.0719527 0.804602 0.494281
2183 1 0.101516 0.795423 0.496253
2114 1 0.112074 0.787747 0.491916
2185 1 0.115926 0.800005 0.498679
2116 1 0.127741 0.789256 0.495111
2247 1 0.0464261 0.812955 0.492249
2249 1 0.0615232 0.814251 0.495703
2182 1 0.0889661 0.807535 0.496996
2313 1 0.0133533 0.834949 0.492464
2315 1 0.0273129 0.836309 0.496997
2244 1 0.0251737 0.824935 0.489727
2248 1 0.0523268 0.826331 0.497608
2246 1 0.0369905 0.823506 0.49452
2317 1 0.0406907 0.836406 0.500373
2312 1 0.00227102 0.846467 0.493705
2314 1 0.0168923 0.846525 0.497652
1428 1 0.20652 0.507087 0.501789
1430 1 0.214097 0.50546 0.50927
1499 1 0.213034 0.521539 0.505241
1500 1 0.222066 0.533743 0.509696
1498 1 0.210266 0.537029 0.502006
1569 1 0.21779 0.54953 0.506354
1568 1 0.212204 0.564174 0.505561
1637 1 0.211803 0.581028 0.501508
1639 1 0.220812 0.576871 0.508901
1638 1 0.218065 0.592736 0.505975
1707 1 0.215518 0.609114 0.50197
1708 1 0.220814 0.621234 0.50727
1777 1 0.219229 0.635395 0.503073
1776 1 0.212906 0.651557 0.500582
1778 1 0.221373 0.649595 0.50903
1847 1 0.212075 0.664098 0.507896
1845 1 0.204266 0.666409 0.500437
1846 1 0.206908 0.680498 0.505156
1915 1 0.20258 0.694986 0.501814
1917 1 0.213348 0.694399 0.508556
1916 1 0.20618 0.709826 0.507261
1985 1 0.198097 0.723749 0.506346
1984 1 0.193081 0.736679 0.50509
2052 1 0.176107 0.765968 0.505139
2053 1 0.182624 0.749801 0.504794
2121 1 0.16841 0.778546 0.504023
2123 1 0.178192 0.778231 0.510334
2187 1 0.131111 0.800684 0.501734
2118 1 0.14387 0.790706 0.49983
2120 1 0.15625 0.78972 0.505632
2189 1 0.14602 0.803227 0.507538
2251 1 0.077372 0.817305 0.499088
2253 1 0.0919535 0.818772 0.504748
2184 1 0.104159 0.808084 0.502366
2255 1 0.106364 0.81792 0.509935
2186 1 0.119553 0.810287 0.505806
2188 1 0.132622 0.812564 0.509633
2319 1 0.0551473 0.837701 0.503929
2250 1 0.0671645 0.825352 0.502171
2321 1 0.0691401 0.836987 0.508334
2252 1 0.0797282 0.825465 0.506049
2383 1 0.00393082 0.855221 0.500562
2316 1 0.0296396 0.846739 0.502411
2318 1 0.0429658 0.846047 0.505795
2385 1 0.017295 0.857002 0.505504
2384 1 0.00545957 0.866958 0.50751
2387 1 0.0311973 0.858386 0.508742
1432 1 0.223266 0.503798 0.516428
1501 1 0.223657 0.518597 0.513475
1502 1 0.230911 0.533471 0.516734
1571 1 0.2273 0.547025 0.514633
1570 1 0.222636 0.562503 0.512358
1572 1 0.231943 0.562111 0.51897
1641 1 0.227505 0.576041 0.515948
1640 1 0.227696 0.590033 0.512546
1711 1 0.233975 0.601024 0.516893
1709 1 0.225021 0.606499 0.509868
1710 1 0.230794 0.617597 0.514441
1779 1 0.225275 0.633534 0.512895
1781 1 0.234281 0.631358 0.519744
1780 1 0.230645 0.647536 0.516127
1849 1 0.223994 0.663909 0.513971
1848 1 0.215358 0.678697 0.512542
1919 1 0.219586 0.688907 0.517882
1918 1 0.212828 0.705466 0.515926
1987 1 0.206069 0.720291 0.514011
2055 1 0.191982 0.749079 0.511835
1986 1 0.201614 0.734192 0.513365
2057 1 0.201822 0.747742 0.519773
2054 1 0.18563 0.76337 0.510724
2056 1 0.197323 0.761616 0.518129
2125 1 0.191127 0.774725 0.515862
2191 1 0.160331 0.802455 0.512286
2122 1 0.170465 0.791415 0.510617
2193 1 0.174622 0.80239 0.517346
2124 1 0.183257 0.788757 0.515771
2257 1 0.121074 0.818695 0.512914
2259 1 0.135769 0.820383 0.51788
2190 1 0.146579 0.813366 0.514242
2192 1 0.161081 0.813941 0.517541
2323 1 0.0830858 0.835526 0.513857
2254 1 0.0934375 0.828572 0.511828
2325 1 0.0960023 0.834263 0.519862
2256 1 0.107548 0.826789 0.517545
2258 1 0.122632 0.830548 0.518988
2389 1 0.0455863 0.857929 0.51286
2320 1 0.0568371 0.849174 0.510138
2322 1 0.0703225 0.845828 0.516005
2386 1 0.0201858 0.868446 0.511615
2388 1 0.033408 0.867318 0.515128
2390 1 0.046535 0.867184 0.519457
2391 1 0.0590821 0.857695 0.519043
2455 1 0.00712221 0.880731 0.511555
2456 1 0.00991683 0.893551 0.517944
2457 1 0.0212949 0.878643 0.517713
2525 1 0.000853652 0.903144 0.515991
2736 1 0.00339703 0.99808 0.517694
1503 1 0.231006 0.518563 0.520895
1434 1 0.234776 0.502945 0.523353
1505 1 0.241703 0.515969 0.527699
1504 1 0.240021 0.530607 0.524869
1573 1 0.236599 0.545759 0.522567
1575 1 0.242848 0.543117 0.530221
1574 1 0.242846 0.559052 0.525978
1642 1 0.237219 0.588388 0.51995
1643 1 0.239572 0.573671 0.523336
1644 1 0.24658 0.587039 0.528402
1713 1 0.242707 0.602827 0.523957
1712 1 0.238231 0.616424 0.522062
1714 1 0.247973 0.616055 0.52911
1783 1 0.244206 0.630348 0.527579
1851 1 0.234042 0.660475 0.522013
1782 1 0.238262 0.646085 0.52448
1853 1 0.243482 0.656752 0.529978
1850 1 0.227662 0.675013 0.519935
1852 1 0.234365 0.672333 0.52855
1921 1 0.229871 0.688533 0.525693
1920 1 0.22113 0.702382 0.524885
1989 1 0.215384 0.716605 0.522244
1990 1 0.218425 0.728983 0.529581
1988 1 0.208366 0.732482 0.521494
2059 1 0.212126 0.745972 0.527687
2058 1 0.208959 0.76058 0.525755
2127 1 0.202058 0.773901 0.522442
2128 1 0.204477 0.784644 0.528679
2129 1 0.21297 0.770782 0.529724
2126 1 0.192427 0.788423 0.52265
2195 1 0.185171 0.801371 0.523343
2197 1 0.195255 0.797933 0.529652
2194 1 0.172767 0.812394 0.524286
2327 1 0.112331 0.838672 0.52342
2260 1 0.137721 0.831556 0.524051
2261 1 0.15072 0.822353 0.521826
2262 1 0.152928 0.835497 0.528757
2263 1 0.16435 0.826723 0.52822
2324 1 0.0843837 0.847339 0.521682
2393 1 0.0725338 0.856404 0.523554
2326 1 0.0979624 0.846846 0.526462
2329 1 0.125727 0.841741 0.526432
2328 1 0.114879 0.850446 0.528662
2392 1 0.0634237 0.8711 0.522579
2394 1 0.0765212 0.870012 0.529619
2395 1 0.0863169 0.856624 0.528901
2459 1 0.0366645 0.881439 0.521501
2461 1 0.0517179 0.880039 0.525431
2460 1 0.0388164 0.892664 0.525729
2527 1 0.0157215 0.905396 0.52149
2458 1 0.0261416 0.891919 0.521783
2529 1 0.030063 0.906856 0.525679
2462 1 0.0524476 0.892731 0.529735
2526 1 0.00607139 0.915758 0.522024
2528 1 0.0225424 0.918441 0.524658
2530 1 0.0360073 0.920619 0.528531
2596 1 0.00100082 0.945262 0.523
2597 1 0.0124036 0.93265 0.523806
2598 1 0.0159514 0.945928 0.527629
2599 1 0.0258793 0.93212 0.528535
2667 1 0.00629032 0.960557 0.527639
2669 1 0.0224607 0.959995 0.530853
2668 1 0.014852 0.973427 0.527596
2670 1 0.0289727 0.973885 0.529652
2737 1 0.00812967 0.986799 0.522017
2739 1 0.0227805 0.988503 0.525872
2740 1 0.0320147 0.999202 0.524144
2741 1 0.0391003 0.987027 0.528411
2742 1 0.0488075 0.997543 0.527422
1436 1 0.244507 0.502729 0.531402
1507 1 0.251635 0.515354 0.536144
1438 1 0.254605 0.501386 0.537471
4201 1 0.494701 0.501735 0.530777
1470 1 0.489927 0.512335 0.537723
1506 1 0.245877 0.528452 0.532304
1508 1 0.257961 0.52953 0.538945
4271 1 0.498628 0.524853 0.540036
1577 1 0.2522 0.542585 0.537314
1576 1 0.251676 0.557056 0.5334
1647 1 0.256179 0.570351 0.538777
1645 1 0.251623 0.571926 0.53127
1646 1 0.255232 0.58696 0.536495
1715 1 0.251215 0.598961 0.531467
1716 1 0.25321 0.611086 0.538495
1784 1 0.246891 0.642223 0.532334
1785 1 0.251332 0.627134 0.535781
1855 1 0.251113 0.654216 0.539262
1854 1 0.244959 0.669459 0.535096
1923 1 0.238823 0.685695 0.532782
1925 1 0.250854 0.681619 0.540137
1991 1 0.225248 0.715024 0.530897
1922 1 0.231947 0.69911 0.532512
1993 1 0.235278 0.71005 0.53829
1992 1 0.228615 0.725274 0.536407
2061 1 0.222403 0.741556 0.535441
2060 1 0.217958 0.758006 0.533639
2062 1 0.230239 0.753759 0.540554
2131 1 0.221617 0.767295 0.538216
2130 1 0.214742 0.780861 0.53486
2199 1 0.207686 0.794787 0.535694
2196 1 0.183338 0.809445 0.531815
2267 1 0.187296 0.820682 0.539064
2198 1 0.197177 0.806007 0.538133
2265 1 0.17564 0.822289 0.53313
2264 1 0.164907 0.835427 0.534426
2266 1 0.178174 0.833568 0.541223
2330 1 0.127535 0.851127 0.534211
2331 1 0.140956 0.84307 0.531169
2332 1 0.142983 0.855374 0.536636
2333 1 0.153616 0.845136 0.536321
2396 1 0.0894636 0.871902 0.534246
2397 1 0.100841 0.858907 0.532418
2398 1 0.103718 0.871296 0.538046
2399 1 0.117035 0.862356 0.535928
2401 1 0.129896 0.864149 0.541011
2463 1 0.0669396 0.882123 0.530078
2465 1 0.0768543 0.883713 0.535062
2467 1 0.0923233 0.883948 0.540686
2531 1 0.0433399 0.907009 0.530625
2533 1 0.0568214 0.906068 0.536059
2464 1 0.0671149 0.894084 0.535414
2535 1 0.0706005 0.909003 0.539172
2466 1 0.0819215 0.895572 0.541545
2532 1 0.0483775 0.921286 0.535265
2534 1 0.0629428 0.920621 0.5385
2600 1 0.0305985 0.945116 0.532668
2601 1 0.0409655 0.932479 0.534002
2603 1 0.0537032 0.933916 0.538753
2602 1 0.0449573 0.947755 0.537194
2671 1 0.036896 0.9611 0.533765
2673 1 0.052358 0.960649 0.537767
2672 1 0.0459398 0.973612 0.532705
2674 1 0.0610747 0.974141 0.537342
2676 1 0.076851 0.974726 0.538986
2743 1 0.0552736 0.986353 0.532959
2745 1 0.0694307 0.988617 0.536588
2747 1 0.0832862 0.989738 0.537734
2754 1 0.142399 0.998367 0.539765
2752 1 0.126317 0.998947 0.539038
2756 1 0.156337 0.998842 0.540354
1509 1 0.262303 0.515453 0.542366
1511 1 0.274466 0.51222 0.545776
1464 1 0.447448 0.501681 0.549178
1466 1 0.462203 0.503746 0.546267
1468 1 0.476579 0.508519 0.542262
1510 1 0.271418 0.528216 0.545229
1512 1 0.282357 0.523735 0.551437
1537 1 0.470771 0.518491 0.548792
1539 1 0.484955 0.523517 0.545024
1540 1 0.493835 0.534224 0.54765
1579 1 0.265321 0.540686 0.542835
1580 1 0.272684 0.552894 0.546424
1581 1 0.276877 0.538776 0.54879
1578 1 0.260222 0.554392 0.541358
1649 1 0.267689 0.566003 0.545595
1648 1 0.261825 0.582031 0.544597
1650 1 0.271896 0.579587 0.550393
1717 1 0.259683 0.597554 0.540565
1719 1 0.265576 0.59483 0.54916
1718 1 0.264154 0.609719 0.545354
1787 1 0.257247 0.625504 0.543776
1789 1 0.269228 0.622823 0.549793
1786 1 0.253901 0.641062 0.540384
1788 1 0.268161 0.63743 0.546459
1857 1 0.263323 0.653429 0.54479
1856 1 0.258142 0.667336 0.542335
1858 1 0.268113 0.66642 0.549267
1927 1 0.263306 0.680518 0.547547
1926 1 0.254534 0.693095 0.545779
1924 1 0.243674 0.693549 0.540153
1995 1 0.247191 0.708718 0.545074
1997 1 0.259375 0.708535 0.550717
1994 1 0.239456 0.723441 0.542832
1996 1 0.252387 0.721136 0.549643
2063 1 0.234414 0.739112 0.542227
2065 1 0.242825 0.733431 0.549082
2064 1 0.238231 0.750374 0.548734
2133 1 0.234805 0.766455 0.544752
2132 1 0.226516 0.780788 0.542443
2134 1 0.239043 0.778063 0.549708
2200 1 0.209495 0.804168 0.544091
2201 1 0.218827 0.792336 0.542366
2202 1 0.225151 0.804124 0.549026
2203 1 0.232038 0.791413 0.549151
2269 1 0.200398 0.819057 0.544104
2271 1 0.212601 0.816247 0.549751
2268 1 0.193562 0.832295 0.545619
2334 1 0.154925 0.856138 0.544066
2335 1 0.167381 0.84352 0.541742
2336 1 0.167765 0.854388 0.550116
2337 1 0.181912 0.845598 0.547676
2400 1 0.118891 0.875109 0.543362
2403 1 0.14435 0.866183 0.544557
2405 1 0.157554 0.866542 0.550217
2469 1 0.105988 0.885394 0.544251
2471 1 0.12108 0.886515 0.548371
2402 1 0.133242 0.877567 0.545707
2404 1 0.146246 0.878267 0.55154
2537 1 0.0853032 0.910728 0.544617
2468 1 0.095183 0.898812 0.545739
2539 1 0.100401 0.909695 0.549931
2470 1 0.111604 0.897671 0.550006
2536 1 0.0772408 0.923197 0.544557
2538 1 0.0921959 0.921596 0.550759
2605 1 0.0675829 0.932731 0.54342
2607 1 0.0814702 0.937398 0.549268
2604 1 0.0588214 0.948338 0.541236
2675 1 0.0681841 0.961528 0.541012
2606 1 0.0747713 0.948783 0.54487
2608 1 0.0888219 0.95158 0.549827
2679 1 0.0985592 0.965849 0.54864
2677 1 0.0842045 0.962023 0.545501
2678 1 0.0915403 0.978448 0.544012
2680 1 0.108029 0.978717 0.546949
2682 1 0.122977 0.980406 0.549303
2749 1 0.0996372 0.991159 0.541689
2751 1 0.115705 0.991899 0.543632
2753 1 0.132197 0.990008 0.545541
2755 1 0.148746 0.987205 0.547061
2757 1 0.163614 0.989901 0.547123
2758 1 0.173586 1.00026 0.543402
2760 1 0.189917 0.998799 0.544408
2762 1 0.205515 0.997759 0.547992
1513 1 0.286985 0.508486 0.55313
1515 1 0.302015 0.506761 0.558287
1531 1 0.427554 0.509207 0.559615
1533 1 0.44194 0.510473 0.556364
1535 1 0.45651 0.512462 0.55395
1514 1 0.295093 0.520088 0.557237
1585 1 0.300705 0.535119 0.561255
1534 1 0.449354 0.524793 0.55942
1536 1 0.464609 0.528231 0.556232
1538 1 0.480288 0.531849 0.551426
1582 1 0.28489 0.550329 0.553499
1583 1 0.288482 0.535279 0.55554
1584 1 0.29553 0.550146 0.559222
1607 1 0.474916 0.539366 0.558823
1609 1 0.487611 0.543582 0.554484
1651 1 0.278802 0.564881 0.552219
1653 1 0.291916 0.564772 0.558373
1610 1 0.495977 0.554946 0.556837
1652 1 0.284045 0.579896 0.555811
1721 1 0.278531 0.592596 0.5539
1722 1 0.28561 0.607383 0.558215
1723 1 0.292371 0.591358 0.559628
1720 1 0.272373 0.608051 0.552182
1791 1 0.280132 0.621206 0.555671
1790 1 0.279991 0.635785 0.55342
1792 1 0.287557 0.634769 0.560495
1859 1 0.274578 0.650487 0.5511
1861 1 0.283083 0.647402 0.557851
1860 1 0.279385 0.66467 0.555979
1931 1 0.286056 0.678306 0.560138
1928 1 0.267546 0.694714 0.552307
1929 1 0.273871 0.678517 0.554836
1930 1 0.280492 0.694346 0.55836
1999 1 0.272827 0.707851 0.557593
1998 1 0.265172 0.720023 0.555832
2066 1 0.249614 0.746851 0.55459
2067 1 0.253992 0.731446 0.556298
2135 1 0.244374 0.762094 0.552816
2136 1 0.247754 0.773095 0.557073
2204 1 0.236193 0.802442 0.556801
2205 1 0.244015 0.78916 0.556722
2206 1 0.248801 0.799441 0.562528
2273 1 0.226885 0.815523 0.553972
2270 1 0.204064 0.831098 0.551022
2272 1 0.216201 0.829242 0.555028
2274 1 0.231656 0.827521 0.560044
2339 1 0.192262 0.843875 0.551901
2338 1 0.182599 0.855856 0.554662
2340 1 0.195179 0.854509 0.559505
2341 1 0.205702 0.840583 0.557737
2407 1 0.170055 0.866361 0.556251
2409 1 0.184946 0.867701 0.560083
2473 1 0.136033 0.88971 0.552808
2475 1 0.152611 0.890369 0.55711
2406 1 0.160677 0.877168 0.556634
2472 1 0.127444 0.898755 0.554081
2474 1 0.140868 0.901388 0.558017
2540 1 0.106273 0.923195 0.556011
2541 1 0.115997 0.910386 0.555123
2542 1 0.121583 0.925102 0.558864
2543 1 0.132505 0.915415 0.557666
2544 1 0.136911 0.928528 0.562334
2609 1 0.0970601 0.937635 0.553043
2611 1 0.113392 0.938976 0.556317
2610 1 0.104603 0.953171 0.552925
2612 1 0.120664 0.953403 0.555675
2614 1 0.136327 0.955786 0.559278
2681 1 0.113008 0.966423 0.552604
2684 1 0.140043 0.979116 0.55043
2683 1 0.130624 0.966507 0.554507
2685 1 0.146434 0.967803 0.555233
2686 1 0.155666 0.97919 0.552478
2687 1 0.162397 0.968224 0.559012
2688 1 0.171534 0.980056 0.554327
2690 1 0.186381 0.980005 0.556802
2689 1 0.17771 0.969561 0.561057
2692 1 0.201354 0.98221 0.559272
2759 1 0.178535 0.991573 0.550548
2761 1 0.194877 0.991962 0.552622
2763 1 0.211179 0.99052 0.555716
2765 1 0.227251 0.993614 0.558711
2767 1 0.243769 0.993658 0.560554
2772 1 0.284193 0.998779 0.558103
2774 1 0.298937 1.00244 0.559787
1517 1 0.31632 0.504982 0.563728
1519 1 0.333185 0.504391 0.566025
1521 1 0.347874 0.506014 0.566235
1523 1 0.365181 0.504751 0.565751
1525 1 0.380934 0.504327 0.566108
1526 1 0.387416 0.517623 0.569049
1527 1 0.397243 0.506213 0.563682
1529 1 0.411415 0.506897 0.562208
1516 1 0.308298 0.521298 0.562092
1587 1 0.316623 0.534272 0.564766
1518 1 0.324955 0.518421 0.565581
1589 1 0.331562 0.533138 0.56863
1520 1 0.340295 0.520553 0.56799
1591 1 0.347759 0.532577 0.57136
1522 1 0.355463 0.51854 0.568365
1524 1 0.373335 0.519448 0.569482
1593 1 0.363179 0.532398 0.571091
1595 1 0.380635 0.532574 0.57023
1528 1 0.402811 0.518944 0.566766
1530 1 0.418381 0.520665 0.565204
1601 1 0.42972 0.532333 0.569829
1599 1 0.412673 0.531547 0.571017
1532 1 0.434461 0.522871 0.56202
1586 1 0.310447 0.547814 0.563155
1588 1 0.324369 0.546313 0.567902
1590 1 0.341156 0.545533 0.570878
1603 1 0.442929 0.537001 0.564957
1602 1 0.434302 0.547505 0.571583
1605 1 0.459584 0.537576 0.563773
1604 1 0.451462 0.547548 0.568579
1606 1 0.467412 0.549623 0.565203
1608 1 0.483266 0.553674 0.562083
1655 1 0.304367 0.56473 0.563015
1657 1 0.319126 0.561114 0.567057
1659 1 0.333246 0.561592 0.569789
1677 1 0.475159 0.562055 0.56889
1679 1 0.490308 0.565057 0.564739
1654 1 0.298528 0.578695 0.56229
1656 1 0.314076 0.577096 0.565627
1658 1 0.328538 0.574033 0.569772
1727 1 0.32314 0.589651 0.569704
1680 1 0.500268 0.572959 0.569629
1724 1 0.300426 0.605004 0.562985
1725 1 0.308204 0.589151 0.56404
1726 1 0.314979 0.602058 0.568453
1793 1 0.294381 0.618943 0.561646
1795 1 0.308663 0.616502 0.567455
1797 1 0.323611 0.617127 0.570538
1794 1 0.300899 0.631818 0.566516
1796 1 0.314849 0.630835 0.570098
1863 1 0.295965 0.646154 0.563649
1865 1 0.310079 0.645382 0.569517
1866 1 0.315879 0.659904 0.571703
1864 1 0.304607 0.659597 0.564969
1862 1 0.290405 0.660785 0.561277
1933 1 0.298735 0.674967 0.564717
1935 1 0.311699 0.673271 0.568523
1932 1 0.293098 0.690783 0.563586
1934 1 0.306502 0.688599 0.569003
2001 1 0.284186 0.704325 0.563653
2003 1 0.298279 0.703175 0.569027
2069 1 0.26872 0.729244 0.562277
2000 1 0.277785 0.718047 0.563095
2071 1 0.283107 0.730266 0.567478
2002 1 0.290091 0.715472 0.569178
2068 1 0.260245 0.744301 0.561306
2070 1 0.2735 0.742337 0.567655
2137 1 0.25365 0.757113 0.560295
2139 1 0.264233 0.757481 0.566515
2141 1 0.279187 0.757256 0.572183
2138 1 0.258473 0.771719 0.565566
2209 1 0.266382 0.782952 0.569201
2207 1 0.254817 0.784168 0.562142
2208 1 0.260781 0.799036 0.567806
2275 1 0.241467 0.81409 0.559601
2277 1 0.253432 0.81391 0.565535
2276 1 0.245117 0.827898 0.564899
2278 1 0.255742 0.825065 0.571325
2342 1 0.212096 0.853089 0.562833
2343 1 0.219985 0.840878 0.562407
2344 1 0.224969 0.85484 0.56835
2345 1 0.234407 0.839727 0.567305
2411 1 0.201403 0.866706 0.564561
2413 1 0.214943 0.864851 0.570309
2408 1 0.174669 0.877188 0.562368
2477 1 0.164364 0.888358 0.562558
2410 1 0.19004 0.877591 0.565905
2479 1 0.180111 0.889869 0.566938
2476 1 0.155941 0.900789 0.562462
2478 1 0.171607 0.901398 0.564819
2480 1 0.185529 0.903963 0.569103
2545 1 0.145769 0.915121 0.560326
2547 1 0.161404 0.916254 0.564928
2549 1 0.1744 0.916182 0.568701
2550 1 0.183515 0.927494 0.571877
2590 1 0.497997 0.927283 0.568858
2613 1 0.128099 0.941865 0.560368
2546 1 0.153351 0.929326 0.563905
2615 1 0.144117 0.944942 0.563805
2617 1 0.15981 0.944009 0.565737
2548 1 0.168699 0.92939 0.567489
2619 1 0.176028 0.941807 0.567416
2621 1 0.190991 0.943851 0.570703
2616 1 0.15175 0.95777 0.561475
2618 1 0.169008 0.956765 0.5644
2620 1 0.184819 0.955981 0.566048
2622 1 0.201836 0.958212 0.569439
2624 1 0.215106 0.958473 0.570832
2691 1 0.19387 0.970194 0.563643
2693 1 0.209996 0.971807 0.566234
2694 1 0.217271 0.983089 0.562476
2695 1 0.223274 0.971596 0.569232
2697 1 0.239254 0.971892 0.571039
2729 1 0.495309 0.970461 0.567592
2696 1 0.23268 0.981874 0.565294
2698 1 0.247835 0.9831 0.567801
2700 1 0.265599 0.983175 0.570181
2769 1 0.257885 0.992511 0.562929
2771 1 0.27254 0.992694 0.56338
2702 1 0.282052 0.982154 0.570241
2773 1 0.290064 0.991898 0.565519
2775 1 0.30589 0.992682 0.566869
2777 1 0.323344 0.992597 0.56686
2779 1 0.339601 0.995192 0.570114
2726 1 0.473545 0.987248 0.571571
2795 1 0.466947 0.998707 0.570068
2728 1 0.488132 0.984952 0.569094
2797 1 0.482549 0.999429 0.568703
2799 1 0.496934 0.996706 0.566244
1597 1 0.398429 0.53029 0.570711
1592 1 0.357174 0.545809 0.573399
1594 1 0.374 0.544535 0.573241
1596 1 0.391045 0.544847 0.574664
1598 1 0.405441 0.545442 0.574099
1600 1 0.419829 0.546963 0.573952
1661 1 0.350309 0.559713 0.570808
1663 1 0.366252 0.560026 0.574564
1665 1 0.382211 0.558983 0.576003
1667 1 0.398353 0.558323 0.576527
1669 1 0.413207 0.560904 0.576366
1671 1 0.425756 0.558643 0.575081
1673 1 0.442497 0.558974 0.573088
1675 1 0.459792 0.560798 0.570889
1729 1 0.335844 0.588387 0.571489
1660 1 0.343856 0.573342 0.573837
1731 1 0.35029 0.586564 0.573453
1662 1 0.359837 0.574006 0.573113
1733 1 0.368188 0.587106 0.575254
1666 1 0.390145 0.573952 0.578415
1664 1 0.37628 0.572602 0.576628
1735 1 0.383485 0.587388 0.575567
1668 1 0.405462 0.573658 0.580005
1737 1 0.397552 0.587403 0.578256
1670 1 0.422181 0.572649 0.579643
1739 1 0.413747 0.585034 0.581055
1672 1 0.43723 0.571848 0.577298
1743 1 0.444609 0.586454 0.579064
1674 1 0.451887 0.574059 0.575382
1745 1 0.461069 0.587815 0.578962
1676 1 0.466532 0.575513 0.573672
1747 1 0.476003 0.586561 0.57725
1678 1 0.484109 0.575971 0.572168
1749 1 0.493101 0.586778 0.573827
1728 1 0.328209 0.602963 0.571811
1730 1 0.342248 0.602086 0.575386
1732 1 0.358325 0.600757 0.574808
1734 1 0.375414 0.600852 0.578324
1736 1 0.392619 0.601319 0.57877
1738 1 0.407168 0.5983 0.580758
1744 1 0.453456 0.601045 0.58135
1746 1 0.469517 0.602011 0.580287
1748 1 0.486459 0.598833 0.577969
1799 1 0.337649 0.615504 0.57438
1801 1 0.352818 0.616537 0.575667
1803 1 0.367329 0.614791 0.57793
1805 1 0.383531 0.615201 0.579935
1807 1 0.399736 0.614228 0.580828
1819 1 0.493108 0.611986 0.580508
1798 1 0.331644 0.629399 0.572541
1800 1 0.346279 0.629313 0.575407
1871 1 0.354549 0.643545 0.5781
1802 1 0.358726 0.629058 0.578657
1804 1 0.37327 0.628745 0.579943
1806 1 0.390737 0.627628 0.581509
1867 1 0.323672 0.64478 0.571514
1868 1 0.331976 0.656343 0.572016
1869 1 0.341237 0.643134 0.573767
1870 1 0.346131 0.657051 0.578135
1873 1 0.3673 0.643528 0.581523
1937 1 0.324459 0.671972 0.57283
1939 1 0.339484 0.66772 0.57598
1941 1 0.354763 0.670748 0.580785
1936 1 0.31948 0.68595 0.573124
1938 1 0.335013 0.682206 0.576955
2009 1 0.340385 0.694294 0.580205
1940 1 0.348949 0.681338 0.580588
2005 1 0.313528 0.700855 0.572479
2006 1 0.315986 0.713369 0.57811
2007 1 0.326345 0.698542 0.576789
2008 1 0.333054 0.710845 0.580082
2073 1 0.296417 0.728761 0.573295
2004 1 0.3035 0.715764 0.574284
2075 1 0.309622 0.728815 0.578474
2072 1 0.288124 0.743968 0.572736
2074 1 0.303213 0.742065 0.577524
2143 1 0.29422 0.753611 0.577139
2144 1 0.300757 0.767212 0.581554
2145 1 0.307772 0.755102 0.581867
2140 1 0.271767 0.770836 0.571907
2211 1 0.277365 0.781714 0.576654
2142 1 0.284477 0.768665 0.577787
2213 1 0.293177 0.783121 0.580129
2210 1 0.267712 0.795809 0.575316
2212 1 0.283327 0.795526 0.580602
2279 1 0.262837 0.812051 0.573599
2281 1 0.275429 0.810316 0.579312
2347 1 0.249071 0.839041 0.571467
2349 1 0.261201 0.83809 0.577189
2280 1 0.266812 0.824678 0.578326
2346 1 0.2391 0.851801 0.573165
2348 1 0.251954 0.850978 0.578323
2415 1 0.22894 0.863226 0.573625
2414 1 0.220461 0.877811 0.576685
2417 1 0.242614 0.863962 0.580202
2481 1 0.195929 0.891727 0.570837
2412 1 0.20601 0.877516 0.571046
2483 1 0.212031 0.889358 0.574839
2485 1 0.226046 0.888984 0.579807
2416 1 0.233208 0.875054 0.57904
2519 1 0.491175 0.887217 0.578853
2482 1 0.201419 0.902123 0.573837
2484 1 0.218012 0.902842 0.577468
2516 1 0.470188 0.902438 0.580685
2520 1 0.497683 0.900476 0.573016
2518 1 0.485199 0.901712 0.576973
2551 1 0.193753 0.91684 0.573292
2553 1 0.207204 0.916769 0.575392
2555 1 0.223989 0.916378 0.57949
2557 1 0.238297 0.916437 0.581194
2585 1 0.461032 0.917686 0.579225
2587 1 0.477754 0.915296 0.575617
2589 1 0.490499 0.914884 0.571441
2588 1 0.486617 0.929326 0.572318
2552 1 0.198828 0.930705 0.575208
2623 1 0.207583 0.943235 0.572867
2554 1 0.215738 0.929684 0.576107
2556 1 0.231955 0.931706 0.578939
2625 1 0.223126 0.944886 0.575452
2627 1 0.238984 0.945148 0.576453
2558 1 0.247412 0.932065 0.580654
2582 1 0.441731 0.930808 0.582081
2653 1 0.448083 0.943689 0.580362
2655 1 0.465412 0.944284 0.577773
2584 1 0.455174 0.931316 0.579221
2586 1 0.470914 0.929052 0.575794
2657 1 0.479865 0.943314 0.573038
2659 1 0.492758 0.943108 0.571704
2626 1 0.230623 0.957821 0.57465
2628 1 0.245922 0.960231 0.577956
2629 1 0.254538 0.946644 0.580676
2630 1 0.262231 0.960769 0.579082
2632 1 0.278939 0.960649 0.580592
2634 1 0.293329 0.961563 0.580568
2648 1 0.407953 0.960055 0.582802
2652 1 0.440956 0.959031 0.579057
2654 1 0.457895 0.957555 0.578493
2656 1 0.473459 0.957652 0.575958
2658 1 0.489553 0.95799 0.571981
2699 1 0.255847 0.971223 0.574147
2701 1 0.271899 0.973717 0.576629
2703 1 0.28741 0.972048 0.576562
2705 1 0.30469 0.972787 0.577104
2707 1 0.320684 0.9722 0.578577
2709 1 0.3373 0.974547 0.582037
2719 1 0.415937 0.974499 0.579887
2721 1 0.432116 0.97168 0.578277
2723 1 0.451164 0.972787 0.578018
2727 1 0.480333 0.971342 0.570283
2725 1 0.468099 0.971285 0.575172
2704 1 0.297776 0.983188 0.571202
2706 1 0.314097 0.981906 0.57179
2708 1 0.330996 0.982535 0.574252
2781 1 0.354092 0.999046 0.57517
2710 1 0.347021 0.98394 0.576617
2783 1 0.367601 1.00051 0.57795
2718 1 0.408916 0.988168 0.580496
2720 1 0.425346 0.985569 0.577006
2789 1 0.419018 1.00065 0.576898
2722 1 0.442883 0.983918 0.576106
2791 1 0.434679 0.999107 0.575079
2724 1 0.460205 0.984889 0.575233
2793 1 0.451544 0.998522 0.57303
1741 1 0.430376 0.58562 0.58143
1740 1 0.424286 0.598813 0.582796
1742 1 0.440186 0.598241 0.582794
1808 1 0.408272 0.624689 0.582793
1809 1 0.416313 0.611794 0.584785
1811 1 0.431443 0.613283 0.582993
1812 1 0.438545 0.625256 0.589154
1815 1 0.462773 0.613714 0.584342
1813 1 0.446394 0.613173 0.586827
1817 1 0.477996 0.612538 0.581941
1875 1 0.383656 0.642477 0.583317
1877 1 0.398662 0.638258 0.584447
1810 1 0.42351 0.625658 0.585001
1879 1 0.416056 0.637549 0.587335
1881 1 0.429729 0.639028 0.590291
1883 1 0.447571 0.640382 0.590392
1814 1 0.453646 0.625322 0.588858
1885 1 0.463668 0.638093 0.589135
1816 1 0.471161 0.626241 0.586691
1887 1 0.479191 0.6401 0.589075
1818 1 0.484421 0.625224 0.584335
1889 1 0.495977 0.637707 0.587818
1872 1 0.361022 0.656607 0.581919
1874 1 0.378007 0.654826 0.583771
1876 1 0.394281 0.653957 0.5858
1878 1 0.407509 0.651598 0.588239
1880 1 0.422448 0.652503 0.591034
1884 1 0.457506 0.653518 0.591403
1888 1 0.488415 0.651511 0.592597
1943 1 0.369402 0.669765 0.58409
1945 1 0.384954 0.666087 0.586784
1947 1 0.400908 0.66634 0.588608
1942 1 0.36328 0.684108 0.584558
2013 1 0.370389 0.694608 0.588723
1944 1 0.378348 0.679638 0.588248
2015 1 0.386143 0.694057 0.591598
1946 1 0.394326 0.680338 0.589996
2011 1 0.35474 0.695645 0.583976
2010 1 0.345594 0.708986 0.583856
2012 1 0.361614 0.710299 0.587872
2014 1 0.376306 0.70834 0.592021
2077 1 0.324078 0.725041 0.582281
2079 1 0.338685 0.72309 0.586469
2081 1 0.350875 0.721946 0.588421
2083 1 0.368177 0.722651 0.590676
2099 1 0.494782 0.721899 0.591448
2076 1 0.316868 0.740713 0.582222
2078 1 0.329924 0.738787 0.587139
2080 1 0.34404 0.735954 0.589929
2098 1 0.487559 0.737494 0.59282
2147 1 0.323002 0.754112 0.586088
2149 1 0.335411 0.752224 0.58872
2148 1 0.329326 0.767968 0.58902
2150 1 0.341701 0.764731 0.590974
2169 1 0.493053 0.751692 0.588218
2168 1 0.487978 0.764576 0.590048
2146 1 0.313629 0.768633 0.585204
2215 1 0.308004 0.782176 0.584204
2217 1 0.323156 0.782281 0.58892
2219 1 0.336975 0.78148 0.591174
2237 1 0.479676 0.778033 0.59254
2239 1 0.495758 0.777963 0.587508
2214 1 0.299483 0.795292 0.582741
2216 1 0.313687 0.795551 0.587083
2218 1 0.33078 0.795282 0.58984
2238 1 0.488405 0.792968 0.589976
2283 1 0.290208 0.809324 0.585195
2285 1 0.305412 0.808926 0.586901
2286 1 0.312147 0.822887 0.589691
2287 1 0.320631 0.808521 0.589806
2309 1 0.496555 0.804294 0.589825
2308 1 0.489713 0.820751 0.591262
2351 1 0.2743 0.836908 0.584145
2282 1 0.282591 0.824295 0.583591
2284 1 0.297662 0.8213 0.587277
2353 1 0.28997 0.835537 0.589233
2355 1 0.304435 0.835265 0.591506
2357 1 0.319487 0.836256 0.591159
2288 1 0.328003 0.823943 0.589833
2359 1 0.336245 0.837815 0.591313
2377 1 0.481243 0.834421 0.592253
2379 1 0.495796 0.832768 0.58731
2350 1 0.26581 0.849113 0.583448
2352 1 0.281515 0.850212 0.588473
2376 1 0.471898 0.848631 0.591643
2378 1 0.488886 0.846595 0.588321
2419 1 0.255944 0.863238 0.584579
2421 1 0.272916 0.862676 0.586472
2423 1 0.288425 0.864655 0.59143
2445 1 0.465063 0.863378 0.590818
2447 1 0.480133 0.861065 0.587245
2449 1 0.496933 0.859575 0.583427
2448 1 0.487545 0.873123 0.582898
2487 1 0.24225 0.889772 0.582011
2418 1 0.246062 0.874907 0.584226
2420 1 0.263215 0.876557 0.586732
2489 1 0.254568 0.889119 0.586522
2422 1 0.279468 0.877656 0.589794
2491 1 0.272367 0.891308 0.589693
2493 1 0.287771 0.89073 0.592941
2499 1 0.336448 0.893101 0.592195
2444 1 0.457572 0.877644 0.588098
2513 1 0.447887 0.890848 0.586973
2515 1 0.463755 0.890423 0.582402
2446 1 0.470701 0.874845 0.58491
2517 1 0.47801 0.888994 0.581544
2486 1 0.230975 0.902091 0.581361
2488 1 0.248201 0.904926 0.584052
2490 1 0.264174 0.904449 0.588082
2492 1 0.281084 0.906467 0.590827
2500 1 0.344658 0.908574 0.591448
2502 1 0.361509 0.907811 0.592447
2504 1 0.376952 0.907775 0.592158
2508 1 0.408756 0.908031 0.590265
2510 1 0.424469 0.907618 0.590944
2512 1 0.440022 0.90579 0.587467
2514 1 0.454446 0.904259 0.582426
2559 1 0.256823 0.918624 0.583479
2561 1 0.270397 0.918333 0.586819
2563 1 0.287676 0.919515 0.589501
2565 1 0.302743 0.919836 0.591161
2567 1 0.318378 0.920327 0.590307
2569 1 0.335225 0.92121 0.590513
2571 1 0.352954 0.92251 0.59091
2573 1 0.368081 0.921085 0.589183
2575 1 0.383683 0.921426 0.590293
2577 1 0.397881 0.920557 0.590126
2579 1 0.414305 0.922087 0.589194
2581 1 0.429881 0.919374 0.58648
2583 1 0.445412 0.916816 0.581963
2560 1 0.263193 0.933903 0.583469
2562 1 0.280782 0.932983 0.586064
2564 1 0.295491 0.934167 0.588005
2633 1 0.288126 0.947601 0.584959
2566 1 0.310083 0.934843 0.589898
2568 1 0.32603 0.934646 0.588631
2570 1 0.342994 0.935962 0.589841
2572 1 0.359378 0.93442 0.588797
2574 1 0.375517 0.93548 0.589877
2576 1 0.393141 0.935339 0.588514
2578 1 0.40791 0.935053 0.58691
2580 1 0.424807 0.934443 0.584582
2651 1 0.434094 0.94705 0.581589
2631 1 0.271919 0.94718 0.583065
2635 1 0.302924 0.948885 0.585466
2636 1 0.310527 0.96213 0.582186
2637 1 0.318029 0.949318 0.5877
2639 1 0.335303 0.949551 0.586037
2638 1 0.327745 0.961445 0.583492
2641 1 0.351092 0.948935 0.588844
2640 1 0.344164 0.961336 0.584149
2643 1 0.36812 0.948454 0.588114
2642 1 0.359021 0.961785 0.585708
2645 1 0.384424 0.94871 0.587653
2644 1 0.376237 0.962334 0.58706
2646 1 0.39101 0.961979 0.585692
2647 1 0.400456 0.948345 0.58457
2649 1 0.416937 0.946571 0.58312
2650 1 0.423525 0.959112 0.581508
2711 1 0.352173 0.974536 0.583307
2713 1 0.369212 0.974178 0.584783
2715 1 0.38723 0.974527 0.584417
2717 1 0.400159 0.974949 0.581961
2712 1 0.361296 0.988934 0.581481
2714 1 0.379493 0.98965 0.583421
2716 1 0.393386 0.988482 0.583238
1882 1 0.439651 0.651786 0.592459
1886 1 0.471011 0.653203 0.591732
1949 1 0.415425 0.667595 0.591988
1951 1 0.430055 0.667493 0.592452
1953 1 0.447675 0.667114 0.593934
1955 1 0.464574 0.666341 0.593128
1957 1 0.480445 0.665906 0.593765
1959 1 0.496686 0.666117 0.592016
1948 1 0.410662 0.68033 0.592557
2017 1 0.402521 0.694747 0.591685
1950 1 0.424668 0.682942 0.59501
2019 1 0.414453 0.695641 0.594411
1952 1 0.437573 0.681168 0.596259
2021 1 0.430298 0.695695 0.597194
1954 1 0.455476 0.680411 0.595648
2025 1 0.463336 0.693834 0.598241
2023 1 0.447324 0.695359 0.597601
2027 1 0.479961 0.692791 0.596648
1956 1 0.473428 0.678987 0.597364
2029 1 0.497174 0.693989 0.593374
1958 1 0.489696 0.680438 0.595303
2016 1 0.391369 0.708478 0.593921
2018 1 0.408682 0.709435 0.594819
2020 1 0.424796 0.709175 0.598249
2022 1 0.440001 0.70867 0.598322
2024 1 0.454187 0.70872 0.597472
2026 1 0.471435 0.707011 0.596681
2028 1 0.486939 0.708628 0.594378
2085 1 0.383101 0.723079 0.593764
2087 1 0.398979 0.723948 0.596472
2089 1 0.415134 0.722046 0.597732
2091 1 0.42988 0.72334 0.598801
2093 1 0.447232 0.72206 0.597783
2095 1 0.463332 0.723412 0.596714
2097 1 0.478975 0.721685 0.594032
2151 1 0.350303 0.750776 0.592133
2082 1 0.359189 0.73667 0.59166
2084 1 0.376343 0.738179 0.593359
2086 1 0.391106 0.737202 0.595911
2155 1 0.38317 0.74988 0.597043
2088 1 0.408259 0.738443 0.597668
2090 1 0.424579 0.73698 0.599264
2092 1 0.440287 0.735524 0.597127
2094 1 0.454874 0.737747 0.596148
2096 1 0.471851 0.735629 0.594591
2152 1 0.358851 0.76304 0.593663
2153 1 0.366447 0.751037 0.594529
2154 1 0.376218 0.763757 0.595872
2156 1 0.390193 0.765297 0.596176
2157 1 0.399006 0.751533 0.597051
2158 1 0.407135 0.765614 0.596756
2159 1 0.41635 0.752249 0.596782
2160 1 0.42429 0.765206 0.599144
2161 1 0.430826 0.750792 0.598639
2162 1 0.439856 0.765831 0.597111
2163 1 0.448916 0.750477 0.597388
2165 1 0.463614 0.751603 0.594501
2164 1 0.455838 0.764671 0.595106
2167 1 0.478856 0.750559 0.592568
2166 1 0.473323 0.765057 0.593782
2221 1 0.353568 0.777696 0.593362
2223 1 0.36884 0.77813 0.594349
2225 1 0.384447 0.778951 0.596836
2227 1 0.401846 0.77894 0.596788
2229 1 0.41596 0.779515 0.598198
2231 1 0.431772 0.781055 0.598286
2233 1 0.447434 0.779677 0.597133
2235 1 0.464359 0.779491 0.594918
2220 1 0.346127 0.793828 0.592374
2222 1 0.361736 0.793622 0.594901
2224 1 0.376563 0.794055 0.595221
2226 1 0.3937 0.792379 0.596174
2228 1 0.410342 0.79456 0.597604
2230 1 0.424451 0.79395 0.597399
2232 1 0.441725 0.795603 0.597862
2234 1 0.456589 0.795342 0.597371
2236 1 0.472077 0.793153 0.594009
2289 1 0.338313 0.810195 0.592695
2291 1 0.352974 0.807559 0.595202
2293 1 0.369319 0.809726 0.595578
2295 1 0.386178 0.808143 0.596319
2297 1 0.400474 0.809146 0.596438
2298 1 0.407731 0.822948 0.595398
2299 1 0.416427 0.807441 0.597164
2301 1 0.431459 0.807834 0.598081
2303 1 0.447778 0.80847 0.5978
2304 1 0.458774 0.821712 0.597175
2307 1 0.480731 0.806283 0.593106
2305 1 0.464407 0.80801 0.596854
2306 1 0.473422 0.819128 0.595157
2290 1 0.344632 0.822681 0.592946
2361 1 0.351068 0.836814 0.592625
2292 1 0.359957 0.823352 0.593791
2363 1 0.366865 0.83664 0.595207
2294 1 0.376957 0.823097 0.596239
2365 1 0.383479 0.837695 0.596031
2296 1 0.392551 0.82253 0.596536
2367 1 0.400085 0.837196 0.595988
2300 1 0.424136 0.821754 0.597025
2369 1 0.414679 0.836301 0.596372
2302 1 0.441684 0.822529 0.597542
2371 1 0.432442 0.837931 0.596613
2373 1 0.448643 0.835366 0.594757
2375 1 0.46492 0.835146 0.596197
2354 1 0.294146 0.849483 0.590853
2356 1 0.310103 0.850334 0.592857
2358 1 0.326478 0.849756 0.591322
2360 1 0.342981 0.852665 0.59321
2362 1 0.359417 0.852234 0.592855
2364 1 0.375422 0.852578 0.595286
2366 1 0.391391 0.852615 0.59533
2368 1 0.407159 0.85201 0.594185
2370 1 0.424835 0.85104 0.595178
2372 1 0.440929 0.851107 0.594669
2374 1 0.458153 0.850488 0.595195
2425 1 0.302766 0.865083 0.593467
2427 1 0.320173 0.865244 0.593463
2429 1 0.336352 0.864764 0.592854
2431 1 0.353284 0.866935 0.594833
2433 1 0.368896 0.865794 0.593519
2435 1 0.384382 0.867881 0.593964
2437 1 0.399146 0.865538 0.594986
2439 1 0.416637 0.867973 0.594241
2441 1 0.431387 0.866048 0.594648
2443 1 0.448905 0.863885 0.592545
2424 1 0.296033 0.879956 0.593766
2495 1 0.304657 0.893582 0.594502
2426 1 0.311629 0.877963 0.593818
2428 1 0.329075 0.879016 0.592612
2501 1 0.352217 0.893244 0.592291
2430 1 0.345103 0.878404 0.59213
2432 1 0.362204 0.880041 0.592324
2434 1 0.377312 0.881267 0.59389
2436 1 0.391027 0.881155 0.593653
2438 1 0.405563 0.881059 0.595108
2440 1 0.427373 0.881463 0.593726
2442 1 0.441833 0.879076 0.590933
2494 1 0.295728 0.905072 0.593222
2496 1 0.312793 0.907415 0.5916
2497 1 0.320654 0.891545 0.593482
2498 1 0.327869 0.907092 0.592525
2503 1 0.368096 0.893014 0.592104
2505 1 0.384605 0.894664 0.593452
2506 1 0.394303 0.90817 0.593542
2507 1 0.398937 0.894776 0.592914
2509 1 0.416774 0.893143 0.592937
2511 1 0.43305 0.893746 0.591382
3341 1 0.844395 0.166093 0.418072
3344 1 0.870396 0.177489 0.418221
3346 1 0.885631 0.177455 0.418526
3334 1 0.789473 0.183948 0.419055
3336 1 0.804171 0.182132 0.416943
3407 1 0.813026 0.194634 0.416076
3338 1 0.82083 0.179302 0.416645
3340 1 0.838771 0.179104 0.415798
3409 1 0.830636 0.193994 0.41521
3342 1 0.854805 0.179189 0.417177
3411 1 0.846677 0.193259 0.416793
3413 1 0.863977 0.19311 0.415841
3415 1 0.878132 0.190787 0.416634
3417 1 0.892855 0.189631 0.418743
3405 1 0.797737 0.197061 0.416971
3406 1 0.805698 0.211246 0.416474
3408 1 0.82213 0.209061 0.414304
3410 1 0.838888 0.209143 0.413802
3412 1 0.856598 0.207594 0.415482
3414 1 0.872116 0.206284 0.414532
3416 1 0.887727 0.204603 0.415561
3418 1 0.901776 0.203334 0.416731
3495 1 0.960573 0.213958 0.418496
3475 1 0.798434 0.227368 0.41732
3477 1 0.814671 0.225266 0.41567
3479 1 0.831882 0.22326 0.41444
3481 1 0.848443 0.22251 0.415319
3483 1 0.865206 0.222234 0.415063
3485 1 0.880839 0.220992 0.416207
3487 1 0.897456 0.218697 0.414963
3489 1 0.913166 0.216962 0.415743
3490 1 0.922456 0.229282 0.41399
3491 1 0.928413 0.215923 0.416425
3492 1 0.937803 0.229532 0.414543
3493 1 0.945084 0.215747 0.417262
3494 1 0.954572 0.228091 0.415172
3476 1 0.809817 0.242155 0.416941
3478 1 0.824624 0.23909 0.416076
3480 1 0.840525 0.237456 0.41463
3482 1 0.85665 0.236649 0.415076
3484 1 0.873949 0.237577 0.415993
3486 1 0.891184 0.234216 0.413457
3488 1 0.908608 0.231658 0.413534
3557 1 0.900761 0.247803 0.412504
3559 1 0.917338 0.245114 0.413504
3561 1 0.932016 0.243563 0.413021
3563 1 0.947329 0.243868 0.414952
3565 1 0.965627 0.242012 0.415018
3567 1 0.979913 0.241222 0.4165
3569 1 0.994331 0.237983 0.41682
3545 1 0.803427 0.255063 0.419599
3547 1 0.818158 0.255633 0.416078
3546 1 0.812168 0.268308 0.418006
3549 1 0.835066 0.252054 0.415218
3548 1 0.829446 0.267432 0.415982
3551 1 0.850789 0.252412 0.413787
3550 1 0.844532 0.266882 0.415136
3553 1 0.86654 0.251105 0.413777
3552 1 0.862305 0.265156 0.414914
3555 1 0.883374 0.248719 0.41291
3554 1 0.876681 0.26471 0.413287
3556 1 0.893404 0.262474 0.411907
3558 1 0.910086 0.261312 0.413122
3560 1 0.924095 0.25926 0.411628
3562 1 0.93963 0.256791 0.411766
3564 1 0.957235 0.256541 0.412907
3566 1 0.974099 0.255783 0.415048
3568 1 0.98957 0.254044 0.415976
3639 1 0.999849 0.266196 0.416875
3617 1 0.822002 0.280928 0.417407
3619 1 0.839444 0.282416 0.417192
3621 1 0.854929 0.278444 0.415624
3623 1 0.870637 0.279641 0.414782
3625 1 0.888011 0.277049 0.413683
3627 1 0.903436 0.275848 0.412905
3629 1 0.917969 0.274872 0.411251
3631 1 0.933605 0.271266 0.409924
3632 1 0.94406 0.285454 0.412345
3633 1 0.95006 0.270365 0.41366
3634 1 0.960164 0.284894 0.413578
3635 1 0.967305 0.271364 0.414416
3636 1 0.975457 0.286164 0.41449
3637 1 0.983372 0.27072 0.414333
3638 1 0.992443 0.28227 0.415773
3618 1 0.831122 0.296391 0.416434
3620 1 0.848044 0.29428 0.415821
3622 1 0.864064 0.291895 0.416279
3624 1 0.881627 0.290862 0.414027
3626 1 0.897938 0.291255 0.413743
3628 1 0.912433 0.290533 0.410915
3630 1 0.928597 0.28599 0.411917
3701 1 0.938314 0.299906 0.411354
3703 1 0.953117 0.300154 0.412764
3705 1 0.969227 0.298975 0.414317
3707 1 0.985179 0.296503 0.417152
3685 1 0.809957 0.312278 0.41796
3687 1 0.823714 0.311193 0.415219
3689 1 0.840131 0.308992 0.414892
3691 1 0.857237 0.30857 0.416136
3693 1 0.872785 0.305257 0.416814
3692 1 0.8677 0.322237 0.416154
3695 1 0.889993 0.305514 0.415672
3694 1 0.884175 0.318413 0.416508
3697 1 0.907322 0.304104 0.413427
3696 1 0.900866 0.317832 0.415386
3699 1 0.92205 0.302077 0.412455
3698 1 0.91574 0.319069 0.413494
3700 1 0.932476 0.316329 0.411661
3702 1 0.946727 0.314398 0.411074
3704 1 0.964344 0.313203 0.412935
3706 1 0.978494 0.310799 0.41445
3708 1 0.99442 0.310762 0.417454
3686 1 0.817607 0.326433 0.418551
3688 1 0.834387 0.324712 0.417217
3690 1 0.851491 0.322314 0.416549
3761 1 0.861123 0.335586 0.418209
3763 1 0.878149 0.333651 0.416916
3765 1 0.892265 0.333408 0.41734
3767 1 0.908869 0.332369 0.416436
3769 1 0.925332 0.331686 0.414876
3771 1 0.940889 0.329053 0.41213
3773 1 0.956343 0.328351 0.413713
3775 1 0.972669 0.324835 0.414024
3777 1 0.989745 0.32498 0.415072
3778 1 0.998122 0.336856 0.416708
3776 1 0.983043 0.339325 0.415429
3770 1 0.934129 0.345212 0.414561
3772 1 0.950533 0.34284 0.415569
3843 1 0.959233 0.353647 0.417925
3774 1 0.968205 0.340447 0.415043
3845 1 0.975321 0.354436 0.416376
3847 1 0.990736 0.350212 0.417267
3841 1 0.944733 0.357214 0.419157
3846 1 0.985459 0.366455 0.418832
3124 1 0.780928 0.104406 0.428792
3191 1 0.757836 0.117876 0.427218
3193 1 0.773426 0.11783 0.425445
3195 1 0.790999 0.117062 0.426224
3197 1 0.807091 0.114007 0.427162
3199 1 0.821642 0.113135 0.427856
3201 1 0.837225 0.114633 0.429797
3204 1 0.862137 0.123614 0.428487
3188 1 0.735053 0.133162 0.42804
3190 1 0.750019 0.133173 0.427504
3192 1 0.766655 0.129282 0.425725
3194 1 0.783908 0.130341 0.424683
3263 1 0.776946 0.143623 0.424077
3196 1 0.801917 0.129986 0.423903
3198 1 0.814696 0.12846 0.425476
3200 1 0.832906 0.124849 0.425494
3269 1 0.824083 0.140629 0.423602
3202 1 0.846997 0.126127 0.426434
3271 1 0.840592 0.139409 0.421954
3273 1 0.857687 0.138467 0.423213
3275 1 0.873834 0.135425 0.424802
3257 1 0.727851 0.147849 0.427116
3259 1 0.744469 0.14633 0.425458
3258 1 0.737666 0.161293 0.426043
3261 1 0.761689 0.144901 0.422848
3260 1 0.755164 0.160044 0.423457
3264 1 0.787777 0.15727 0.422371
3262 1 0.770357 0.157614 0.422492
3265 1 0.792392 0.143404 0.423231
3267 1 0.808737 0.143303 0.423967
3266 1 0.80316 0.156146 0.422826
3268 1 0.820149 0.155528 0.421195
3270 1 0.834093 0.151933 0.421006
3272 1 0.850475 0.151864 0.419691
3274 1 0.867249 0.150537 0.420462
3276 1 0.880864 0.151876 0.424507
3278 1 0.895859 0.149663 0.425998
3329 1 0.748559 0.173596 0.424735
3327 1 0.734794 0.178114 0.427384
3331 1 0.762385 0.173268 0.421527
3333 1 0.779257 0.171248 0.419842
3335 1 0.794328 0.169717 0.420028
3337 1 0.811226 0.16629 0.419042
3339 1 0.828556 0.165873 0.419257
3343 1 0.859695 0.165284 0.417478
3345 1 0.875021 0.163968 0.419487
3347 1 0.890913 0.165673 0.422274
3348 1 0.900677 0.17912 0.421669
3349 1 0.906821 0.163261 0.42402
3351 1 0.92173 0.165186 0.425669
3352 1 0.930167 0.176873 0.424905
3353 1 0.937771 0.162629 0.427845
3354 1 0.947155 0.175557 0.425747
3356 1 0.960381 0.175119 0.429049
3328 1 0.743466 0.190574 0.426928
3330 1 0.756818 0.186447 0.423292
3332 1 0.771779 0.185727 0.420264
3419 1 0.908696 0.193861 0.420574
3350 1 0.91404 0.177937 0.422496
3421 1 0.925135 0.190566 0.421573
3423 1 0.940912 0.188531 0.42353
3425 1 0.956142 0.188446 0.425024
3427 1 0.971968 0.18741 0.426826
3399 1 0.750721 0.203067 0.424187
3401 1 0.765605 0.201978 0.421203
3403 1 0.781716 0.199247 0.419754
3404 1 0.790465 0.213185 0.418152
3420 1 0.918457 0.201719 0.419026
3422 1 0.934778 0.202273 0.419131
3424 1 0.949778 0.200591 0.420348
3426 1 0.966407 0.200109 0.420696
3497 1 0.975793 0.213089 0.420247
3428 1 0.981372 0.198764 0.424007
3430 1 0.996017 0.197578 0.425429
3398 1 0.746574 0.219221 0.425473
3400 1 0.76227 0.2162 0.423149
3402 1 0.776257 0.213914 0.419957
3473 1 0.783767 0.229568 0.420296
3496 1 0.971546 0.226376 0.417598
3498 1 0.985861 0.22566 0.418982
3499 1 0.992164 0.212813 0.42215
3467 1 0.740919 0.235105 0.426516
3469 1 0.754332 0.232379 0.42236
3470 1 0.763536 0.246962 0.421485
3468 1 0.749148 0.24834 0.423559
3471 1 0.769652 0.230246 0.421667
3472 1 0.77936 0.244786 0.421235
3474 1 0.79296 0.242256 0.418389
3535 1 0.728141 0.265621 0.42748
3537 1 0.741465 0.265014 0.426022
3466 1 0.733983 0.249669 0.427132
3539 1 0.756368 0.26303 0.422432
3541 1 0.771233 0.258427 0.420655
3544 1 0.796474 0.268399 0.419294
3543 1 0.785814 0.257098 0.420736
3536 1 0.736592 0.279797 0.426095
3538 1 0.751931 0.279307 0.424507
3540 1 0.766095 0.272472 0.422072
3542 1 0.779213 0.270939 0.419262
3613 1 0.789339 0.284452 0.420244
3615 1 0.806113 0.283344 0.419884
3605 1 0.728424 0.294428 0.426562
3607 1 0.742217 0.294079 0.423609
3609 1 0.758969 0.292006 0.423576
3612 1 0.784788 0.300961 0.419361
3611 1 0.773338 0.286805 0.420336
3614 1 0.800116 0.299206 0.419012
3616 1 0.816324 0.29526 0.4178
3675 1 0.730757 0.322568 0.427538
3606 1 0.736322 0.308102 0.425429
3610 1 0.767776 0.303684 0.420195
3608 1 0.754392 0.306038 0.423645
3679 1 0.762179 0.320645 0.421938
3681 1 0.776646 0.316738 0.419537
3683 1 0.793255 0.314469 0.418003
3677 1 0.746388 0.321259 0.424917
3676 1 0.739944 0.334761 0.427606
3678 1 0.756114 0.33366 0.423665
3680 1 0.772602 0.333639 0.420439
3684 1 0.80288 0.329263 0.419809
3682 1 0.78712 0.330457 0.421177
3759 1 0.84678 0.336638 0.417774
3747 1 0.750443 0.34855 0.425923
3749 1 0.7652 0.348588 0.422732
3751 1 0.782808 0.346418 0.423345
3753 1 0.795536 0.342785 0.42169
3755 1 0.813071 0.342125 0.421383
3754 1 0.806942 0.355157 0.424965
3757 1 0.828809 0.339065 0.418917
3756 1 0.824023 0.353434 0.422528
3758 1 0.840296 0.352045 0.421598
3760 1 0.854441 0.350703 0.420934
3762 1 0.87082 0.349495 0.419627
3764 1 0.886359 0.346043 0.420542
3766 1 0.901982 0.347878 0.418419
3768 1 0.918203 0.34553 0.419307
3748 1 0.758504 0.362419 0.426945
3750 1 0.77567 0.362115 0.425498
3821 1 0.783821 0.374405 0.427337
3752 1 0.790368 0.358707 0.424187
3823 1 0.800455 0.371004 0.426485
3825 1 0.817391 0.366037 0.425912
3827 1 0.832814 0.367221 0.424459
3829 1 0.849567 0.363032 0.424529
3831 1 0.865056 0.363157 0.423595
3832 1 0.873698 0.373972 0.427667
3833 1 0.881561 0.360396 0.422957
3834 1 0.889905 0.374201 0.427368
3835 1 0.89482 0.360577 0.42305
3836 1 0.904878 0.374216 0.424782
3837 1 0.911975 0.359651 0.422396
3838 1 0.921818 0.370136 0.423431
3839 1 0.929341 0.358477 0.419483
3840 1 0.937033 0.369654 0.423083
3842 1 0.954229 0.368652 0.420393
3844 1 0.968974 0.367884 0.419496
3819 1 0.765737 0.375591 0.428827
3828 1 0.842716 0.377038 0.428642
3907 1 0.914409 0.384214 0.426558
3909 1 0.929713 0.38487 0.424967
3911 1 0.946651 0.381339 0.42298
3913 1 0.961624 0.382398 0.421065
3915 1 0.979205 0.381267 0.420665
3917 1 0.99493 0.38003 0.419898
3910 1 0.939089 0.39666 0.42671
3912 1 0.955059 0.395818 0.425736
3914 1 0.969938 0.396032 0.423257
3985 1 0.981974 0.405571 0.426861
3983 1 0.964627 0.408263 0.428898
3916 1 0.987476 0.394696 0.422174
3987 1 0.998251 0.404752 0.426601
2980 1 0.743787 0.0490164 0.439568
3049 1 0.74013 0.0655395 0.436658
3051 1 0.755068 0.0626569 0.437326
3053 1 0.769935 0.0638186 0.435871
3055 1 0.784106 0.0650089 0.437882
3046 1 0.715193 0.0793161 0.438441
3048 1 0.731705 0.0793722 0.434947
3050 1 0.748785 0.0777644 0.434199
3052 1 0.762191 0.0783819 0.434862
3054 1 0.778962 0.0785936 0.435179
3056 1 0.792377 0.0785261 0.436926
3127 1 0.803549 0.0890181 0.433153
3058 1 0.808732 0.0736711 0.436488
3129 1 0.820176 0.0852331 0.434934
3115 1 0.70888 0.093419 0.439302
3117 1 0.724918 0.0918673 0.434486
3119 1 0.740951 0.0919203 0.433106
3120 1 0.748633 0.104219 0.430394
3122 1 0.765441 0.105075 0.429842
3121 1 0.75821 0.0912268 0.433982
3123 1 0.771059 0.0932315 0.432545
3125 1 0.788559 0.0906269 0.433209
3126 1 0.798894 0.104261 0.429873
3128 1 0.812263 0.0999587 0.430869
3131 1 0.833255 0.0894224 0.437085
3130 1 0.828377 0.0994085 0.432131
3132 1 0.844713 0.0990766 0.432453
3134 1 0.857573 0.100267 0.437513
3185 1 0.712167 0.122357 0.435692
3116 1 0.716731 0.105921 0.435679
3187 1 0.726747 0.119302 0.430792
3118 1 0.731718 0.105522 0.431308
3189 1 0.742296 0.119514 0.428756
3203 1 0.853552 0.111807 0.430921
3205 1 0.867541 0.11369 0.434316
3207 1 0.882973 0.115073 0.437274
3184 1 0.705293 0.136965 0.435248
3186 1 0.71765 0.134206 0.430075
3277 1 0.887708 0.139338 0.428593
3206 1 0.878971 0.125904 0.431896
3208 1 0.893414 0.126485 0.434672
3210 1 0.908009 0.129005 0.43788
3279 1 0.904035 0.139636 0.431574
3281 1 0.918755 0.139827 0.434001
3283 1 0.933242 0.137132 0.436509
3253 1 0.69975 0.151676 0.437164
3255 1 0.714107 0.150793 0.431073
3280 1 0.912471 0.152415 0.429197
3282 1 0.928534 0.151633 0.430574
3284 1 0.941135 0.147751 0.432884
3286 1 0.957353 0.150364 0.436347
3288 1 0.972814 0.149966 0.438088
3254 1 0.710412 0.165503 0.435318
3256 1 0.724692 0.163168 0.429857
3355 1 0.951365 0.160559 0.430706
3358 1 0.9785 0.17607 0.430859
3357 1 0.966451 0.163679 0.432676
3360 1 0.99115 0.174353 0.433885
3359 1 0.983151 0.163297 0.435976
3323 1 0.706268 0.180008 0.437726
3324 1 0.716383 0.192669 0.434484
3325 1 0.719891 0.178297 0.431999
3326 1 0.728274 0.193313 0.42957
3429 1 0.987498 0.186088 0.427789
3393 1 0.714712 0.208753 0.438414
3395 1 0.725263 0.207603 0.432523
3397 1 0.736706 0.204993 0.428439
3394 1 0.720989 0.223857 0.435494
3396 1 0.73371 0.222039 0.430032
3463 1 0.714021 0.238729 0.435565
3465 1 0.729059 0.238649 0.431637
3462 1 0.707865 0.252389 0.435636
3533 1 0.713945 0.267945 0.431673
3464 1 0.719613 0.254768 0.431996
3532 1 0.707156 0.283678 0.432983
3531 1 0.700574 0.268805 0.436351
3534 1 0.720831 0.281473 0.429321
3601 1 0.698269 0.296398 0.432839
3603 1 0.712951 0.296212 0.429472
3600 1 0.691508 0.31115 0.434629
3602 1 0.705936 0.310906 0.428296
3604 1 0.721515 0.311116 0.42736
3670 1 0.694328 0.335796 0.435156
3669 1 0.685571 0.325333 0.435735
3671 1 0.700261 0.322032 0.431224
3672 1 0.707507 0.335273 0.430492
3674 1 0.725376 0.336794 0.428704
3673 1 0.716033 0.323615 0.428735
3739 1 0.6885 0.351604 0.437306
3741 1 0.703717 0.349263 0.434579
3743 1 0.71879 0.348672 0.432945
3745 1 0.733684 0.349817 0.429128
3740 1 0.697392 0.3638 0.43799
3742 1 0.713012 0.364536 0.435027
3744 1 0.726761 0.363522 0.431701
3746 1 0.741658 0.362197 0.430209
3830 1 0.858477 0.376994 0.429096
3811 1 0.706108 0.378033 0.437981
3813 1 0.721556 0.37956 0.435168
3814 1 0.729186 0.39239 0.436681
3815 1 0.735358 0.377459 0.433415
3816 1 0.745634 0.389609 0.436129
3817 1 0.752658 0.37598 0.431348
3818 1 0.760771 0.388215 0.434096
3820 1 0.776224 0.386525 0.431051
3822 1 0.793379 0.382802 0.43052
3824 1 0.80963 0.379505 0.431275
3895 1 0.81852 0.39099 0.434035
3826 1 0.825447 0.378591 0.430481
3897 1 0.835043 0.39056 0.434034
3899 1 0.850633 0.388627 0.433719
3901 1 0.866155 0.387042 0.432469
3903 1 0.881235 0.386366 0.429319
3905 1 0.899206 0.386638 0.429313
3889 1 0.769826 0.399203 0.435304
3890 1 0.779669 0.40974 0.437738
3891 1 0.787398 0.39885 0.433744
3893 1 0.803349 0.394172 0.434772
3894 1 0.813318 0.40487 0.437909
3896 1 0.827031 0.4021 0.438587
3898 1 0.84351 0.401887 0.437886
3900 1 0.860992 0.397861 0.437721
3902 1 0.877425 0.399314 0.435596
3973 1 0.888859 0.409783 0.437643
3904 1 0.892412 0.398125 0.432902
3906 1 0.908932 0.398651 0.431409
3975 1 0.903472 0.40892 0.435284
3908 1 0.925027 0.397005 0.429576
3977 1 0.91854 0.408613 0.435702
3979 1 0.933193 0.40962 0.431139
3981 1 0.951231 0.408883 0.429672
3976 1 0.912621 0.420414 0.438868
3978 1 0.92904 0.419232 0.438551
3980 1 0.943908 0.418294 0.434595
3982 1 0.95939 0.420777 0.432841
3984 1 0.975373 0.419038 0.431952
3986 1 0.990033 0.417886 0.430661
4053 1 0.968336 0.431499 0.43768
4055 1 0.982003 0.432016 0.434652
2905 1 0.706946 0.0112634 0.447505
2907 1 0.721623 0.00859682 0.446503
2909 1 0.737218 0.00984934 0.445293
2911 1 0.753084 0.00823146 0.445544
2913 1 0.767689 0.00939334 0.445522
2915 1 0.783663 0.00943118 0.445581
2917 1 0.800298 0.00923975 0.44859
2904 1 0.698173 0.0263594 0.447431
2906 1 0.712571 0.0234473 0.443497
2908 1 0.727485 0.0233349 0.444629
2910 1 0.743346 0.0228014 0.444455
2912 1 0.761307 0.0239824 0.443981
2914 1 0.77603 0.0226436 0.444216
2916 1 0.791495 0.0243655 0.446539
2918 1 0.807142 0.0227927 0.448119
2973 1 0.690361 0.0404837 0.445453
2972 1 0.682049 0.0540988 0.445414
2975 1 0.706003 0.0375123 0.442255
2974 1 0.69761 0.0530594 0.441772
2978 1 0.730891 0.0507997 0.438504
2976 1 0.713892 0.0532416 0.439793
2977 1 0.721164 0.0379207 0.443275
2979 1 0.737061 0.0355329 0.441578
2982 1 0.76092 0.048279 0.439027
2981 1 0.752389 0.0335488 0.442609
2984 1 0.777552 0.0501537 0.439687
2983 1 0.767238 0.0362954 0.442867
2985 1 0.783898 0.0355501 0.443815
2986 1 0.791238 0.0497469 0.44085
2987 1 0.798499 0.0376617 0.444736
2989 1 0.817338 0.0375837 0.447303
2988 1 0.806749 0.0501524 0.443475
2990 1 0.819537 0.0516324 0.448311
3041 1 0.676784 0.072704 0.448735
3043 1 0.691297 0.0683685 0.444768
3045 1 0.707759 0.0652216 0.44182
3047 1 0.723724 0.0671938 0.438254
3057 1 0.798286 0.0653223 0.440903
3059 1 0.81335 0.0639803 0.443245
3061 1 0.82957 0.0659397 0.447059
3042 1 0.686705 0.0844211 0.445394
3044 1 0.700932 0.0806133 0.441995
3060 1 0.824102 0.0754494 0.440317
3062 1 0.837869 0.0790291 0.445262
3064 1 0.852102 0.0802825 0.447045
3111 1 0.682076 0.0979685 0.445771
3113 1 0.696362 0.0959008 0.442356
3133 1 0.848493 0.091322 0.440926
3136 1 0.871704 0.102735 0.440063
3135 1 0.861536 0.0909151 0.44357
3137 1 0.87477 0.0917787 0.446883
3138 1 0.88768 0.103067 0.443596
3140 1 0.902041 0.103455 0.447092
3110 1 0.676443 0.113963 0.447583
3112 1 0.689947 0.109703 0.442827
3114 1 0.702599 0.108749 0.43891
3183 1 0.696552 0.12521 0.439804
3209 1 0.899338 0.114358 0.440547
3211 1 0.912621 0.117403 0.444687
3213 1 0.926877 0.119628 0.446986
3181 1 0.683024 0.126372 0.443895
3182 1 0.69278 0.138844 0.440385
3180 1 0.679437 0.140304 0.446498
3212 1 0.922313 0.130572 0.440741
3214 1 0.938743 0.130523 0.442939
3216 1 0.951524 0.128356 0.446431
3287 1 0.962746 0.140326 0.442719
3285 1 0.948482 0.138316 0.44036
3289 1 0.977935 0.140866 0.44434
421 1 0.993631 0.141137 0.448834
3249 1 0.67556 0.156055 0.448628
3251 1 0.686443 0.154087 0.442418
3290 1 0.988582 0.151384 0.441534
3250 1 0.683884 0.170664 0.445124
3252 1 0.695623 0.166169 0.439018
491 1 0.997701 0.162387 0.439374
3321 1 0.693066 0.182342 0.441874
3319 1 0.681669 0.185133 0.447597
3322 1 0.703454 0.196152 0.43988
3320 1 0.689975 0.197479 0.443358
3389 1 0.687319 0.213226 0.446138
3391 1 0.6995 0.210893 0.442895
3390 1 0.69561 0.225326 0.444025
3392 1 0.709809 0.224139 0.441322
3459 1 0.686969 0.242507 0.445041
3461 1 0.700492 0.239421 0.44018
3458 1 0.68282 0.258351 0.44599
3460 1 0.695027 0.255303 0.439491
3529 1 0.688986 0.270711 0.441617
3530 1 0.696471 0.284414 0.438497
3528 1 0.684531 0.28376 0.444374
3597 1 0.678464 0.300082 0.446923
3599 1 0.688963 0.298098 0.440231
3596 1 0.666212 0.313046 0.447348
3598 1 0.68023 0.312557 0.441312
3665 1 0.660022 0.326635 0.447514
3668 1 0.679608 0.339439 0.438068
3667 1 0.671007 0.325284 0.441889
3666 1 0.663323 0.339196 0.443166
3664 1 0.650444 0.339846 0.446931
3735 1 0.65953 0.353787 0.444817
3737 1 0.671568 0.352685 0.4399
3734 1 0.650947 0.369428 0.444877
3736 1 0.666447 0.368904 0.441938
3738 1 0.680393 0.367653 0.439331
3803 1 0.642936 0.382868 0.446616
3805 1 0.661153 0.382723 0.444787
3807 1 0.676683 0.380556 0.442035
3809 1 0.691211 0.379732 0.440535
3802 1 0.636759 0.398111 0.44666
3804 1 0.65224 0.395804 0.446463
3806 1 0.667864 0.394813 0.443821
3875 1 0.661182 0.40826 0.447251
3877 1 0.678918 0.408296 0.447136
3808 1 0.68486 0.394093 0.442345
3879 1 0.69299 0.409358 0.445195
3810 1 0.699831 0.393599 0.441502
3881 1 0.706064 0.407329 0.44185
3812 1 0.713585 0.393604 0.439526
3883 1 0.72305 0.407348 0.440916
3885 1 0.738502 0.401832 0.441073
3887 1 0.755464 0.401679 0.43944
3892 1 0.79691 0.408589 0.438773
3969 1 0.85637 0.409014 0.441735
3971 1 0.873869 0.408149 0.441763
3873 1 0.645309 0.411494 0.446563
3880 1 0.701864 0.422373 0.446733
3882 1 0.715576 0.421534 0.445094
3884 1 0.731601 0.414681 0.444737
3955 1 0.742326 0.427622 0.447368
3886 1 0.749186 0.41364 0.4425
3888 1 0.765628 0.412367 0.440878
3957 1 0.759418 0.424213 0.44762
3959 1 0.773182 0.422645 0.445651
3961 1 0.786066 0.419305 0.443911
3963 1 0.8062 0.416625 0.442916
3965 1 0.820973 0.413746 0.445057
3966 1 0.832468 0.424185 0.447898
3967 1 0.836357 0.414246 0.442695
3968 1 0.84892 0.421589 0.447455
3970 1 0.86364 0.420881 0.44487
3972 1 0.881354 0.420177 0.443994
3974 1 0.897901 0.418997 0.44127
3962 1 0.798085 0.429762 0.448723
4043 1 0.892106 0.428887 0.449017
4045 1 0.907577 0.432215 0.445987
4047 1 0.921948 0.431986 0.443714
4049 1 0.939204 0.430175 0.441224
4048 1 0.932937 0.442824 0.446643
4051 1 0.952864 0.428882 0.43906
4050 1 0.948104 0.442663 0.444939
4052 1 0.963805 0.442559 0.442852
4054 1 0.978562 0.443293 0.440138
4056 1 0.994511 0.442074 0.437876
4121 1 0.957167 0.455961 0.448143
4123 1 0.971706 0.455008 0.445246
4125 1 0.988479 0.45584 0.443292
4124 1 0.981792 0.46693 0.447832
4126 1 0.997434 0.466857 0.445228
2830 1 0.66955 0.000238028 0.458207
2901 1 0.676587 0.0140979 0.454376
2899 1 0.664959 0.0172491 0.458822
2903 1 0.692389 0.013761 0.449749
2919 1 0.816512 0.0109568 0.450953
2921 1 0.828537 0.0119641 0.456989
2900 1 0.670086 0.0289173 0.455569
2902 1 0.683017 0.0272922 0.451143
2920 1 0.822675 0.0260844 0.451113
2922 1 0.83801 0.0261988 0.456687
2971 1 0.677538 0.0434184 0.451592
2969 1 0.665826 0.0452924 0.456767
2991 1 0.829762 0.038621 0.452276
2993 1 0.841603 0.0417327 0.458318
2968 1 0.659537 0.0599706 0.458019
2970 1 0.671098 0.0565416 0.452025
2992 1 0.835222 0.055334 0.45209
3063 1 0.844779 0.070114 0.450429
2994 1 0.847694 0.058068 0.457018
3065 1 0.857788 0.0717725 0.454181
3067 1 0.87056 0.0716804 0.456358
3039 1 0.663451 0.0722185 0.453424
3040 1 0.672712 0.0864472 0.449542
3038 1 0.660498 0.0870616 0.456488
3066 1 0.866694 0.081695 0.450262
3068 1 0.882736 0.0804744 0.453125
3070 1 0.895181 0.0821353 0.4568
3109 1 0.669506 0.101369 0.452849
3139 1 0.889713 0.0920144 0.449927
3141 1 0.906063 0.0941398 0.45352
3143 1 0.921703 0.0952634 0.45696
3142 1 0.916965 0.104926 0.449767
3108 1 0.665475 0.114408 0.455283
3215 1 0.94149 0.119379 0.450773
3144 1 0.932554 0.107752 0.454655
3146 1 0.945486 0.108024 0.45779
3217 1 0.955898 0.119714 0.453714
3219 1 0.971115 0.119927 0.45614
351 1 0.984474 0.119199 0.458755
3177 1 0.662561 0.131657 0.457368
3179 1 0.672014 0.127647 0.450909
3218 1 0.966865 0.130352 0.448858
3220 1 0.982199 0.131385 0.452147
352 1 0.997901 0.128564 0.454144
3178 1 0.668766 0.143052 0.451726
3247 1 0.663619 0.157874 0.454016
3248 1 0.672116 0.172089 0.450729
3246 1 0.662791 0.174215 0.45846
3317 1 0.670637 0.186628 0.455366
3316 1 0.667886 0.203652 0.458409
3318 1 0.679681 0.199128 0.451108
3387 1 0.677204 0.216271 0.454433
3388 1 0.68212 0.229799 0.449375
3386 1 0.673226 0.232717 0.456831
3455 1 0.666933 0.2476 0.458362
3457 1 0.680053 0.244296 0.452112
3454 1 0.660092 0.260245 0.459651
3456 1 0.672181 0.25898 0.453686
3525 1 0.665557 0.273103 0.45468
3527 1 0.679202 0.271398 0.450005
3524 1 0.657996 0.288255 0.456303
3593 1 0.647495 0.301975 0.455271
3526 1 0.671819 0.28643 0.450415
3595 1 0.663139 0.299337 0.451471
3592 1 0.639667 0.315746 0.456783
3594 1 0.651823 0.312381 0.45145
3661 1 0.63312 0.330987 0.457256
3663 1 0.644621 0.328753 0.451804
3660 1 0.627277 0.34815 0.458292
3662 1 0.639831 0.342457 0.45324
3733 1 0.645415 0.356841 0.449373
3729 1 0.619961 0.363186 0.457099
3732 1 0.635881 0.371723 0.44958
3731 1 0.633958 0.357767 0.453355
3795 1 0.583847 0.388808 0.457147
3797 1 0.600203 0.388691 0.454479
3726 1 0.592022 0.374296 0.458795
3728 1 0.60751 0.374718 0.45685
3730 1 0.621857 0.375587 0.45224
3799 1 0.613155 0.388616 0.452804
3801 1 0.629317 0.386995 0.449176
3794 1 0.573985 0.40092 0.45635
3796 1 0.587598 0.401185 0.453393
3798 1 0.603595 0.402552 0.452574
3800 1 0.620324 0.401476 0.450084
3863 1 0.562751 0.414982 0.457182
3865 1 0.580156 0.41532 0.455547
3866 1 0.587675 0.42581 0.456801
3867 1 0.596494 0.414112 0.45178
3868 1 0.605072 0.42612 0.454761
3869 1 0.614186 0.412965 0.451755
3870 1 0.621478 0.425103 0.452723
3871 1 0.629951 0.413304 0.448266
3872 1 0.638398 0.425514 0.450963
3874 1 0.655126 0.422903 0.451053
3876 1 0.671596 0.420646 0.451542
3878 1 0.686294 0.423301 0.449898
3964 1 0.815607 0.427315 0.448321
3939 1 0.61429 0.436766 0.458884
3941 1 0.631041 0.43768 0.456126
3943 1 0.646946 0.435484 0.456448
3945 1 0.661441 0.433273 0.455766
3947 1 0.679177 0.433952 0.453746
3948 1 0.689483 0.444959 0.458019
3949 1 0.696967 0.433936 0.451126
3950 1 0.705397 0.444078 0.456583
3951 1 0.714097 0.433462 0.449675
3953 1 0.72809 0.428734 0.449087
3952 1 0.722456 0.441755 0.455473
3954 1 0.736653 0.441219 0.452691
3956 1 0.751894 0.438744 0.451667
4027 1 0.763561 0.448643 0.456685
3958 1 0.767083 0.434923 0.451765
4029 1 0.778685 0.445238 0.456878
3960 1 0.782393 0.433705 0.449494
4031 1 0.793203 0.440134 0.454814
4033 1 0.808415 0.437562 0.455294
4035 1 0.826054 0.437185 0.454148
4037 1 0.842621 0.432215 0.452943
4039 1 0.85921 0.429163 0.451121
4040 1 0.868753 0.441179 0.455819
4041 1 0.874332 0.428076 0.450627
4042 1 0.884557 0.439205 0.453637
4044 1 0.901251 0.442699 0.451741
4046 1 0.917608 0.444327 0.448845
4023 1 0.729164 0.453577 0.45911
4025 1 0.746209 0.45133 0.457727
4034 1 0.819687 0.450216 0.459253
4113 1 0.893394 0.454505 0.45635
4115 1 0.909187 0.453482 0.453452
4117 1 0.927108 0.454233 0.452574
4119 1 0.941127 0.455788 0.449893
4116 1 0.919557 0.466321 0.458124
4118 1 0.937157 0.465102 0.455546
4189 1 0.944586 0.478392 0.460441
4120 1 0.951262 0.467103 0.455262
4191 1 0.961781 0.47932 0.457109
4122 1 0.965742 0.466773 0.452144
4193 1 0.976772 0.477627 0.452827
4195 1 0.990739 0.479311 0.451458
4194 1 0.986561 0.490837 0.45652
2828 1 0.659046 0.00595783 0.464165
2852 1 0.833481 0.000696064 0.46263
2923 1 0.843668 0.0136973 0.461591
2854 1 0.847939 0.00327281 0.467322
2897 1 0.656322 0.0187146 0.466345
2898 1 0.660019 0.0311263 0.460905
2896 1 0.65165 0.0341729 0.468703
2925 1 0.854228 0.0186516 0.466262
2924 1 0.849951 0.0288635 0.461099
2926 1 0.85979 0.031803 0.467383
2967 1 0.653512 0.0461399 0.462558
2995 1 0.854704 0.0445472 0.462714
2997 1 0.867083 0.0486373 0.466676
2999 1 0.881043 0.0476541 0.468972
2966 1 0.648112 0.0607818 0.46556
2996 1 0.862645 0.0606267 0.461325
2998 1 0.877899 0.0613062 0.463557
3069 1 0.886439 0.0708817 0.460049
3000 1 0.892772 0.060965 0.467228
3035 1 0.643871 0.0783949 0.468433
3037 1 0.653235 0.076112 0.460505
3071 1 0.89946 0.0737083 0.464434
3072 1 0.9108 0.0847977 0.460657
3074 1 0.926479 0.0871886 0.464579
3073 1 0.915107 0.0747445 0.467835
3107 1 0.656804 0.101981 0.458699
3036 1 0.65205 0.0894606 0.465358
3105 1 0.648232 0.106577 0.466088
3076 1 0.941415 0.0876709 0.468172
3145 1 0.935035 0.0969883 0.461156
3147 1 0.950997 0.0994357 0.465007
3149 1 0.966107 0.09932 0.466783
283 1 0.999462 0.0970234 0.469709
3106 1 0.655659 0.118734 0.462739
3148 1 0.959763 0.112153 0.460614
3150 1 0.977235 0.108125 0.461507
282 1 0.991598 0.107407 0.463792
3175 1 0.653329 0.134151 0.465756
3176 1 0.659085 0.146707 0.459999
3174 1 0.651757 0.147409 0.467252
3245 1 0.655579 0.16041 0.463366
3244 1 0.653087 0.176933 0.465455
3243 1 0.645143 0.165651 0.470577
3313 1 0.648497 0.19275 0.467823
3315 1 0.658841 0.189625 0.462366
3314 1 0.656375 0.207465 0.464188
3383 1 0.653261 0.221039 0.466879
3385 1 0.666556 0.217523 0.460665
3451 1 0.641979 0.251462 0.469065
3453 1 0.655168 0.248015 0.464204
3382 1 0.647363 0.234209 0.469388
3384 1 0.662123 0.23429 0.463371
3452 1 0.649212 0.262299 0.464113
3521 1 0.639873 0.278007 0.466722
3523 1 0.652546 0.276082 0.460168
3520 1 0.634303 0.292487 0.466852
3522 1 0.644508 0.290408 0.461153
3588 1 0.615043 0.321659 0.467568
3591 1 0.637798 0.305481 0.461544
3589 1 0.624576 0.30712 0.467374
3590 1 0.626043 0.318559 0.461866
3657 1 0.607104 0.334273 0.465571
3659 1 0.618042 0.333232 0.460894
3654 1 0.583843 0.34931 0.468427
3656 1 0.597911 0.347716 0.465613
3658 1 0.611557 0.34821 0.45986
3722 1 0.562643 0.373945 0.46597
3724 1 0.577742 0.375507 0.4623
3723 1 0.574227 0.361506 0.466262
3725 1 0.588315 0.362608 0.463378
3727 1 0.603713 0.362055 0.460565
3785 1 0.509089 0.379542 0.468613
3787 1 0.522843 0.383891 0.468511
3789 1 0.538007 0.384829 0.466493
3791 1 0.554076 0.385603 0.464676
3793 1 0.567133 0.386784 0.459626
3786 1 0.512602 0.395766 0.467561
3855 1 0.503664 0.408525 0.469943
3788 1 0.527217 0.398005 0.466441
3857 1 0.518781 0.411076 0.468255
3790 1 0.543805 0.400429 0.46403
3792 1 0.558818 0.399996 0.460263
3858 1 0.525624 0.424141 0.469003
3859 1 0.535143 0.413117 0.465986
3861 1 0.548137 0.414201 0.460682
3860 1 0.541499 0.428646 0.4649
3862 1 0.557208 0.4269 0.461485
3929 1 0.535135 0.43753 0.469424
3931 1 0.550761 0.440417 0.466852
3933 1 0.566208 0.439091 0.465599
3864 1 0.570867 0.42655 0.459283
3935 1 0.580623 0.437372 0.463177
3937 1 0.597277 0.437852 0.460206
3946 1 0.671657 0.443753 0.459446
4036 1 0.837517 0.443169 0.457846
4038 1 0.854838 0.438815 0.458838
3936 1 0.591371 0.449889 0.466658
3938 1 0.607147 0.448058 0.464967
3940 1 0.623542 0.450806 0.461119
4009 1 0.618628 0.459504 0.46915
3942 1 0.640718 0.448021 0.460785
4011 1 0.633935 0.460685 0.466364
3944 1 0.65756 0.446565 0.461671
4013 1 0.649284 0.457073 0.465612
4015 1 0.665852 0.457631 0.46454
4017 1 0.682821 0.454354 0.462417
4019 1 0.698774 0.455516 0.463163
4021 1 0.713548 0.451937 0.462362
4024 1 0.73948 0.46361 0.462918
4026 1 0.756482 0.460508 0.462925
4028 1 0.772893 0.457221 0.462535
4030 1 0.789596 0.453314 0.459897
4032 1 0.803319 0.451463 0.459701
4101 1 0.80076 0.463078 0.465233
4103 1 0.816001 0.459047 0.465118
4105 1 0.831523 0.454364 0.464734
4107 1 0.845385 0.451619 0.464158
4109 1 0.862673 0.453558 0.461906
4110 1 0.875057 0.462722 0.466947
4108 1 0.857025 0.462437 0.46846
4111 1 0.879159 0.451636 0.460256
4016 1 0.67577 0.466253 0.46909
4018 1 0.691541 0.466602 0.467061
4020 1 0.707085 0.465813 0.468078
4022 1 0.722033 0.464517 0.463921
4095 1 0.749471 0.472763 0.467576
4093 1 0.734071 0.474886 0.468317
4097 1 0.766726 0.469895 0.466559
4099 1 0.783815 0.466314 0.465604
4112 1 0.888434 0.465093 0.46292
4114 1 0.905044 0.466478 0.459867
4183 1 0.899364 0.475841 0.46759
4185 1 0.914424 0.477686 0.464627
4187 1 0.930428 0.475793 0.462671
4188 1 0.939334 0.489073 0.466982
4190 1 0.955693 0.489538 0.464506
4192 1 0.970622 0.489151 0.460158
4263 1 0.982085 0.49943 0.46465
4265 1 0.997797 0.50006 0.461674
2824 1 0.639076 0.0106777 0.479252
2826 1 0.64859 0.00750802 0.47237
2856 1 0.858114 0.00685312 0.473027
2858 1 0.873163 0.0105009 0.476488
2894 1 0.639652 0.0367034 0.476221
2895 1 0.645419 0.022272 0.474275
2927 1 0.866063 0.0220001 0.471605
2928 1 0.873391 0.0367342 0.471333
2929 1 0.881054 0.0268559 0.476378
2931 1 0.89599 0.0276878 0.479963
2963 1 0.633092 0.0497294 0.477199
2965 1 0.645142 0.0486535 0.470959
2930 1 0.889272 0.0390147 0.474947
3001 1 0.896637 0.0507077 0.472805
2964 1 0.639077 0.0636237 0.473106
2962 1 0.62733 0.0667223 0.479252
3002 1 0.90701 0.0654497 0.471795
3003 1 0.912221 0.0534087 0.4777
3004 1 0.921896 0.0675277 0.475652
3006 1 0.93693 0.0687088 0.479787
3033 1 0.636286 0.0802207 0.475586
3075 1 0.930945 0.0772732 0.471527
3077 1 0.947634 0.079023 0.474477
3079 1 0.961404 0.077093 0.477652
3078 1 0.957959 0.0908638 0.471497
3080 1 0.972856 0.0890089 0.47441
211 1 0.976689 0.0773541 0.480179
3034 1 0.642069 0.0945193 0.471128
3032 1 0.631913 0.0953883 0.477322
281 1 0.983295 0.0987089 0.469528
212 1 0.988762 0.0876058 0.476172
3103 1 0.638827 0.108565 0.474718
3102 1 0.637413 0.124006 0.477342
3104 1 0.64625 0.121048 0.469746
3171 1 0.63448 0.140625 0.479479
3173 1 0.645395 0.136572 0.473288
3172 1 0.641892 0.15404 0.47412
3241 1 0.639552 0.16814 0.478621
3311 1 0.63803 0.198251 0.475522
3242 1 0.643542 0.182042 0.472889
3310 1 0.634289 0.212018 0.478793
3312 1 0.645728 0.209657 0.471357
3381 1 0.64307 0.223391 0.473133
3380 1 0.637807 0.238079 0.475803
3448 1 0.621103 0.266542 0.477514
3449 1 0.630331 0.251941 0.476918
3450 1 0.63663 0.265866 0.471191
3519 1 0.629203 0.280746 0.472954
3516 1 0.607529 0.295404 0.478586
3518 1 0.621145 0.294999 0.473495
3582 1 0.57497 0.321104 0.479409
3585 1 0.597968 0.307304 0.477836
3587 1 0.61024 0.308299 0.472074
3651 1 0.563446 0.333795 0.477319
3584 1 0.590275 0.320817 0.47766
3653 1 0.579884 0.335283 0.474658
3586 1 0.602611 0.321516 0.472279
3655 1 0.593165 0.33542 0.471552
3644 1 0.508213 0.344108 0.478541
3715 1 0.514146 0.355979 0.475855
3646 1 0.523553 0.342089 0.478663
3648 1 0.538403 0.347464 0.477109
3650 1 0.555598 0.348537 0.477191
3652 1 0.568561 0.349048 0.472306
3714 1 0.505606 0.366971 0.47271
3716 1 0.520505 0.36778 0.472526
3717 1 0.529078 0.356181 0.475309
3718 1 0.534218 0.370872 0.470798
3720 1 0.549798 0.371618 0.468977
3719 1 0.543875 0.35607 0.472499
3721 1 0.558059 0.361038 0.470274
3856 1 0.509978 0.42389 0.470679
3925 1 0.504357 0.435808 0.477273
3926 1 0.515018 0.446776 0.477725
3927 1 0.51827 0.437441 0.47119
3928 1 0.528044 0.450025 0.474665
3930 1 0.544626 0.4494 0.474226
3999 1 0.538229 0.460534 0.479705
3932 1 0.560528 0.449679 0.471402
4001 1 0.55322 0.462201 0.477364
4003 1 0.569218 0.458879 0.477472
3934 1 0.578295 0.448954 0.470857
4005 1 0.58495 0.459417 0.474985
4007 1 0.601153 0.461312 0.470942
4106 1 0.840977 0.463079 0.471648
4006 1 0.596645 0.471519 0.478734
4008 1 0.611623 0.467852 0.476969
4010 1 0.629065 0.468896 0.474132
4012 1 0.645882 0.467999 0.472299
4083 1 0.652532 0.474134 0.478047
4014 1 0.660599 0.465195 0.471619
4085 1 0.66851 0.474755 0.476172
4087 1 0.6858 0.477614 0.473237
4089 1 0.701799 0.477671 0.471956
4091 1 0.718251 0.478191 0.469429
4094 1 0.746327 0.480474 0.474774
4096 1 0.761345 0.481534 0.471603
4098 1 0.77704 0.478452 0.471602
4100 1 0.793922 0.472576 0.472351
4171 1 0.802496 0.480743 0.476951
4102 1 0.808499 0.469234 0.471679
4173 1 0.818751 0.479025 0.476643
4104 1 0.825819 0.466786 0.471631
4175 1 0.835842 0.475013 0.477793
4177 1 0.851147 0.473512 0.475432
4179 1 0.867719 0.472936 0.472349
4178 1 0.863441 0.482763 0.479579
4181 1 0.883532 0.476898 0.468702
4090 1 0.712776 0.485363 0.478742
4092 1 0.729944 0.484062 0.476104
4167 1 0.770686 0.490553 0.477828
4169 1 0.787079 0.485642 0.478285
4180 1 0.879225 0.482493 0.476841
4184 1 0.909257 0.487983 0.471137
4182 1 0.894093 0.485147 0.47453
4186 1 0.924153 0.489324 0.468383
4255 1 0.91975 0.497083 0.476173
2822 1 0.631064 0.0121633 0.487137
2860 1 0.885194 0.0151353 0.481426
2861 1 0.894069 0.00212721 0.485331
2863 1 0.907664 0.00557532 0.489421
2891 1 0.626282 0.0280362 0.490497
2893 1 0.635719 0.0248007 0.482476
2862 1 0.901523 0.0168663 0.484868
2933 1 0.908753 0.030516 0.484775
2864 1 0.915579 0.0190895 0.489015
2935 1 0.921975 0.0331487 0.48886
2961 1 0.622451 0.0518743 0.484958
2892 1 0.629459 0.0398482 0.482988
2932 1 0.904074 0.0423796 0.479481
2934 1 0.918076 0.0433748 0.482996
2936 1 0.932568 0.0457221 0.48706
2960 1 0.619915 0.0692785 0.485856
3005 1 0.925494 0.0566326 0.481488
3007 1 0.939029 0.0574638 0.48599
3009 1 0.956576 0.056092 0.488055
3008 1 0.95059 0.0696281 0.48261
3010 1 0.966055 0.0653678 0.48458
141 1 0.973951 0.0560714 0.490658
142 1 0.983909 0.066392 0.485159
3031 1 0.624539 0.0830465 0.482583
213 1 0.993748 0.0755791 0.481166
3030 1 0.623912 0.0973843 0.486625
3099 1 0.623591 0.113423 0.490177
3101 1 0.630339 0.111141 0.480927
3100 1 0.62818 0.126702 0.485508
3169 1 0.624557 0.141345 0.487829
3170 1 0.630454 0.155132 0.482175
3239 1 0.627104 0.169265 0.484853
3238 1 0.62153 0.185865 0.486893
3240 1 0.634755 0.182336 0.480085
3307 1 0.620616 0.200105 0.490876
3308 1 0.626505 0.211511 0.486466
3309 1 0.630046 0.198069 0.483734
3377 1 0.621951 0.22672 0.487697
3379 1 0.63232 0.226214 0.480674
3378 1 0.625197 0.23927 0.482676
3445 1 0.605438 0.254631 0.489562
3447 1 0.619066 0.254127 0.483989
3509 1 0.558725 0.281464 0.490016
3513 1 0.589142 0.283379 0.485647
3511 1 0.575622 0.28167 0.487553
3515 1 0.60465 0.284129 0.484819
3444 1 0.598244 0.270794 0.487355
3517 1 0.616652 0.282658 0.480276
3446 1 0.609176 0.269004 0.484119
3508 1 0.546536 0.293258 0.488609
3510 1 0.562536 0.2941 0.485984
3512 1 0.576952 0.296121 0.484555
3514 1 0.592637 0.295106 0.482185
3573 1 0.507008 0.304474 0.487707
3574 1 0.51327 0.317525 0.483936
3575 1 0.521588 0.307998 0.489485
3576 1 0.529848 0.317574 0.485625
3577 1 0.538332 0.307725 0.488668
3578 1 0.544231 0.32193 0.484476
3579 1 0.551806 0.307783 0.484642
3581 1 0.566928 0.309102 0.482912
3583 1 0.581542 0.309183 0.481439
3643 1 0.501598 0.328914 0.480988
3645 1 0.51647 0.330695 0.480424
3647 1 0.531751 0.332446 0.481904
3649 1 0.549255 0.33443 0.480476
3580 1 0.557263 0.321899 0.481206
3995 1 0.507846 0.456816 0.485555
3997 1 0.522364 0.459619 0.482141
3998 1 0.532218 0.467701 0.487219
4000 1 0.549266 0.469586 0.484635
4002 1 0.563864 0.470984 0.482083
4071 1 0.558508 0.478468 0.48938
4004 1 0.580259 0.468916 0.481215
4073 1 0.574967 0.478015 0.487311
4075 1 0.590824 0.478286 0.485682
4077 1 0.606233 0.477468 0.484109
4079 1 0.623702 0.476249 0.481447
4081 1 0.637284 0.475315 0.479715
4084 1 0.662495 0.482529 0.484573
4080 1 0.632983 0.484404 0.487004
4082 1 0.647872 0.483785 0.48601
4086 1 0.679779 0.483433 0.482016
4157 1 0.691083 0.491421 0.488426
4088 1 0.696965 0.484845 0.479337
4159 1 0.708695 0.491405 0.486356
4161 1 0.724641 0.491718 0.484239
4163 1 0.738517 0.491315 0.481452
4164 1 0.747126 0.49829 0.487593
4166 1 0.76422 0.495807 0.486699
4165 1 0.755693 0.488927 0.480333
4168 1 0.780408 0.494192 0.48561
4170 1 0.795431 0.491541 0.483492
4172 1 0.812288 0.490099 0.483043
4243 1 0.822938 0.49626 0.488951
4174 1 0.828877 0.487641 0.483536
4176 1 0.845881 0.483133 0.481408
4245 1 0.840726 0.496178 0.487016
4247 1 0.858028 0.491153 0.486632
4249 1 0.874125 0.492365 0.485039
4251 1 0.888982 0.492763 0.483221
4253 1 0.905689 0.493876 0.480999
2820 1 0.620651 0.0154473 0.49615
2821 1 0.624786 -0.00145016 0.492959
2865 1 0.920725 0.00579545 0.493799
2867 1 0.933969 0.0058848 0.498154
2889 1 0.617125 0.0303447 0.498118
2866 1 0.92904 0.0198203 0.494301
2937 1 0.93655 0.0324127 0.492331
2868 1 0.943757 0.0195319 0.498044
2870 1 0.958858 0.0205542 0.500972
2939 1 0.952488 0.0342139 0.494443
71 1 0.96599 0.0349146 0.499419
2890 1 0.621574 0.0420679 0.492214
2888 1 0.612472 0.0466653 0.500602
2938 1 0.946548 0.0459229 0.491428
2940 1 0.964029 0.0463233 0.492329
72 1 0.978298 0.0460071 0.496867
74 1 0.992874 0.0442513 0.497344
2959 1 0.616835 0.0590083 0.494036
143 1 0.99075 0.0560042 0.492517
3029 1 0.616012 0.0836421 0.491156
2958 1 0.609697 0.0737271 0.497188
3027 1 0.609669 0.0899358 0.499429
3028 1 0.61502 0.0993233 0.494313
3097 1 0.616598 0.113468 0.497399
3096 1 0.611569 0.129796 0.49947
3098 1 0.620543 0.12904 0.493288
3168 1 0.61914 0.157651 0.490086
3167 1 0.615324 0.145058 0.495702
3166 1 0.611124 0.158864 0.497734
3235 1 0.606984 0.172667 0.498909
3237 1 0.613739 0.172457 0.491289
3236 1 0.613257 0.184926 0.494655
3305 1 0.607016 0.200906 0.494941
3373 1 0.594485 0.228328 0.496362
3304 1 0.602215 0.216004 0.497939
3306 1 0.615936 0.215194 0.493085
3375 1 0.609314 0.230032 0.494016
3370 1 0.56899 0.244675 0.500096
3372 1 0.583027 0.242089 0.495767
3374 1 0.598856 0.242302 0.493436
3376 1 0.615224 0.242455 0.490414
3432 1 0.505147 0.267122 0.498423
3434 1 0.522556 0.267752 0.498922
3439 1 0.560119 0.255502 0.496222
3441 1 0.576308 0.256949 0.493564
3443 1 0.591934 0.25763 0.491616
3503 1 0.512228 0.281656 0.496005
3505 1 0.529076 0.28042 0.495826
3436 1 0.536305 0.267098 0.497665
3438 1 0.550434 0.267453 0.495037
3507 1 0.541981 0.279475 0.49256
3440 1 0.566276 0.269352 0.49113
3442 1 0.580896 0.270128 0.488448
3504 1 0.517858 0.293899 0.4935
3502 1 0.501444 0.289308 0.490506
3506 1 0.532223 0.294954 0.492559
3996 1 0.516575 0.464617 0.491566
4065 1 0.513403 0.475768 0.498015
3994 1 0.501129 0.465682 0.493745
4067 1 0.528691 0.4755 0.49486
4069 1 0.544527 0.476666 0.491646
4068 1 0.538972 0.483245 0.499428
4070 1 0.555388 0.487585 0.49634
4072 1 0.569507 0.488727 0.494301
4143 1 0.581255 0.500219 0.498575
4074 1 0.585001 0.488909 0.492646
4076 1 0.601817 0.486443 0.491931
4145 1 0.596719 0.498564 0.496957
4078 1 0.618572 0.483071 0.489913
4147 1 0.610997 0.493122 0.496025
4149 1 0.628238 0.49242 0.496146
4151 1 0.642269 0.493804 0.492325
4153 1 0.658606 0.488067 0.492077
4155 1 0.673853 0.487181 0.490022
4154 1 0.670616 0.496497 0.498856
4156 1 0.687215 0.494757 0.495822
4158 1 0.702181 0.49823 0.493879
4160 1 0.720289 0.498399 0.493085
4162 1 0.732621 0.499202 0.489004
2817 1 0.607178 0.00346695 0.508781
2818 1 0.611493 0.0177852 0.504189
2819 1 0.614593 0.000914065 0.501525
2869 1 0.949929 0.00781692 0.502532
1 1 0.963859 0.00902221 0.50547
3 1 0.979309 0.0103837 0.509444
2887 1 0.608057 0.0311757 0.504845
2 1 0.974718 0.0220602 0.5031
4 1 0.989949 0.0216018 0.505819
73 1 0.982252 0.0320713 0.501467
75 1 0.998225 0.0346359 0.503193
2886 1 0.602914 0.0482432 0.506897
2955 1 0.598016 0.0626302 0.508822
2957 1 0.608653 0.0613087 0.502079
2956 1 0.602217 0.0753254 0.504068
3025 1 0.601956 0.0897073 0.506946
3024 1 0.599678 0.107212 0.508756
3026 1 0.608041 0.103891 0.502873
3095 1 0.60572 0.11847 0.504427
3094 1 0.599942 0.133074 0.506587
3163 1 0.59243 0.146869 0.506692
3164 1 0.601033 0.160465 0.503565
3165 1 0.604866 0.145554 0.501264
3233 1 0.594125 0.174972 0.504535
3232 1 0.589598 0.189914 0.50676
3234 1 0.602691 0.186613 0.500747
3301 1 0.582846 0.204428 0.507432
3303 1 0.593927 0.202422 0.501188
3361 1 0.50154 0.226806 0.507057
3363 1 0.517063 0.227064 0.508172
3365 1 0.533068 0.22952 0.508754
3367 1 0.548808 0.228594 0.5074
3369 1 0.563731 0.23051 0.504467
3300 1 0.573189 0.218735 0.504478
3302 1 0.587762 0.217541 0.501519
3371 1 0.579775 0.231885 0.501207
3362 1 0.509131 0.239293 0.504739
3364 1 0.525293 0.241602 0.505079
3366 1 0.540859 0.241395 0.504187
3368 1 0.553272 0.243071 0.501903
3433 1 0.516278 0.254212 0.50135
3435 1 0.531465 0.253488 0.500941
3437 1 0.545643 0.256272 0.500066
4064 1 0.507776 0.48321 0.504609
4135 1 0.515547 0.494623 0.508614
4066 1 0.522417 0.485371 0.502001
4137 1 0.53205 0.493629 0.505629
4139 1 0.549742 0.496112 0.5036
4141 1 0.566182 0.496538 0.501372
4148 1 0.623328 0.502356 0.501665
2815 1 0.596633 0.00680802 0.516141
5 1 0.994737 0.0111716 0.51305
2816 1 0.600588 0.0194702 0.511398
2814 1 0.591162 0.0224163 0.51925
2885 1 0.598494 0.0335077 0.512674
2883 1 0.587916 0.0365705 0.519908
2884 1 0.592441 0.0504615 0.514547
2953 1 0.588532 0.0648189 0.517106
2952 1 0.584432 0.0806227 0.518602
2954 1 0.594904 0.0789119 0.511685
3022 1 0.585229 0.107713 0.514952
3023 1 0.590918 0.0941081 0.513692
3091 1 0.58022 0.122632 0.518553
3093 1 0.593191 0.122456 0.51108
3092 1 0.587016 0.135737 0.512611
3090 1 0.573801 0.137439 0.519021
3161 1 0.581233 0.148481 0.514578
3158 1 0.559921 0.165518 0.519023
3160 1 0.575514 0.162629 0.51433
3162 1 0.588581 0.163553 0.509835
3222 1 0.513459 0.18649 0.517957
3224 1 0.528143 0.19001 0.517284
3226 1 0.54502 0.190655 0.515872
3227 1 0.555083 0.178526 0.517107
3228 1 0.561976 0.193486 0.51337
3229 1 0.569423 0.177312 0.515038
3231 1 0.582094 0.177237 0.510835
3230 1 0.576072 0.193355 0.511937
3291 1 0.504048 0.20188 0.514762
3293 1 0.519465 0.20183 0.515704
3295 1 0.536943 0.204191 0.514866
3297 1 0.55312 0.206714 0.514091
3299 1 0.569302 0.205352 0.510189
3292 1 0.510009 0.216263 0.512533
3294 1 0.52472 0.216665 0.512181
3296 1 0.542505 0.217796 0.512134
3298 1 0.55939 0.216734 0.509466
4133 1 0.501999 0.491695 0.512028
2813 1 0.58463 0.0085613 0.522866
2812 1 0.579774 0.0243323 0.525769
2881 1 0.578288 0.0408503 0.528246
2882 1 0.584864 0.0522511 0.523202
2951 1 0.581794 0.0673668 0.524286
2880 1 0.573762 0.0556094 0.529652
2950 1 0.574622 0.0808813 0.524886
3019 1 0.569709 0.0970943 0.529059
3021 1 0.580425 0.0943646 0.521546
3018 1 0.563697 0.110582 0.529715
3089 1 0.568239 0.125117 0.525143
3020 1 0.575563 0.10879 0.523945
3086 1 0.546972 0.139206 0.529253
3088 1 0.560836 0.137186 0.524141
3151 1 0.507897 0.15148 0.531215
3153 1 0.523954 0.152578 0.529456
3155 1 0.53985 0.151947 0.527351
3159 1 0.566812 0.151511 0.519916
3157 1 0.554948 0.15259 0.524285
3221 1 0.505411 0.172491 0.521232
3152 1 0.513188 0.16404 0.525529
3154 1 0.530531 0.165005 0.525939
3223 1 0.520989 0.175788 0.522132
3225 1 0.537916 0.178759 0.520234
3156 1 0.547141 0.16698 0.523754
5540 1 0.569396 -0.000774937 0.53665
2809 1 0.563515 0.0145784 0.537155
2811 1 0.574589 0.0120798 0.53117
2808 1 0.560029 0.029975 0.539432
2810 1 0.571197 0.0289191 0.532846
2879 1 0.566541 0.0437179 0.534703
2878 1 0.562336 0.0579707 0.536609
2949 1 0.571675 0.0709402 0.531854
2946 1 0.549623 0.08648 0.53898
2947 1 0.557882 0.071625 0.537398
2948 1 0.564065 0.0849555 0.532784
3015 1 0.54175 0.100074 0.538223
3017 1 0.555429 0.0989601 0.533782
3012 1 0.518224 0.115499 0.539389
3014 1 0.534543 0.11619 0.538312
3016 1 0.54694 0.11241 0.53399
3087 1 0.5547 0.124277 0.530256
3082 1 0.516717 0.140249 0.53547
3081 1 0.508987 0.126746 0.539406
3084 1 0.531375 0.142114 0.532938
3083 1 0.526116 0.12805 0.53809
3085 1 0.538016 0.127351 0.533979
5536 1 0.546684 0.00612751 0.549089
5538 1 0.558657 0.000796506 0.542264
2805 1 0.54317 0.0199725 0.551239
2806 1 0.547774 0.032436 0.545951
2807 1 0.553536 0.0178866 0.543119
2875 1 0.539774 0.0453674 0.546146
2877 1 0.553685 0.0449579 0.540669
2874 1 0.535997 0.0602073 0.547416
2876 1 0.548875 0.0600223 0.543476
2941 1 0.515429 0.0764232 0.550515
210 1 0.504966 0.0896898 0.547785
2943 1 0.528915 0.0747127 0.546696
2945 1 0.54489 0.0741823 0.543661
2944 1 0.535408 0.0883101 0.543226
3011 1 0.510966 0.102233 0.543567
2942 1 0.52105 0.0898735 0.546205
3013 1 0.526879 0.101186 0.541088
280 1 0.501086 0.115007 0.541731
5534 1 0.534263 0.00941159 0.555399
5532 1 0.52138 0.0112269 0.559891
2803 1 0.530892 0.0252098 0.557283
70 1 0.505418 0.0394703 0.561004
2871 1 0.514165 0.0521248 0.556142
2873 1 0.52963 0.0471708 0.552732
2802 1 0.522155 0.038494 0.558014
2804 1 0.535405 0.0347147 0.551297
140 1 0.506648 0.0638346 0.553734
2872 1 0.523233 0.0631507 0.551024
2800 1 0.505938 0.00977871 0.562893
2801 1 0.514649 0.0245938 0.560764
5568 1 0.728072 0.970203 0.4488
2843 1 0.769288 0.981728 0.447388
2837 1 0.720904 0.983643 0.449415
2838 1 0.730027 0.997501 0.448321
2839 1 0.735131 0.982154 0.448096
2840 1 0.745413 0.996033 0.446868
2841 1 0.753135 0.981522 0.447416
2842 1 0.762545 0.995305 0.446724
2844 1 0.778407 0.996412 0.447888
4685 1 0.995726 0.658806 0.458402
4684 1 0.983174 0.670311 0.457446
4686 1 0.99967 0.673569 0.453884
4750 1 0.946151 0.692475 0.457973
4752 1 0.961033 0.693973 0.455482
4753 1 0.973326 0.683986 0.456876
4755 1 0.986581 0.684973 0.452575
4818 1 0.923983 0.712882 0.45619
4819 1 0.936244 0.701733 0.45654
4821 1 0.950215 0.707188 0.45238
4754 1 0.976408 0.696359 0.452441
4823 1 0.965527 0.707416 0.451351
4825 1 0.982725 0.710552 0.452557
4756 1 0.993978 0.698694 0.45084
4827 1 0.998615 0.715299 0.449865
4888 1 0.912791 0.725132 0.456074
4820 1 0.939097 0.717156 0.452685
4889 1 0.930122 0.728139 0.453752
4891 1 0.946318 0.731676 0.451167
4822 1 0.955796 0.719287 0.450697
4824 1 0.969915 0.722836 0.450267
4826 1 0.985804 0.725882 0.451571
4955 1 0.887589 0.73285 0.458927
4956 1 0.891757 0.748167 0.457246
4957 1 0.902154 0.734543 0.457324
4959 1 0.918029 0.739467 0.45475
4890 1 0.93457 0.742033 0.451864
4893 1 0.960762 0.735592 0.451588
4892 1 0.951471 0.748298 0.45142
4895 1 0.976936 0.73905 0.452669
4897 1 0.993463 0.740345 0.454561
5027 1 0.896366 0.761454 0.4589
4958 1 0.907747 0.749177 0.45629
4960 1 0.924067 0.753498 0.454278
5029 1 0.911831 0.765287 0.457583
4961 1 0.941442 0.758498 0.453193
4963 1 0.956546 0.762317 0.453855
4894 1 0.9678 0.752003 0.452785
4965 1 0.972011 0.76732 0.45611
4896 1 0.982453 0.753552 0.455307
4898 1 0.999662 0.756835 0.455477
5031 1 0.927245 0.768617 0.455629
4962 1 0.94343 0.773518 0.456087
4964 1 0.96066 0.777466 0.458237
4967 1 0.989479 0.768402 0.457468
5360 1 0.742133 0.888136 0.458937
5427 1 0.719183 0.900502 0.458519
5429 1 0.734551 0.901688 0.456619
5426 1 0.71085 0.91607 0.458335
5428 1 0.727642 0.914425 0.455506
5497 1 0.719061 0.929344 0.453965
5430 1 0.743605 0.915067 0.455543
5499 1 0.733411 0.928557 0.453265
5501 1 0.748855 0.929656 0.456315
5495 1 0.703857 0.929438 0.457058
5494 1 0.697512 0.943092 0.457122
5496 1 0.712011 0.942983 0.452416
5498 1 0.7292 0.941179 0.451652
5500 1 0.743167 0.941524 0.450854
5502 1 0.758668 0.944237 0.454872
5563 1 0.691467 0.956898 0.457087
5565 1 0.706662 0.956485 0.453844
5567 1 0.720608 0.955748 0.450263
5569 1 0.735603 0.956389 0.450127
5571 1 0.751148 0.954961 0.450589
5573 1 0.766081 0.95573 0.454713
5575 1 0.779164 0.958944 0.459239
5564 1 0.696079 0.9686 0.453336
5562 1 0.682608 0.970548 0.457608
5566 1 0.712111 0.969517 0.450294
5570 1 0.744353 0.970723 0.449015
5572 1 0.759792 0.967746 0.449372
5574 1 0.774176 0.970236 0.451875
5576 1 0.789334 0.973296 0.457764
2831 1 0.676143 0.986352 0.458531
2833 1 0.690992 0.984164 0.454085
2832 1 0.684149 1.00038 0.454807
2834 1 0.698994 0.997654 0.451449
2836 1 0.712037 0.998158 0.450067
2835 1 0.70616 0.982211 0.451805
2845 1 0.784669 0.98344 0.451614
2846 1 0.794626 0.99713 0.449152
2847 1 0.798649 0.983388 0.455673
2848 1 0.809376 0.996941 0.452784
2850 1 0.821413 0.999557 0.457558
4261 1 0.965254 0.499162 0.467777
4264 1 0.991514 0.512373 0.467263
4546 1 0.997755 0.619338 0.468163
4612 1 0.96364 0.639539 0.470544
4614 1 0.97847 0.641365 0.464789
4615 1 0.985538 0.63063 0.465602
4679 1 0.953768 0.651564 0.46895
4681 1 0.966589 0.653392 0.464968
4683 1 0.980777 0.653426 0.460077
4616 1 0.993661 0.642908 0.46236
4749 1 0.945 0.675738 0.461577
4747 1 0.932295 0.672239 0.467015
4678 1 0.942679 0.661147 0.467673
4680 1 0.956322 0.665729 0.463641
4682 1 0.970559 0.667349 0.459978
4814 1 0.89305 0.695346 0.46852
4746 1 0.91916 0.684868 0.465976
4748 1 0.931733 0.686891 0.462222
4751 1 0.959834 0.681332 0.459966
4880 1 0.851377 0.712444 0.470382
4883 1 0.878319 0.703852 0.466265
4816 1 0.907223 0.696992 0.464037
4885 1 0.893247 0.707873 0.46325
4887 1 0.908529 0.709898 0.459828
4817 1 0.92029 0.699687 0.459992
4948 1 0.830065 0.734076 0.466457
4949 1 0.842215 0.721718 0.46707
4951 1 0.856078 0.725946 0.463582
4953 1 0.871414 0.730675 0.460673
4882 1 0.865571 0.715982 0.464705
4884 1 0.881563 0.719512 0.461733
4886 1 0.897493 0.719866 0.459004
5017 1 0.819183 0.7436 0.465813
5019 1 0.831253 0.745804 0.46165
4950 1 0.844791 0.735625 0.46309
5021 1 0.84628 0.749538 0.461318
4952 1 0.861164 0.740022 0.460663
4954 1 0.876044 0.743782 0.460591
5083 1 0.781041 0.766152 0.466782
5016 1 0.807275 0.755851 0.465162
5018 1 0.822395 0.758604 0.462121
5020 1 0.83745 0.762268 0.460318
5022 1 0.853734 0.763518 0.459609
5023 1 0.863683 0.754015 0.461166
5024 1 0.869861 0.767541 0.459786
5025 1 0.880001 0.758964 0.459668
5080 1 0.757262 0.77646 0.470101
5082 1 0.770705 0.776174 0.465524
5084 1 0.784075 0.777741 0.46123
5085 1 0.795796 0.768584 0.4644
5086 1 0.800094 0.783778 0.460799
5087 1 0.810429 0.771215 0.46202
5088 1 0.818084 0.784983 0.461312
5089 1 0.827257 0.773191 0.460479
5091 1 0.84321 0.775832 0.459654
5093 1 0.859761 0.779274 0.462819
5026 1 0.885046 0.77322 0.461025
5095 1 0.876108 0.782312 0.462589
5097 1 0.892688 0.787548 0.463438
5028 1 0.902043 0.776566 0.460264
5030 1 0.918575 0.781084 0.460172
5032 1 0.934359 0.781509 0.458876
4966 1 0.977319 0.778616 0.459771
4968 1 0.992046 0.780539 0.462949
5148 1 0.735359 0.800799 0.468402
5149 1 0.745149 0.787836 0.468298
5151 1 0.761129 0.7882 0.466431
5150 1 0.750528 0.802647 0.464143
5153 1 0.775044 0.790959 0.462249
5155 1 0.792176 0.794331 0.460783
5157 1 0.810073 0.796271 0.461024
5090 1 0.833807 0.788552 0.461517
5159 1 0.823707 0.798052 0.464186
5092 1 0.850472 0.790141 0.462233
5161 1 0.838217 0.803021 0.464732
5094 1 0.863977 0.792841 0.464656
5096 1 0.879025 0.795738 0.466725
5099 1 0.906263 0.789935 0.464965
5098 1 0.896065 0.801484 0.467588
5101 1 0.92431 0.791531 0.465034
5100 1 0.913625 0.803059 0.469348
5103 1 0.939198 0.795596 0.464609
5033 1 0.949719 0.788381 0.459012
5034 1 0.95288 0.797662 0.466077
5035 1 0.965787 0.787617 0.462746
5036 1 0.969636 0.799869 0.467213
5037 1 0.981375 0.791602 0.46461
5039 1 0.994874 0.791173 0.46843
5217 1 0.724963 0.815428 0.468075
5219 1 0.739754 0.815612 0.463856
5221 1 0.756096 0.816876 0.46262
5152 1 0.768271 0.803407 0.46245
5154 1 0.782488 0.806347 0.46226
5223 1 0.773297 0.819494 0.462237
5156 1 0.798088 0.808304 0.463458
5225 1 0.78888 0.819434 0.465047
5158 1 0.813699 0.81167 0.464704
5160 1 0.830131 0.813825 0.465485
5163 1 0.854019 0.805093 0.467615
5162 1 0.846458 0.817799 0.468624
5165 1 0.869065 0.807018 0.469672
5102 1 0.929835 0.804972 0.469503
5104 1 0.944613 0.809707 0.470122
5214 1 0.694007 0.835246 0.470251
5216 1 0.714716 0.829242 0.46532
5218 1 0.730167 0.829092 0.465
5220 1 0.746168 0.8281 0.460662
5222 1 0.763662 0.831827 0.461109
5224 1 0.780436 0.832466 0.46353
5226 1 0.792924 0.836426 0.466961
5227 1 0.804295 0.824537 0.467236
5229 1 0.81941 0.827069 0.469283
5283 1 0.687336 0.849328 0.47035
5285 1 0.706383 0.845315 0.465154
5287 1 0.721734 0.842526 0.463956
5289 1 0.736691 0.843182 0.461438
5291 1 0.754162 0.846065 0.461293
5293 1 0.769821 0.845464 0.463631
5295 1 0.784306 0.84903 0.466232
5353 1 0.688828 0.874734 0.468465
5284 1 0.696454 0.859849 0.466633
5355 1 0.703491 0.871678 0.463156
5288 1 0.727196 0.858787 0.462055
5286 1 0.712472 0.857949 0.464431
5357 1 0.719826 0.873262 0.461576
5290 1 0.7434 0.858784 0.460996
5359 1 0.735329 0.873206 0.459986
5292 1 0.759931 0.860099 0.462232
5361 1 0.750568 0.873548 0.461139
5294 1 0.775052 0.861338 0.464123
5296 1 0.79088 0.862146 0.468305
5354 1 0.696469 0.887 0.463773
5356 1 0.710736 0.887852 0.462033
5358 1 0.727224 0.886127 0.459072
5362 1 0.757585 0.887591 0.461945
5363 1 0.767134 0.874917 0.464534
5365 1 0.779863 0.875556 0.467391
5364 1 0.770254 0.88898 0.465847
5366 1 0.783941 0.892519 0.470528
5423 1 0.691942 0.901833 0.464727
5425 1 0.70547 0.902163 0.460841
5431 1 0.749244 0.901467 0.45848
5433 1 0.76222 0.903156 0.462959
5435 1 0.775853 0.904893 0.467784
5422 1 0.685732 0.917621 0.466555
5424 1 0.696614 0.915769 0.460967
5432 1 0.756992 0.916347 0.459937
5434 1 0.769963 0.918782 0.46504
5490 1 0.673555 0.946964 0.468466
5491 1 0.676902 0.930459 0.466968
5493 1 0.690922 0.928975 0.461887
5492 1 0.682268 0.944543 0.46222
5503 1 0.764904 0.930907 0.459501
5505 1 0.780605 0.932815 0.463794
5504 1 0.771934 0.943304 0.45906
5506 1 0.786907 0.946711 0.464532
5559 1 0.664971 0.96172 0.468802
5561 1 0.677326 0.957976 0.462269
5577 1 0.795569 0.960732 0.462643
5508 1 0.801242 0.949961 0.469705
5579 1 0.810923 0.963086 0.467479
5560 1 0.667663 0.973559 0.463418
5578 1 0.803999 0.973403 0.462977
5580 1 0.818773 0.9745 0.464686
5582 1 0.833191 0.976829 0.468074
2829 1 0.664735 0.989838 0.463007
2849 1 0.814729 0.98585 0.460242
2851 1 0.826778 0.988844 0.463391
4258 1 0.942952 0.513539 0.477263
4257 1 0.932026 0.502559 0.472223
4260 1 0.959001 0.512425 0.474016
4259 1 0.949272 0.500781 0.470771
4262 1 0.975558 0.512343 0.470562
4329 1 0.953049 0.523388 0.479678
4331 1 0.968417 0.524028 0.475725
4333 1 0.982955 0.524398 0.472574
4332 1 0.977449 0.536419 0.477731
4334 1 0.992008 0.537438 0.474125
4403 1 0.987584 0.551503 0.478724
4404 1 0.995394 0.565349 0.477161
4543 1 0.979822 0.602813 0.477971
4545 1 0.994212 0.607531 0.473103
4474 1 0.989245 0.592343 0.477325
4540 1 0.955439 0.612314 0.480361
4542 1 0.970644 0.616852 0.477564
4544 1 0.983646 0.617064 0.472145
4608 1 0.936326 0.634218 0.47757
4609 1 0.944851 0.624539 0.479053
4611 1 0.959072 0.625444 0.475833
4610 1 0.949074 0.637823 0.474706
4613 1 0.973756 0.628807 0.471362
4606 1 0.925741 0.649198 0.478072
4677 1 0.938097 0.648397 0.471636
4744 1 0.903706 0.672427 0.476436
4745 1 0.917672 0.672097 0.471683
4676 1 0.927806 0.660661 0.471972
4675 1 0.914688 0.659773 0.477952
4812 1 0.878806 0.69397 0.474076
4813 1 0.891401 0.682322 0.473708
4815 1 0.903743 0.68212 0.469531
4878 1 0.837475 0.712798 0.47478
4879 1 0.851849 0.703151 0.477231
4881 1 0.864174 0.702749 0.470993
4946 1 0.816628 0.732179 0.472552
4945 1 0.816493 0.721785 0.479336
4947 1 0.828777 0.722204 0.472843
5013 1 0.791722 0.743187 0.475725
4944 1 0.805781 0.731764 0.477815
5015 1 0.804524 0.742955 0.471407
5010 1 0.756036 0.766594 0.477992
5011 1 0.764385 0.753832 0.479837
5081 1 0.770825 0.765983 0.472938
5012 1 0.777789 0.751653 0.473203
5014 1 0.792844 0.755524 0.468935
5079 1 0.74402 0.777109 0.474512
5145 1 0.706584 0.798504 0.476393
5076 1 0.716324 0.787686 0.478398
5147 1 0.722084 0.801151 0.472542
5078 1 0.73205 0.789619 0.473402
5040 1 0.999048 0.801241 0.474596
5038 1 0.983413 0.801529 0.47145
5146 1 0.713376 0.81185 0.472002
5144 1 0.69991 0.813017 0.476183
5164 1 0.860619 0.819103 0.472108
5166 1 0.875489 0.820318 0.473902
5167 1 0.884653 0.811517 0.469792
5169 1 0.902426 0.814561 0.471066
5171 1 0.91633 0.815918 0.472372
5173 1 0.933258 0.81921 0.473509
5105 1 0.960265 0.811825 0.469711
5107 1 0.974405 0.812153 0.472475
5109 1 0.98981 0.813038 0.475654
5213 1 0.689763 0.823527 0.475519
5212 1 0.682331 0.838998 0.474798
5215 1 0.702547 0.823615 0.469658
5231 1 0.837097 0.828476 0.469721
5233 1 0.850416 0.83055 0.474221
5235 1 0.864719 0.83099 0.477759
5237 1 0.878926 0.837377 0.476834
5168 1 0.889413 0.825322 0.473641
5170 1 0.90533 0.827917 0.476217
5239 1 0.896192 0.837487 0.479104
5172 1 0.920821 0.828966 0.477277
5174 1 0.937774 0.832631 0.477983
5175 1 0.949202 0.822828 0.473308
5106 1 0.964519 0.824457 0.475828
5108 1 0.97932 0.825068 0.477007
5281 1 0.67285 0.852493 0.474409
5297 1 0.799224 0.850795 0.469452
5228 1 0.809846 0.839252 0.469324
5299 1 0.817089 0.855372 0.471007
5230 1 0.824298 0.840598 0.470655
5301 1 0.828393 0.854968 0.476121
5232 1 0.840432 0.843726 0.473833
5234 1 0.855 0.844056 0.479056
5280 1 0.668918 0.866323 0.475757
5282 1 0.684204 0.86193 0.471887
5298 1 0.803256 0.865561 0.471036
5300 1 0.819328 0.867869 0.474111
5303 1 0.84484 0.856839 0.47888
5349 1 0.663392 0.880791 0.477818
5351 1 0.678064 0.878661 0.473985
5350 1 0.672311 0.894986 0.475101
5352 1 0.684482 0.888823 0.468619
5367 1 0.793162 0.878249 0.470618
5368 1 0.799691 0.890678 0.472703
5369 1 0.808473 0.87766 0.474844
5370 1 0.814125 0.892437 0.478453
5371 1 0.822828 0.880826 0.479885
5419 1 0.667283 0.907651 0.477792
5421 1 0.677342 0.905061 0.470043
5437 1 0.790269 0.906143 0.471623
5439 1 0.807211 0.90517 0.475135
5441 1 0.819239 0.907777 0.479947
5418 1 0.658279 0.922327 0.477134
5420 1 0.670588 0.919572 0.471597
5436 1 0.784155 0.919044 0.468082
5438 1 0.797896 0.919757 0.47235
5440 1 0.811544 0.922499 0.477111
5487 1 0.654301 0.93787 0.478711
5489 1 0.665461 0.936092 0.472112
5507 1 0.793157 0.934072 0.469411
5509 1 0.804727 0.934434 0.471805
5511 1 0.819143 0.934305 0.476624
5488 1 0.658361 0.950023 0.472576
5486 1 0.644843 0.954509 0.479154
5510 1 0.815778 0.948738 0.472406
5512 1 0.828928 0.948333 0.475876
5581 1 0.824938 0.963972 0.471943
5514 1 0.841721 0.953196 0.479184
5583 1 0.838475 0.963859 0.474276
5558 1 0.658014 0.978811 0.468808
5557 1 0.65393 0.966906 0.474182
5556 1 0.649285 0.980392 0.476093
5584 1 0.845556 0.977198 0.471487
5585 1 0.853098 0.965775 0.476719
5586 1 0.859776 0.98121 0.477286
2825 1 0.643547 0.993131 0.477299
2827 1 0.65303 0.994094 0.4694
2853 1 0.837571 0.990279 0.468126
2855 1 0.852919 0.990926 0.471562
2857 1 0.8668 0.996215 0.476157
4239 1 0.789865 0.501601 0.489677
4241 1 0.80611 0.500241 0.488516
4252 1 0.897011 0.504397 0.487426
4254 1 0.912137 0.506588 0.483179
4325 1 0.923439 0.51774 0.487205
4256 1 0.927188 0.509329 0.481025
4327 1 0.93757 0.521023 0.485052
4328 1 0.949448 0.532895 0.486531
4397 1 0.939874 0.543786 0.490125
4330 1 0.963064 0.53652 0.482193
4399 1 0.956297 0.545858 0.485862
4401 1 0.971108 0.550166 0.481736
4398 1 0.947641 0.558233 0.48881
4400 1 0.962874 0.561129 0.485268
4402 1 0.979639 0.564963 0.4819
4468 1 0.944386 0.586033 0.488495
4469 1 0.954255 0.572684 0.488017
4470 1 0.959161 0.586004 0.484481
4471 1 0.970225 0.574065 0.484418
4472 1 0.975533 0.586694 0.481419
4473 1 0.986227 0.577858 0.481089
4535 1 0.936818 0.599459 0.487629
4539 1 0.951033 0.599092 0.486401
4541 1 0.96514 0.601211 0.481434
4537 1 0.925872 0.611756 0.487184
4538 1 0.941808 0.611527 0.483685
4607 1 0.930074 0.622352 0.481625
4673 1 0.908103 0.636322 0.488278
4536 1 0.917934 0.624047 0.486709
4605 1 0.923059 0.639167 0.483009
4672 1 0.899319 0.649428 0.487472
4674 1 0.910512 0.648124 0.482832
4738 1 0.848358 0.679872 0.488612
4740 1 0.872923 0.670002 0.485606
4741 1 0.886717 0.659387 0.486674
4742 1 0.888216 0.671808 0.480454
4743 1 0.899592 0.661252 0.482715
4807 1 0.83749 0.688781 0.48906
4808 1 0.851568 0.6905 0.483308
4810 1 0.863871 0.693943 0.479427
4809 1 0.864138 0.68167 0.484381
4811 1 0.876988 0.682648 0.47958
4875 1 0.813912 0.710069 0.485949
4876 1 0.826731 0.712197 0.48019
4877 1 0.837808 0.701077 0.482844
4806 1 0.823785 0.699049 0.487348
4941 1 0.778345 0.731863 0.487843
4874 1 0.801311 0.72267 0.484891
4940 1 0.76418 0.742683 0.486228
4942 1 0.777001 0.744283 0.480797
4943 1 0.791518 0.735534 0.483188
5006 1 0.726321 0.763276 0.487877
5008 1 0.741674 0.764574 0.482949
5007 1 0.739154 0.753365 0.489132
5009 1 0.751735 0.754066 0.484132
5077 1 0.728682 0.774421 0.478751
5075 1 0.71536 0.775706 0.485164
5143 1 0.694062 0.79932 0.481757
5072 1 0.692443 0.785955 0.489216
5141 1 0.682762 0.800018 0.488726
5074 1 0.703752 0.7891 0.482908
5142 1 0.685392 0.811296 0.482329
5110 1 0.994838 0.824292 0.481758
5209 1 0.667551 0.830918 0.488919
5211 1 0.67974 0.82635 0.481549
5176 1 0.954406 0.834799 0.480864
5177 1 0.969793 0.836108 0.479753
5179 1 0.986189 0.836011 0.483985
5208 1 0.656999 0.841213 0.487391
5277 1 0.649159 0.855015 0.486675
5210 1 0.671164 0.840604 0.481741
5279 1 0.66287 0.854431 0.481375
5236 1 0.869912 0.846451 0.482093
5238 1 0.886103 0.849164 0.481793
5240 1 0.900363 0.850877 0.484697
5241 1 0.910835 0.84098 0.480202
5243 1 0.924835 0.843433 0.481313
5242 1 0.915909 0.853952 0.486102
5245 1 0.941933 0.845403 0.48387
5244 1 0.930493 0.857375 0.48728
5247 1 0.957255 0.85152 0.486641
5178 1 0.972755 0.845228 0.484846
5276 1 0.640396 0.868487 0.486872
5278 1 0.656625 0.867509 0.482408
5302 1 0.833432 0.868956 0.48018
5304 1 0.84806 0.868852 0.482878
5305 1 0.858901 0.85972 0.4818
5306 1 0.863964 0.873404 0.485322
5307 1 0.874192 0.860749 0.484067
5309 1 0.888732 0.862197 0.485592
5308 1 0.877837 0.873975 0.488004
5311 1 0.904574 0.865466 0.488873
5313 1 0.920334 0.869479 0.490735
5246 1 0.946258 0.858871 0.488391
5345 1 0.636626 0.882455 0.488614
5347 1 0.649836 0.881204 0.484055
5373 1 0.837229 0.882689 0.482818
5375 1 0.852227 0.885268 0.48576
5348 1 0.658806 0.894869 0.480106
5417 1 0.654298 0.910346 0.483494
5346 1 0.645323 0.896918 0.485873
5372 1 0.828026 0.894598 0.482333
5443 1 0.834778 0.908998 0.483979
5374 1 0.844597 0.896432 0.484518
5376 1 0.859778 0.900112 0.489487
5415 1 0.64066 0.911702 0.489218
5414 1 0.636503 0.927447 0.490789
5416 1 0.64893 0.923852 0.484037
5442 1 0.827517 0.923376 0.48116
5445 1 0.850468 0.912108 0.486288
5444 1 0.840709 0.92554 0.485239
5447 1 0.863334 0.916024 0.490769
5485 1 0.642792 0.939544 0.484725
5513 1 0.833902 0.937122 0.480109
5446 1 0.856291 0.928835 0.487892
5515 1 0.848774 0.941636 0.48395
5517 1 0.863834 0.943548 0.488088
5484 1 0.634403 0.955539 0.486264
5516 1 0.857474 0.955762 0.482437
5518 1 0.870758 0.959667 0.486654
5553 1 0.628562 0.971498 0.487765
5554 1 0.637272 0.982 0.482625
5555 1 0.641183 0.968426 0.481317
5587 1 0.865691 0.969382 0.480656
5589 1 0.880272 0.974975 0.485407
5552 1 0.626405 0.983896 0.489508
2823 1 0.633489 0.998013 0.484182
5588 1 0.874628 0.983958 0.479887
5590 1 0.888688 0.989289 0.484722
2859 1 0.881171 0.998582 0.480124
4152 1 0.654087 0.498872 0.498431
4229 1 0.711859 0.506624 0.50031
4231 1 0.729045 0.506622 0.497406
4233 1 0.742853 0.505916 0.495387
4235 1 0.757851 0.504545 0.493571
4238 1 0.786718 0.510798 0.497397
4237 1 0.774797 0.504351 0.491754
4236 1 0.769017 0.51291 0.49954
4240 1 0.803444 0.508759 0.494966
4242 1 0.818035 0.506024 0.495451
4244 1 0.834245 0.50629 0.49386
4315 1 0.845863 0.513199 0.498977
4246 1 0.851679 0.504224 0.492891
4248 1 0.866331 0.503091 0.491133
4317 1 0.861718 0.513804 0.497508
4250 1 0.882954 0.502104 0.490212
4319 1 0.875378 0.515546 0.49588
4321 1 0.891596 0.513991 0.493883
4323 1 0.907044 0.516459 0.490533
4320 1 0.886067 0.525211 0.49775
4322 1 0.902351 0.526851 0.496191
4324 1 0.917777 0.527145 0.494088
4326 1 0.933653 0.529316 0.489875
4395 1 0.924122 0.541796 0.494337
4393 1 0.910711 0.539725 0.498751
4463 1 0.907763 0.56864 0.498821
4394 1 0.918911 0.555159 0.497788
4465 1 0.922514 0.569997 0.494165
4396 1 0.933489 0.557851 0.494427
4467 1 0.937286 0.572173 0.490847
4464 1 0.915053 0.584731 0.495869
4466 1 0.929999 0.584845 0.492147
4533 1 0.907894 0.597266 0.49599
4534 1 0.923228 0.599182 0.492291
4601 1 0.889814 0.621018 0.497121
4604 1 0.902592 0.624819 0.492206
4603 1 0.897638 0.609241 0.496388
4532 1 0.911799 0.611369 0.491527
4600 1 0.879632 0.635554 0.496358
4602 1 0.893825 0.635722 0.492937
4668 1 0.859871 0.661617 0.498456
4669 1 0.871062 0.648641 0.498419
4670 1 0.873221 0.660567 0.491726
4671 1 0.884607 0.648062 0.491581
4736 1 0.835566 0.676195 0.495632
4737 1 0.849086 0.668753 0.495996
4739 1 0.860854 0.670445 0.491982
4805 1 0.825777 0.689853 0.495883
4873 1 0.801106 0.71322 0.493059
4871 1 0.788672 0.715453 0.498151
4804 1 0.813649 0.702339 0.492924
4870 1 0.775676 0.724866 0.496317
4872 1 0.790458 0.722757 0.490633
4936 1 0.737909 0.743951 0.496741
4938 1 0.750846 0.740121 0.490599
4939 1 0.76441 0.731853 0.492886
4937 1 0.750123 0.734566 0.498966
5002 1 0.702178 0.765518 0.497745
5004 1 0.713744 0.764215 0.493307
5005 1 0.725492 0.754602 0.493987
5003 1 0.714641 0.755376 0.500462
5071 1 0.693431 0.777387 0.497178
5073 1 0.703256 0.776666 0.490664
5070 1 0.684023 0.791268 0.495481
5140 1 0.67664 0.81695 0.488715
5139 1 0.673732 0.804979 0.49587
5138 1 0.663509 0.818789 0.495348
5205 1 0.641421 0.831131 0.499642
5207 1 0.653303 0.830762 0.494185
5204 1 0.630424 0.844725 0.498197
5275 1 0.634313 0.856007 0.492325
5206 1 0.642093 0.843551 0.493096
5249 1 0.973745 0.852716 0.490798
5180 1 0.988403 0.845003 0.489542
2381 1 0.988285 0.852902 0.49633
5273 1 0.624528 0.857033 0.49922
5272 1 0.617698 0.872747 0.500168
5274 1 0.627974 0.868599 0.493141
5315 1 0.935276 0.870564 0.491495
5248 1 0.962611 0.861976 0.492655
5317 1 0.950372 0.871575 0.494396
5250 1 0.976199 0.861597 0.49903
5343 1 0.62487 0.88371 0.495046
5377 1 0.868357 0.886976 0.489171
5379 1 0.882895 0.889321 0.491818
5310 1 0.894713 0.877234 0.490341
5312 1 0.909601 0.87987 0.492759
5381 1 0.897178 0.892631 0.493782
5314 1 0.925674 0.8847 0.493809
5316 1 0.940624 0.884596 0.494968
5342 1 0.620348 0.900187 0.498009
5344 1 0.631896 0.897793 0.491541
5378 1 0.874614 0.903358 0.491174
5380 1 0.888472 0.905116 0.492676
5382 1 0.90147 0.90757 0.497881
5384 1 0.916494 0.909177 0.499811
5383 1 0.910944 0.892953 0.497243
5385 1 0.928109 0.897571 0.496452
5413 1 0.62683 0.913324 0.493632
5449 1 0.880307 0.918192 0.493243
5451 1 0.893437 0.921893 0.494792
5453 1 0.905986 0.922481 0.500941
5481 1 0.6188 0.943503 0.498895
5412 1 0.623358 0.930335 0.496682
5483 1 0.629829 0.942073 0.491182
5448 1 0.870947 0.930048 0.492408
5450 1 0.884834 0.934958 0.494115
5452 1 0.900262 0.934215 0.49788
5454 1 0.912506 0.938645 0.499787
5482 1 0.62536 0.956147 0.493024
5519 1 0.879808 0.949629 0.489791
5520 1 0.887621 0.961166 0.49025
5521 1 0.893721 0.94801 0.493237
5523 1 0.908125 0.950474 0.497307
5551 1 0.620525 0.969966 0.494465
5591 1 0.893072 0.975895 0.490296
5522 1 0.899971 0.96411 0.495169
5593 1 0.907218 0.976459 0.495342
5524 1 0.914259 0.965563 0.498848
5595 1 0.922345 0.980043 0.49925
5550 1 0.618277 0.986467 0.497541
5592 1 0.900448 0.98956 0.489811
5596 1 0.929662 0.992228 0.497927
5594 1 0.913582 0.992204 0.493898
4138 1 0.541659 0.505508 0.50975
4140 1 0.558616 0.504205 0.507945
4142 1 0.574392 0.505033 0.50599
4144 1 0.591017 0.504026 0.503989
4146 1 0.607678 0.50395 0.502448
4217 1 0.616608 0.50995 0.509853
4219 1 0.632466 0.508743 0.508575
4150 1 0.638953 0.501595 0.501458
4221 1 0.649092 0.510433 0.505564
4223 1 0.664511 0.504677 0.505733
4225 1 0.682128 0.504541 0.50419
4226 1 0.69226 0.512923 0.50814
4227 1 0.694661 0.505273 0.501037
4228 1 0.707229 0.511918 0.507602
4230 1 0.724324 0.519023 0.503186
4232 1 0.740448 0.514046 0.50363
4234 1 0.754383 0.513715 0.500004
4307 1 0.780278 0.517724 0.505122
4309 1 0.796608 0.517397 0.503322
4311 1 0.811973 0.516613 0.501669
4313 1 0.828911 0.513982 0.501763
4303 1 0.749708 0.521405 0.508728
4305 1 0.765084 0.521016 0.506991
4310 1 0.807115 0.526194 0.508863
4312 1 0.822555 0.524757 0.507381
4314 1 0.839297 0.525904 0.504559
4316 1 0.855014 0.524904 0.503349
4318 1 0.871205 0.527233 0.500283
4383 1 0.832079 0.535862 0.508905
4385 1 0.849908 0.538739 0.507589
4387 1 0.865673 0.537969 0.506005
4386 1 0.857889 0.550869 0.509658
4388 1 0.875191 0.5515 0.507151
4389 1 0.881318 0.537981 0.503264
4390 1 0.889438 0.552236 0.505094
4391 1 0.895126 0.53941 0.501012
4457 1 0.866389 0.566161 0.510269
4459 1 0.882905 0.567493 0.508399
4461 1 0.89557 0.566714 0.504521
4392 1 0.904123 0.553985 0.501677
4460 1 0.888446 0.582502 0.506718
4462 1 0.9022 0.582725 0.500737
4529 1 0.87913 0.594912 0.505045
4531 1 0.89331 0.594374 0.501057
4528 1 0.869758 0.608862 0.505491
4597 1 0.86044 0.621218 0.506536
4599 1 0.875871 0.624697 0.502113
4530 1 0.883419 0.608475 0.501725
4596 1 0.850025 0.635654 0.507208
4598 1 0.866244 0.636858 0.50324
4664 1 0.832909 0.658848 0.509023
4666 1 0.846281 0.661047 0.504087
4665 1 0.84243 0.646808 0.508895
4667 1 0.856412 0.647418 0.502749
4733 1 0.822286 0.669277 0.509714
4735 1 0.835723 0.669404 0.503096
4801 1 0.802562 0.694036 0.506574
4732 1 0.811909 0.683539 0.508766
4803 1 0.812471 0.692031 0.501383
4734 1 0.824315 0.681267 0.502754
4800 1 0.789823 0.706403 0.505777
4802 1 0.801819 0.703037 0.499022
4866 1 0.752799 0.726543 0.507588
4867 1 0.767891 0.717113 0.509345
4868 1 0.763028 0.726844 0.501614
4869 1 0.776449 0.714853 0.502731
4932 1 0.714368 0.747483 0.506659
4934 1 0.727935 0.743585 0.501436
4935 1 0.7412 0.736168 0.505682
5000 1 0.688171 0.766189 0.503965
5001 1 0.700176 0.75502 0.505692
5067 1 0.667831 0.783315 0.509671
4998 1 0.679255 0.769155 0.510481
5069 1 0.680634 0.78038 0.503269
5066 1 0.659356 0.798041 0.509474
5068 1 0.671092 0.795508 0.502462
5134 1 0.639851 0.820056 0.506432
5135 1 0.649551 0.806885 0.508004
5136 1 0.650426 0.817995 0.501044
5137 1 0.661577 0.806547 0.501952
5203 1 0.630459 0.833117 0.505354
5202 1 0.620837 0.848084 0.505865
5271 1 0.613196 0.861081 0.506327
5319 1 0.964126 0.874039 0.500575
2382 1 0.991854 0.865758 0.503283
5339 1 0.602408 0.890342 0.509539
5270 1 0.609332 0.877716 0.507809
5341 1 0.612355 0.88791 0.501965
5318 1 0.953474 0.887996 0.499059
2451 1 0.978459 0.874553 0.504521
5320 1 0.965798 0.88779 0.504647
2452 1 0.981662 0.886151 0.508804
2453 1 0.992155 0.876839 0.507363
5340 1 0.611105 0.902357 0.504915
5387 1 0.944613 0.898376 0.499916
5389 1 0.960644 0.900686 0.504406
2521 1 0.973919 0.899571 0.508281
5409 1 0.60555 0.918929 0.507215
5411 1 0.617982 0.915502 0.499925
5455 1 0.923604 0.924655 0.500726
5386 1 0.934056 0.911662 0.501102
5457 1 0.939927 0.926129 0.502798
5388 1 0.949103 0.912443 0.504345
5390 1 0.964514 0.916972 0.5053
5408 1 0.602132 0.935609 0.509397
5410 1 0.612711 0.93175 0.502295
5479 1 0.607682 0.946364 0.504099
5456 1 0.928379 0.940336 0.503292
5458 1 0.944791 0.93954 0.506103
5459 1 0.954721 0.927968 0.506217
5478 1 0.605331 0.960521 0.507374
5480 1 0.614978 0.957564 0.500709
5525 1 0.92033 0.952476 0.501641
5527 1 0.936743 0.955614 0.505212
5529 1 0.950957 0.954584 0.508936
5547 1 0.604385 0.975078 0.51074
5549 1 0.611658 0.973561 0.502591
5526 1 0.929769 0.965425 0.502819
5528 1 0.943525 0.967743 0.507048
5597 1 0.93597 0.981265 0.50318
5548 1 0.608365 0.988751 0.505985
5598 1 0.941289 0.994523 0.503037
5599 1 0.947771 0.982093 0.507815
5600 1 0.956755 0.997389 0.507494
4134 1 0.513052 0.502883 0.516712
4136 1 0.526982 0.507092 0.51072
4209 1 0.552988 0.517279 0.51431
4207 1 0.536922 0.513531 0.517032
4211 1 0.570201 0.516251 0.51304
4213 1 0.585304 0.514695 0.510817
4215 1 0.599246 0.513127 0.509453
4216 1 0.610966 0.518383 0.515911
4220 1 0.643922 0.517552 0.513698
4222 1 0.658732 0.513847 0.51274
4224 1 0.676055 0.515171 0.509949
4210 1 0.56095 0.52715 0.518598
4212 1 0.578559 0.52513 0.518594
4214 1 0.594479 0.520783 0.518033
4218 1 0.625819 0.517949 0.516135
4289 1 0.635934 0.526817 0.51976
4291 1 0.651975 0.526089 0.518363
4293 1 0.668137 0.523032 0.517491
4295 1 0.683683 0.523348 0.515179
4296 1 0.695605 0.533838 0.519032
4297 1 0.69898 0.523626 0.513358
4301 1 0.73279 0.521633 0.510599
4299 1 0.716819 0.523063 0.51188
4300 1 0.725672 0.532023 0.517384
4302 1 0.742539 0.531127 0.516405
4304 1 0.76004 0.528627 0.514142
4306 1 0.776463 0.526487 0.513393
4308 1 0.791569 0.526966 0.511295
4298 1 0.709934 0.535429 0.516904
4371 1 0.735289 0.544886 0.519311
4373 1 0.751897 0.541776 0.518911
4375 1 0.769622 0.539726 0.518534
4377 1 0.785275 0.539961 0.516843
4379 1 0.800536 0.539846 0.51439
4378 1 0.793465 0.552408 0.518105
4381 1 0.816761 0.537315 0.511877
4380 1 0.809156 0.549435 0.515975
4382 1 0.827006 0.547838 0.515514
4384 1 0.841326 0.549736 0.511771
4451 1 0.820044 0.562395 0.519537
4453 1 0.834726 0.563567 0.5163
4455 1 0.850088 0.56396 0.512274
4452 1 0.826533 0.577042 0.519248
4454 1 0.84315 0.577679 0.515154
4458 1 0.874936 0.581712 0.509951
4456 1 0.858479 0.578817 0.512216
4523 1 0.834825 0.591467 0.516905
4522 1 0.825954 0.603325 0.518614
4525 1 0.850534 0.59261 0.512769
4524 1 0.840353 0.606098 0.514146
4527 1 0.864587 0.594185 0.5098
4591 1 0.819336 0.619036 0.520164
4593 1 0.832657 0.618963 0.517691
4526 1 0.854731 0.6076 0.51084
4595 1 0.844981 0.620501 0.511694
4592 1 0.827329 0.633254 0.518531
4594 1 0.838321 0.633987 0.513439
4662 1 0.821578 0.657799 0.514901
4661 1 0.817888 0.644171 0.519405
4660 1 0.80889 0.659026 0.521095
4663 1 0.830157 0.645871 0.515396
4731 1 0.812771 0.673551 0.516092
4797 1 0.778012 0.697029 0.520356
4799 1 0.789744 0.694757 0.51342
4728 1 0.789621 0.683254 0.520997
4730 1 0.799167 0.683545 0.514
4796 1 0.768082 0.709206 0.518745
4798 1 0.779235 0.70684 0.512157
4862 1 0.728682 0.731266 0.518527
4864 1 0.739897 0.727926 0.513242
4865 1 0.754212 0.717923 0.516023
4928 1 0.688865 0.748973 0.520409
4930 1 0.701937 0.748289 0.513691
4933 1 0.728004 0.739131 0.510149
4931 1 0.715783 0.740069 0.515916
4997 1 0.676589 0.758931 0.517634
4999 1 0.690048 0.756579 0.511607
4996 1 0.668508 0.772814 0.518029
5065 1 0.659503 0.786545 0.517609
5064 1 0.649919 0.799091 0.516207
5133 1 0.638946 0.810166 0.514445
5131 1 0.625964 0.814478 0.521427
5201 1 0.620911 0.837917 0.513947
5132 1 0.627741 0.82288 0.513197
5198 1 0.600982 0.854202 0.520182
5200 1 0.61279 0.851763 0.51401
5269 1 0.606352 0.864537 0.514077
5268 1 0.598289 0.879656 0.514811
2454 1 0.995418 0.888831 0.512346
5338 1 0.59868 0.906327 0.511387
5337 1 0.594867 0.895146 0.517049
2523 1 0.986442 0.902297 0.512312
5336 1 0.589064 0.908274 0.519803
5407 1 0.59558 0.920081 0.51348
2522 1 0.977003 0.916635 0.511249
2593 1 0.97969 0.930012 0.516026
2524 1 0.992957 0.917892 0.516057
5406 1 0.593823 0.93725 0.51641
5460 1 0.95849 0.942594 0.511364
2591 1 0.966713 0.930255 0.512049
2592 1 0.971496 0.943631 0.515839
2594 1 0.985685 0.941844 0.519464
5475 1 0.586966 0.951842 0.518286
5477 1 0.597102 0.950222 0.511303
5476 1 0.593021 0.963246 0.515202
2661 1 0.964018 0.956888 0.513051
2663 1 0.978236 0.956701 0.518365
5545 1 0.592721 0.977584 0.51769
5530 1 0.955845 0.969587 0.512115
2662 1 0.968482 0.972158 0.516655
2664 1 0.984243 0.970639 0.519726
5544 1 0.587543 0.99388 0.520842
5546 1 0.598913 0.990982 0.513129
2731 1 0.960653 0.985652 0.511816
2732 1 0.971474 0.997266 0.510735
2733 1 0.976457 0.983401 0.515821
2734 1 0.987067 0.997098 0.514991
2735 1 0.993766 0.986075 0.51965
4203 1 0.508698 0.507495 0.526421
4205 1 0.523534 0.512768 0.521097
4204 1 0.518738 0.519391 0.529785
4206 1 0.531783 0.523448 0.524563
4208 1 0.544859 0.525147 0.521341
4277 1 0.542235 0.532168 0.529989
4279 1 0.55595 0.532257 0.526593
4281 1 0.572443 0.532396 0.525095
4283 1 0.589603 0.532342 0.522951
4285 1 0.605441 0.529699 0.521314
4287 1 0.620652 0.528419 0.522042
4290 1 0.646252 0.536239 0.525875
4292 1 0.662757 0.535155 0.523135
4294 1 0.678866 0.535031 0.522066
4284 1 0.60027 0.54037 0.528471
4286 1 0.615921 0.53806 0.52723
4288 1 0.631241 0.53826 0.527169
4361 1 0.656008 0.545815 0.529902
4363 1 0.671966 0.545274 0.528779
4365 1 0.688288 0.544751 0.526081
4367 1 0.705137 0.543685 0.525057
4369 1 0.721355 0.546588 0.521543
4372 1 0.746222 0.55538 0.523117
4374 1 0.762433 0.551342 0.522416
4376 1 0.780099 0.551891 0.520607
4368 1 0.71443 0.556767 0.525462
4366 1 0.699438 0.557245 0.528922
4370 1 0.729026 0.557157 0.522899
4439 1 0.722689 0.569896 0.527056
4441 1 0.738495 0.567303 0.527369
4443 1 0.755128 0.565198 0.527291
4445 1 0.770753 0.565962 0.52422
4449 1 0.803664 0.562186 0.519313
4447 1 0.786822 0.566009 0.521947
4442 1 0.748496 0.58014 0.53208
4444 1 0.764674 0.578166 0.52853
4446 1 0.781231 0.577668 0.527511
4448 1 0.796918 0.577068 0.523442
4450 1 0.81306 0.576809 0.523224
4515 1 0.7738 0.590784 0.5308
4518 1 0.796493 0.604451 0.527208
4517 1 0.789113 0.590485 0.529428
4521 1 0.81978 0.592286 0.522656
4519 1 0.805654 0.590322 0.526577
4520 1 0.81152 0.605513 0.5233
4589 1 0.806974 0.617091 0.526714
4588 1 0.799185 0.631063 0.530245
4590 1 0.81231 0.632567 0.524241
4656 1 0.780697 0.658032 0.531125
4657 1 0.790934 0.646128 0.530646
4658 1 0.795144 0.659366 0.526664
4659 1 0.805552 0.646015 0.525755
4727 1 0.783835 0.673432 0.526135
4725 1 0.76892 0.671967 0.530465
4729 1 0.799601 0.673287 0.522143
4793 1 0.747651 0.697026 0.529898
4724 1 0.75747 0.682139 0.530352
4795 1 0.76386 0.696109 0.525392
4726 1 0.773749 0.682724 0.525646
4792 1 0.737054 0.706986 0.527811
4794 1 0.753656 0.708218 0.523942
4858 1 0.701881 0.731373 0.529382
4860 1 0.71286 0.728459 0.523157
4859 1 0.710134 0.717341 0.529524
4861 1 0.725458 0.719358 0.524984
4863 1 0.739469 0.71875 0.521666
4927 1 0.690556 0.740643 0.528689
4929 1 0.704043 0.740259 0.522659
4995 1 0.667855 0.762532 0.525656
4926 1 0.678199 0.750091 0.525927
4994 1 0.657569 0.776599 0.524592
4992 1 0.64782 0.777931 0.530531
5062 1 0.635899 0.802385 0.521123
5061 1 0.637567 0.79262 0.530016
5063 1 0.64672 0.78867 0.523984
5129 1 0.615463 0.818317 0.528482
5060 1 0.624585 0.80499 0.528502
5128 1 0.60505 0.829271 0.527375
5130 1 0.616266 0.826969 0.520528
5196 1 0.592769 0.855038 0.52716
5197 1 0.597359 0.841748 0.526332
5199 1 0.610503 0.840389 0.520039
5265 1 0.587693 0.871768 0.528227
5267 1 0.594275 0.869213 0.520625
5266 1 0.589936 0.883277 0.522436
5335 1 0.586186 0.899133 0.525743
5405 1 0.586174 0.923527 0.521826
5334 1 0.580719 0.914548 0.528155
5403 1 0.579737 0.92962 0.530331
5404 1 0.583877 0.938439 0.524591
2595 1 0.99616 0.930476 0.520482
5473 1 0.580115 0.953442 0.528022
2665 1 0.992011 0.955325 0.523337
5474 1 0.585033 0.966286 0.522519
5543 1 0.581595 0.981501 0.524966
2666 1 0.998925 0.971872 0.523082
5542 1 0.578198 0.997596 0.527856
4202 1 0.504663 0.513469 0.533837
4273 1 0.514363 0.524092 0.5382
4275 1 0.527854 0.530806 0.533795
4276 1 0.537181 0.541508 0.538463
4278 1 0.552912 0.54063 0.53518
4280 1 0.567618 0.54066 0.532748
4282 1 0.582772 0.541104 0.529866
4351 1 0.575792 0.550833 0.539733
4353 1 0.59241 0.548807 0.536427
4355 1 0.609663 0.550174 0.533703
4357 1 0.626945 0.549909 0.53197
4359 1 0.642614 0.547405 0.532465
4356 1 0.620754 0.556856 0.538688
4358 1 0.636339 0.557256 0.539283
4360 1 0.652367 0.556602 0.538086
4362 1 0.667428 0.555482 0.534813
4433 1 0.678249 0.567303 0.538402
4364 1 0.682968 0.557473 0.532029
4435 1 0.694161 0.565878 0.533928
4437 1 0.710983 0.568689 0.531189
4436 1 0.700523 0.57935 0.536709
4438 1 0.716645 0.581758 0.533067
4440 1 0.731119 0.581416 0.531178
4507 1 0.710673 0.592936 0.540235
4509 1 0.724452 0.594946 0.536173
4511 1 0.741883 0.594494 0.533762
4513 1 0.757533 0.590879 0.53228
4514 1 0.767559 0.604299 0.534464
4516 1 0.781529 0.604275 0.531647
4510 1 0.735322 0.607094 0.539142
4512 1 0.751531 0.604418 0.536915
4583 1 0.760985 0.619523 0.538156
4585 1 0.775349 0.618831 0.534419
4587 1 0.791573 0.616899 0.531339
4584 1 0.76819 0.63394 0.537336
4586 1 0.783722 0.631795 0.533332
4653 1 0.761024 0.645822 0.539354
4652 1 0.752119 0.659362 0.54155
4654 1 0.765021 0.657917 0.535882
4655 1 0.775553 0.646208 0.534369
4723 1 0.755386 0.672423 0.537161
4789 1 0.720177 0.696108 0.539245
4720 1 0.729392 0.685635 0.540879
4722 1 0.745313 0.684039 0.536523
4791 1 0.732795 0.695562 0.535585
4788 1 0.709 0.707399 0.538254
4790 1 0.723064 0.710374 0.533195
4856 1 0.688602 0.732957 0.536131
4857 1 0.699361 0.7205 0.537479
4925 1 0.677947 0.740678 0.533028
4993 1 0.659095 0.766518 0.532786
4922 1 0.659144 0.757581 0.540616
4924 1 0.669575 0.754017 0.53289
4990 1 0.635277 0.780128 0.535984
4991 1 0.647265 0.769554 0.537554
5059 1 0.624214 0.791769 0.535855
5127 1 0.605239 0.818511 0.533851
5125 1 0.592037 0.820919 0.539345
5058 1 0.615228 0.805106 0.535271
5124 1 0.580171 0.833296 0.537709
5126 1 0.597311 0.832206 0.533965
5195 1 0.588101 0.844928 0.533408
5193 1 0.577884 0.848406 0.539438
5194 1 0.581782 0.860749 0.53425
5263 1 0.576398 0.873899 0.536034
5262 1 0.569262 0.888578 0.538423
5264 1 0.580334 0.885797 0.53093
5331 1 0.564053 0.903855 0.53972
5333 1 0.576158 0.900281 0.532687
5330 1 0.560168 0.919487 0.541329
5332 1 0.570777 0.916672 0.534846
5401 1 0.567398 0.931152 0.536466
5400 1 0.561607 0.944624 0.539657
5402 1 0.574483 0.942128 0.532784
5471 1 0.570369 0.957945 0.536049
5470 1 0.566819 0.972436 0.538149
5472 1 0.576297 0.969354 0.530808
5539 1 0.562042 0.985308 0.539896
5541 1 0.574355 0.983985 0.532801
4272 1 0.509105 0.536088 0.544157
4274 1 0.523775 0.536114 0.541898
4343 1 0.518296 0.543544 0.549654
4345 1 0.533408 0.544079 0.547007
4347 1 0.546536 0.550619 0.542648
4349 1 0.562338 0.550998 0.540762
4348 1 0.557645 0.559935 0.548003
4350 1 0.572258 0.561255 0.545828
4352 1 0.587494 0.558557 0.542905
4421 1 0.583126 0.569028 0.551119
4354 1 0.605103 0.555815 0.541759
4423 1 0.598761 0.56699 0.548831
4425 1 0.616212 0.566635 0.546433
4427 1 0.631256 0.563643 0.545255
4429 1 0.64781 0.564422 0.544207
4431 1 0.663058 0.566922 0.541003
4426 1 0.624096 0.573465 0.551517
4428 1 0.640543 0.578073 0.548752
4430 1 0.657484 0.575491 0.548013
4432 1 0.671992 0.576015 0.546079
4501 1 0.666329 0.589015 0.551011
4434 1 0.690075 0.577265 0.543484
4503 1 0.681168 0.590676 0.546577
4505 1 0.698317 0.591022 0.543788
4504 1 0.69039 0.602698 0.549379
4506 1 0.705106 0.605276 0.546767
4577 1 0.713098 0.620266 0.547358
4508 1 0.719643 0.607481 0.541921
4579 1 0.730121 0.621737 0.544485
4581 1 0.746447 0.619986 0.541234
4578 1 0.722927 0.633218 0.548578
4580 1 0.739506 0.633226 0.546007
4582 1 0.754752 0.634725 0.542778
4648 1 0.722837 0.660103 0.550072
4649 1 0.733333 0.645281 0.550228
4651 1 0.747513 0.648297 0.545767
4717 1 0.710412 0.670658 0.550118
4719 1 0.726359 0.673715 0.545335
4721 1 0.740389 0.672664 0.540768
4650 1 0.73709 0.659235 0.546941
4785 1 0.691738 0.695878 0.548294
4716 1 0.701054 0.682987 0.548839
4787 1 0.70525 0.694793 0.543492
4718 1 0.714062 0.682396 0.544914
4784 1 0.683614 0.7092 0.547026
4786 1 0.696962 0.70997 0.543676
4853 1 0.676206 0.722619 0.54817
4855 1 0.689994 0.724606 0.543241
4921 1 0.654431 0.747057 0.54625
4923 1 0.668749 0.74471 0.540539
4854 1 0.678836 0.73353 0.541644
4852 1 0.664567 0.733708 0.547772
4918 1 0.632914 0.75962 0.550968
4920 1 0.645457 0.759891 0.544489
4988 1 0.622491 0.782554 0.542257
4986 1 0.609943 0.783553 0.548118
4987 1 0.620789 0.771596 0.54786
4989 1 0.6336 0.769419 0.542436
5055 1 0.601944 0.797525 0.547859
5057 1 0.61318 0.794321 0.541902
5054 1 0.5898 0.81023 0.545866
5056 1 0.603582 0.807281 0.540637
5122 1 0.570675 0.835858 0.545485
5121 1 0.567221 0.822755 0.550587
5123 1 0.577625 0.821045 0.545366
5191 1 0.568579 0.853538 0.547501
5190 1 0.561435 0.866561 0.548155
5192 1 0.572144 0.863467 0.541923
5261 1 0.564892 0.878732 0.543817
5259 1 0.557034 0.880589 0.550555
5258 1 0.548309 0.894154 0.551172
5260 1 0.55967 0.893662 0.544555
5329 1 0.554376 0.907813 0.546687
5328 1 0.548577 0.919883 0.548488
5397 1 0.544192 0.936022 0.550045
5399 1 0.555729 0.933412 0.542853
5467 1 0.547881 0.961296 0.550793
5398 1 0.551111 0.947159 0.545797
5469 1 0.560724 0.961128 0.543553
5466 1 0.543551 0.976734 0.550926
5468 1 0.555562 0.973831 0.545538
5537 1 0.549882 0.989293 0.546913
4341 1 0.504147 0.544634 0.552944
4342 1 0.513399 0.552696 0.557527
4344 1 0.527146 0.556256 0.553826
4346 1 0.542366 0.556038 0.551486
4415 1 0.537735 0.5653 0.559972
4417 1 0.550896 0.567963 0.556356
4419 1 0.567737 0.570679 0.553457
4418 1 0.561498 0.578977 0.559068
4420 1 0.577185 0.580044 0.556863
4422 1 0.593036 0.579165 0.555245
4493 1 0.601347 0.587856 0.55912
4424 1 0.607894 0.577412 0.552431
4497 1 0.633354 0.587118 0.553927
4491 1 0.584606 0.590975 0.561429
4495 1 0.618031 0.587883 0.556364
4496 1 0.627156 0.60095 0.558086
4498 1 0.642359 0.599329 0.556241
4499 1 0.649674 0.588016 0.552188
4500 1 0.659054 0.601644 0.554337
4502 1 0.675344 0.601461 0.552944
4569 1 0.65015 0.613585 0.557695
4571 1 0.666443 0.614461 0.555637
4573 1 0.683051 0.612788 0.554728
4575 1 0.697884 0.617038 0.550965
4639 1 0.651175 0.643032 0.560152
4570 1 0.659206 0.626643 0.55884
4568 1 0.646367 0.629514 0.560014
4572 1 0.676461 0.627235 0.557257
4574 1 0.688678 0.628385 0.554209
4643 1 0.681771 0.640881 0.555582
4576 1 0.706285 0.631087 0.552164
4645 1 0.699583 0.642718 0.554595
4640 1 0.657677 0.655413 0.558755
4641 1 0.666299 0.642051 0.556981
4642 1 0.672887 0.654834 0.556912
4644 1 0.689817 0.655883 0.554993
4646 1 0.705288 0.657251 0.552239
4647 1 0.7161 0.64504 0.552968
4711 1 0.66332 0.669502 0.558122
4713 1 0.680082 0.667883 0.555404
4715 1 0.696892 0.670086 0.553806
4710 1 0.657908 0.684492 0.560152
4712 1 0.672438 0.681747 0.555161
4781 1 0.664807 0.697173 0.557771
4783 1 0.676491 0.697351 0.552707
4714 1 0.685212 0.683149 0.551838
4780 1 0.654394 0.708265 0.557542
4782 1 0.669622 0.710162 0.552595
4849 1 0.647889 0.723176 0.558255
4851 1 0.661166 0.719953 0.553262
4915 1 0.612793 0.747566 0.55983
4919 1 0.642374 0.748337 0.55223
4848 1 0.637332 0.735036 0.5578
4917 1 0.62729 0.74727 0.556671
4850 1 0.649863 0.733288 0.552784
4914 1 0.602812 0.757351 0.558639
4916 1 0.619106 0.760479 0.555
4982 1 0.583091 0.786482 0.558327
4984 1 0.596749 0.784779 0.553936
4983 1 0.59269 0.771969 0.557875
4985 1 0.605877 0.770393 0.553601
5053 1 0.589056 0.798913 0.553128
5051 1 0.57421 0.797309 0.558274
5050 1 0.564852 0.810101 0.55683
5052 1 0.576959 0.809026 0.55128
5120 1 0.561708 0.839444 0.552099
5119 1 0.559071 0.827045 0.558826
5118 1 0.55239 0.841841 0.560052
5189 1 0.557672 0.854655 0.554622
5188 1 0.551274 0.868857 0.557005
5257 1 0.543755 0.881151 0.556939
5325 1 0.530431 0.9097 0.559694
5327 1 0.541552 0.909436 0.55338
5256 1 0.538244 0.893828 0.557654
5324 1 0.526356 0.925315 0.559391
5326 1 0.536988 0.924564 0.554946
5395 1 0.532819 0.938976 0.556017
5394 1 0.529751 0.953396 0.558807
5396 1 0.541538 0.950903 0.554183
5463 1 0.526005 0.966928 0.561876
5464 1 0.53225 0.980065 0.55475
5465 1 0.537457 0.96561 0.556337
5533 1 0.528154 0.994494 0.558656
5535 1 0.541611 0.994477 0.552704
4411 1 0.50637 0.562956 0.562601
4413 1 0.523811 0.56279 0.562295
4412 1 0.515157 0.572864 0.569129
4414 1 0.53175 0.575263 0.56652
4483 1 0.52557 0.585108 0.571711
4416 1 0.545478 0.579791 0.563952
4485 1 0.539392 0.588035 0.568692
4486 1 0.547373 0.60005 0.570195
4487 1 0.555962 0.588864 0.566818
4489 1 0.569704 0.591005 0.562789
4488 1 0.564447 0.602526 0.568349
4490 1 0.580526 0.603754 0.566007
4492 1 0.594756 0.601032 0.56392
4494 1 0.611466 0.599949 0.562439
4561 1 0.589823 0.613755 0.569095
4563 1 0.605523 0.61407 0.56644
4565 1 0.62113 0.612866 0.562373
4567 1 0.637159 0.614666 0.560686
4633 1 0.606719 0.640755 0.56996
4562 1 0.598939 0.628836 0.571256
4564 1 0.614495 0.625358 0.567416
4635 1 0.619698 0.641162 0.567335
4566 1 0.629625 0.628916 0.563012
4637 1 0.635422 0.642682 0.562939
4634 1 0.614045 0.655592 0.569343
4636 1 0.627145 0.653631 0.563664
4638 1 0.643996 0.655936 0.562519
4703 1 0.603908 0.668462 0.571266
4705 1 0.619979 0.668895 0.567429
4707 1 0.633161 0.669597 0.563542
4709 1 0.648885 0.670123 0.561933
4706 1 0.626376 0.683296 0.567595
4708 1 0.641834 0.684702 0.564597
4775 1 0.619194 0.696178 0.570563
4774 1 0.608252 0.708973 0.570986
4776 1 0.625748 0.708531 0.568794
4778 1 0.640213 0.710327 0.562927
4777 1 0.635119 0.697807 0.567141
4779 1 0.64969 0.697225 0.56277
4843 1 0.60151 0.722175 0.570452
4845 1 0.616108 0.719728 0.565972
4847 1 0.632725 0.722104 0.563488
4911 1 0.581714 0.746648 0.567781
4913 1 0.597366 0.746899 0.564485
4842 1 0.594371 0.734135 0.569226
4846 1 0.623163 0.733273 0.561362
4844 1 0.610758 0.734373 0.566352
4908 1 0.558152 0.761267 0.57146
4910 1 0.574228 0.759747 0.567962
4912 1 0.58964 0.759822 0.563789
4979 1 0.566 0.773174 0.56777
4980 1 0.568494 0.78499 0.563874
4981 1 0.577902 0.771748 0.562998
5047 1 0.551179 0.800723 0.570119
4978 1 0.55583 0.785313 0.568793
5049 1 0.562013 0.798009 0.563333
5046 1 0.545305 0.816681 0.57027
5048 1 0.55463 0.812971 0.564661
5117 1 0.550176 0.83006 0.565836
5185 1 0.53281 0.857136 0.56856
5187 1 0.547648 0.856789 0.56326
5116 1 0.542606 0.841974 0.568557
5184 1 0.526146 0.871336 0.568184
5186 1 0.539971 0.868846 0.564011
5253 1 0.518505 0.886524 0.568671
5255 1 0.532362 0.883463 0.562535
5252 1 0.510975 0.899554 0.568726
5254 1 0.525072 0.897234 0.563938
5323 1 0.518676 0.912944 0.565271
5322 1 0.514794 0.927784 0.566011
5321 1 0.503961 0.9121 0.567932
5391 1 0.507841 0.94102 0.565907
5393 1 0.523461 0.940353 0.562209
5392 1 0.518468 0.954053 0.564878
2660 1 0.502986 0.957034 0.568711
5461 1 0.511415 0.969603 0.564842
5462 1 0.519644 0.97995 0.561387
2730 1 0.504128 0.983515 0.565047
5531 1 0.513643 0.996837 0.562479
4481 1 0.510354 0.58651 0.572752
1750 1 0.503363 0.599582 0.578308
4482 1 0.518566 0.599786 0.575336
4484 1 0.532313 0.598217 0.57367
4551 1 0.510091 0.612826 0.579091
4553 1 0.526825 0.611911 0.576753
4554 1 0.535546 0.626194 0.579227
4552 1 0.518304 0.624341 0.582244
4555 1 0.540369 0.612153 0.574735
4556 1 0.549501 0.62554 0.576331
4557 1 0.556795 0.613642 0.573157
4559 1 0.57248 0.613198 0.571174
4558 1 0.565998 0.624803 0.576168
4627 1 0.559391 0.63598 0.579085
4560 1 0.582782 0.62601 0.573475
4629 1 0.576067 0.637816 0.57662
4631 1 0.593113 0.640164 0.574227
4628 1 0.567432 0.650332 0.581125
4630 1 0.581303 0.65163 0.57662
4632 1 0.597429 0.654976 0.572159
4699 1 0.575491 0.664106 0.579419
4701 1 0.589217 0.667608 0.57524
4698 1 0.567679 0.680259 0.581206
4700 1 0.582098 0.680936 0.578234
4769 1 0.57279 0.693901 0.579902
4771 1 0.588135 0.695339 0.575765
4702 1 0.596783 0.682692 0.575173
4773 1 0.601792 0.695018 0.573091
4704 1 0.611408 0.680119 0.57227
4768 1 0.566091 0.706859 0.580695
4770 1 0.581147 0.708743 0.576977
4772 1 0.59536 0.708056 0.573295
4837 1 0.554696 0.719403 0.579801
4839 1 0.571167 0.718813 0.57824
4838 1 0.562893 0.731041 0.575432
4841 1 0.584547 0.721337 0.573234
4905 1 0.538321 0.745906 0.577438
4836 1 0.545316 0.731712 0.576934
4907 1 0.554187 0.746343 0.575329
4909 1 0.567674 0.747098 0.573063
4840 1 0.57925 0.733225 0.572935
4904 1 0.532408 0.760456 0.579023
4906 1 0.545069 0.762032 0.575205
4973 1 0.526821 0.774278 0.582026
4977 1 0.552278 0.775322 0.573385
4975 1 0.537421 0.776514 0.577551
4974 1 0.530207 0.791126 0.578697
4976 1 0.544595 0.79112 0.574927
5044 1 0.529581 0.817116 0.574704
5042 1 0.516919 0.815887 0.579973
5043 1 0.522661 0.802717 0.579838
5045 1 0.537339 0.804332 0.574937
5113 1 0.523075 0.831612 0.576136
5115 1 0.5375 0.827926 0.572658
5112 1 0.514833 0.844415 0.577934
5114 1 0.530202 0.842991 0.57437
2450 1 0.501466 0.874544 0.578238
5182 1 0.514075 0.871945 0.573553
5181 1 0.507393 0.859204 0.578802
5183 1 0.520039 0.857817 0.573307
5251 1 0.504652 0.886399 0.573042
1820 1 0.50173 0.625009 0.582972
4621 1 0.512322 0.63683 0.585628
4623 1 0.528502 0.638826 0.583853
4625 1 0.544243 0.636974 0.582174
1890 1 0.503434 0.650415 0.588936
4622 1 0.519449 0.650668 0.586585
4624 1 0.53709 0.65233 0.585407
4626 1 0.551478 0.650694 0.583364
4691 1 0.510996 0.666124 0.588864
4693 1 0.527769 0.666343 0.586552
4695 1 0.544468 0.665251 0.586271
4696 1 0.55024 0.679142 0.58566
4697 1 0.560186 0.664664 0.583366
4761 1 0.513393 0.694639 0.591281
4692 1 0.521398 0.678435 0.589811
4763 1 0.528141 0.694705 0.59004
4694 1 0.535857 0.678769 0.588845
4765 1 0.543892 0.692408 0.586982
4767 1 0.558456 0.693561 0.582329
2030 1 0.503046 0.707825 0.592282
4762 1 0.517141 0.707369 0.588639
4764 1 0.531912 0.706389 0.587106
4766 1 0.548386 0.705389 0.582857
4831 1 0.51017 0.721618 0.588142
4833 1 0.525135 0.720002 0.585388
4835 1 0.540815 0.719856 0.58291
2100 1 0.501198 0.735919 0.5885
4832 1 0.516256 0.733831 0.585573
4834 1 0.530982 0.73459 0.582282
4903 1 0.525861 0.747592 0.582838
4901 1 0.510419 0.749572 0.58705
2170 1 0.503789 0.763234 0.588105
4902 1 0.518963 0.761219 0.584417
4971 1 0.512246 0.776523 0.585657
2240 1 0.505443 0.791743 0.587597
5041 1 0.510063 0.803964 0.586181
4972 1 0.519228 0.790479 0.58352
2310 1 0.505105 0.817561 0.587056
5111 1 0.509268 0.831421 0.58232
2380 1 0.503029 0.84793 0.584135
1960 1 0.505131 0.682043 0.592082
