ITEM: TIMESTEP
399800
ITEM: NUMBER OF ATOMS
5600
ITEM: BOX BOUNDS pp pp pp
-3.6434999999999995e+01 3.6434999999999995e+01
-3.6061297813583998e+01 3.6061297813583998e+01
-6.2460000000000008e+01 6.2460000000000008e+01
ITEM: ATOMS id type xs ys zs
2755 1 0.00300052 0.0115598 0.499053
14 1 0.0171938 0.00372156 0.498349
141 1 0.0320741 0.0038862 0.499946
2675 1 0.0600989 0.000782122 0.498268
2384 1 0.0549984 0.0121701 0.499487
12 1 0.0824581 0.00557423 0.499639
2669 1 0.194307 0.0162504 0.499612
233 1 0.102122 0.0431258 0.499631
147 1 0.127778 0.0389229 0.498629
2385 1 0.115657 0.0389571 0.497983
2174 1 0.124846 0.0280692 0.498432
21 1 0.141013 0.0372841 0.498445
76 1 0.137198 0.0234609 0.499068
2317 1 0.15422 0.038123 0.499345
158 1 0.164629 0.0316034 0.499439
2705 1 0.169386 0.0425337 0.496717
89 1 0.15305 0.0231316 0.499734
90 1 0.186664 0.0398834 0.498294
2473 1 0.195057 0.0294654 0.498324
2388 1 0.180455 0.0256484 0.499197
2543 1 0.210743 0.0319613 0.499218
245 1 0.1977 0.0429505 0.498586
2415 1 0.233996 0.0330957 0.499924
2251 1 0.223032 0.0274354 0.499959
2571 1 0.447883 0.0305468 0.499491
2469 1 0.0379251 0.057571 0.499111
179 1 0.10406 0.0597842 0.49919
2688 1 0.0910099 0.0639994 0.5
2474 1 0.112347 0.052891 0.497461
2763 1 0.126637 0.0521707 0.498454
2674 1 0.143036 0.0497944 0.497882
2323 1 0.138282 0.0610565 0.497533
2455 1 0.153486 0.0598882 0.496304
2540 1 0.160929 0.0495279 0.497886
2609 1 0.165279 0.0632191 0.496037
250 1 0.192329 0.0544374 0.496197
2618 1 0.177628 0.0550655 0.497513
2106 1 0.20665 0.0567602 0.497985
2061 1 0.212785 0.0439935 0.496698
2333 1 0.224777 0.0437211 0.498206
2537 1 0.220713 0.0568836 0.497324
185 1 0.232213 0.0533224 0.495678
2760 1 0.241569 0.047344 0.498571
113 1 0.244106 0.05925 0.49629
331 1 0.254937 0.0548926 0.499222
174 1 0.279371 0.0533874 0.499817
87 1 0.0395453 0.0799846 0.49892
228 1 0.0238236 0.0855994 0.499005
572 1 0.0305275 0.0678732 0.499534
146 1 0.059663 0.080846 0.499509
5525 1 0.0481759 0.0687453 0.499851
24 1 0.082495 0.0755413 0.499906
2610 1 0.121331 0.0819883 0.495709
163 1 0.111472 0.0724557 0.496981
2397 1 0.12477 0.0654615 0.496212
26 1 0.134429 0.0760119 0.496699
247 1 0.146908 0.0736359 0.496134
182 1 0.160345 0.0767711 0.49577
2623 1 0.171377 0.0773793 0.49668
42 1 0.192224 0.0661059 0.496429
2676 1 0.178491 0.0674462 0.496298
2700 1 0.1846 0.0787275 0.495452
173 1 0.195251 0.0848759 0.496857
35 1 0.20544 0.0699222 0.496759
110 1 0.212342 0.0846548 0.497255
2314 1 0.219366 0.0697077 0.495548
171 1 0.228253 0.0829291 0.496013
246 1 0.234162 0.0687215 0.495762
2544 1 0.242847 0.078517 0.495346
2535 1 0.251965 0.0694188 0.496609
122 1 0.26429 0.0725336 0.498678
2636 1 0.262437 0.0864084 0.496757
2686 1 0.276146 0.0791056 0.498219
2555 1 0.275542 0.0669425 0.499772
2632 1 0.288241 0.065474 0.499366
160 1 0.0230029 0.101224 0.498535
145 1 0.0393219 0.103298 0.498366
227 1 0.036471 0.0921875 0.498807
428 1 0.0502486 0.0894744 0.498234
3148 1 0.0607477 0.0983781 0.49771
3568 1 0.0526177 0.106051 0.496259
221 1 0.0680689 0.089961 0.499053
358 1 0.0794426 0.0911775 0.498542
33 1 0.073108 0.103513 0.4975
29 1 0.0836984 0.103579 0.499281
2548 1 0.0933162 0.0908247 0.499844
2678 1 0.0947888 0.106148 0.499175
175 1 0.107762 0.0874525 0.498631
162 1 0.106814 0.10536 0.498254
2467 1 0.118073 0.0981049 0.49687
2324 1 0.141671 0.0871612 0.495308
36 1 0.130634 0.0935412 0.496262
2754 1 0.146821 0.099678 0.496091
2617 1 0.136691 0.107777 0.496444
2392 1 0.152945 0.0888273 0.496073
19 1 0.168137 0.0929286 0.497361
2761 1 0.159619 0.104214 0.49665
2542 1 0.171957 0.105496 0.496558
2325 1 0.181038 0.09273 0.496094
2751 1 0.193074 0.0990266 0.496837
43 1 0.185371 0.108083 0.496283
180 1 0.206128 0.0993596 0.497531
382 1 0.223025 0.0974263 0.494367
30 1 0.235517 0.0969955 0.491667
2321 1 0.250091 0.0893145 0.494224
34 1 0.253198 0.101894 0.493789
105 1 0.278546 0.0917653 0.497992
2687 1 0.266564 0.100325 0.495249
2417 1 0.288339 0.103703 0.497854
170 1 0.303362 0.10085 0.499364
453 1 0.333279 0.0974727 0.499881
306 1 0.345002 0.107755 0.499991
357 1 0.0208583 0.125218 0.499345
2740 1 0.0111582 0.113481 0.499674
5 1 0.00895508 0.124398 0.499545
143 1 0.0393797 0.116811 0.497107
148 1 0.0258856 0.113467 0.49919
94 1 0.0530655 0.119758 0.496205
362 1 0.0644702 0.11172 0.497191
151 1 0.0448819 0.129972 0.498048
82 1 0.078955 0.129989 0.498408
701 1 0.0763876 0.115431 0.498069
234 1 0.0671593 0.126341 0.496709
2696 1 0.102529 0.11726 0.498992
2682 1 0.0889302 0.122092 0.499057
2764 1 0.114893 0.117435 0.498587
106 1 0.126572 0.121729 0.496575
2694 1 0.1247 0.109071 0.496946
2616 1 0.116448 0.129661 0.497354
37 1 0.148757 0.112684 0.49524
238 1 0.137924 0.122383 0.496217
379 1 0.151476 0.128302 0.496984
241 1 0.162359 0.117777 0.495474
252 1 0.176604 0.117974 0.496445
38 1 0.18995 0.122591 0.496426
711 1 0.216713 0.109889 0.494571
25 1 0.200329 0.113242 0.49602
168 1 0.200424 0.12834 0.495074
505 1 0.211128 0.121901 0.494526
502 1 0.229906 0.109626 0.493183
2622 1 0.238081 0.125053 0.493434
2759 1 0.224628 0.121454 0.492302
107 1 0.244126 0.110498 0.492494
2685 1 0.255103 0.113839 0.494212
104 1 0.248725 0.127814 0.494472
295 1 0.276352 0.109615 0.496101
254 1 0.265586 0.117946 0.493861
300 1 0.278546 0.121079 0.49744
2628 1 0.296163 0.115532 0.497394
445 1 0.286335 0.128066 0.496574
2767 1 0.299374 0.129185 0.497572
45 1 0.319469 0.109214 0.498437
786 1 0.308024 0.113342 0.497569
311 1 0.325042 0.123899 0.498368
244 1 0.313166 0.124674 0.497278
325 1 0.338496 0.119495 0.499088
459 1 0.330015 0.109391 0.499438
377 1 0.365387 0.118042 0.499844
243 1 0.351199 0.121311 0.498941
385 1 0.377457 0.12342 0.499271
3054 1 0.0214629 0.137734 0.498898
3564 1 0.01419 0.149522 0.498625
3208 1 0.00852894 0.137901 0.498968
771 1 0.0332123 0.131223 0.498394
351 1 0.0297989 0.147003 0.497432
214 1 0.042241 0.141591 0.496949
493 1 0.0546835 0.14566 0.496744
637 1 0.0578491 0.133806 0.497125
3281 1 0.0712843 0.142204 0.497519
91 1 0.083901 0.146757 0.497556
2758 1 0.0924923 0.137573 0.499036
98 1 0.103341 0.130974 0.498737
2752 1 0.104707 0.142285 0.498011
27 1 0.117316 0.144861 0.497767
2702 1 0.128364 0.135358 0.497633
2748 1 0.128322 0.147869 0.496651
503 1 0.139508 0.135662 0.495798
240 1 0.142917 0.148028 0.49663
231 1 0.152835 0.140097 0.495803
32 1 0.167982 0.132409 0.495697
299 1 0.163997 0.146036 0.49651
108 1 0.193999 0.13868 0.496339
74 1 0.183622 0.131557 0.495493
2753 1 0.177533 0.145283 0.495562
578 1 0.189229 0.150485 0.497252
510 1 0.208311 0.13935 0.494302
381 1 0.201471 0.149242 0.494938
172 1 0.220035 0.133368 0.494126
361 1 0.23619 0.136694 0.49349
302 1 0.226657 0.148634 0.493634
312 1 0.240212 0.150988 0.494158
236 1 0.249303 0.141593 0.495547
519 1 0.263697 0.130998 0.495585
371 1 0.275943 0.134801 0.496881
305 1 0.262645 0.142573 0.49687
504 1 0.278745 0.145992 0.496891
440 1 0.291049 0.140477 0.496868
251 1 0.288321 0.151574 0.498459
375 1 0.304123 0.151381 0.497333
368 1 0.305919 0.139997 0.497083
308 1 0.317943 0.137785 0.498324
540 1 0.331585 0.13479 0.498242
588 1 0.34291 0.135375 0.499465
531 1 0.340711 0.148663 0.497346
448 1 0.326616 0.14661 0.497366
378 1 0.359125 0.134278 0.49725
186 1 0.357674 0.146871 0.497889
655 1 0.369961 0.145582 0.497907
196 1 0.37164 0.132733 0.499411
2642 1 0.385167 0.137915 0.498426
589 1 0.392322 0.149801 0.497795
430 1 0.012421 0.167784 0.499289
5600 1 0.0410114 0.154649 0.49764
284 1 0.024613 0.159411 0.497727
356 1 0.0338377 0.171239 0.49772
354 1 0.0469044 0.164963 0.497865
3637 1 0.0578723 0.157487 0.498113
352 1 0.0641098 0.169773 0.49804
426 1 0.072012 0.155199 0.497405
641 1 0.0757028 0.168451 0.496802
3500 1 0.084977 0.159719 0.497003
166 1 0.0982837 0.165188 0.49699
424 1 0.0971084 0.153445 0.497863
296 1 0.1081 0.172433 0.496883
235 1 0.0880807 0.172329 0.496749
213 1 0.112706 0.157751 0.497397
2772 1 0.126022 0.16011 0.49789
2690 1 0.121918 0.172334 0.496633
225 1 0.138075 0.160697 0.496977
3359 1 0.146337 0.173447 0.497918
28 1 0.167826 0.158928 0.497548
639 1 0.153958 0.153121 0.496981
20 1 0.157264 0.16755 0.498587
22 1 0.181014 0.159839 0.497679
783 1 0.175139 0.173722 0.499531
303 1 0.195303 0.161242 0.495675
433 1 0.215207 0.153697 0.495523
585 1 0.206841 0.165653 0.495918
773 1 0.237035 0.161658 0.495911
583 1 0.222401 0.167325 0.495064
291 1 0.252127 0.156592 0.497276
95 1 0.259764 0.170257 0.497082
315 1 0.246708 0.168983 0.495918
374 1 0.265841 0.154647 0.49761
394 1 0.277371 0.157672 0.497281
177 1 0.271824 0.170094 0.497328
523 1 0.283305 0.167318 0.49818
2774 1 0.295508 0.16056 0.497286
249 1 0.292753 0.17337 0.49754
536 1 0.31593 0.153989 0.496228
2626 1 0.308168 0.165839 0.496913
595 1 0.324041 0.166059 0.497269
313 1 0.33513 0.160391 0.496135
439 1 0.344574 0.170906 0.496587
337 1 0.351781 0.160587 0.496903
268 1 0.366281 0.15836 0.496714
533 1 0.361494 0.173684 0.496242
256 1 0.374048 0.170015 0.496216
49 1 0.380451 0.154817 0.497664
253 1 0.385709 0.166553 0.498448
400 1 0.406869 0.170462 0.499436
670 1 0.398986 0.162089 0.498136
458 1 0.408998 0.153679 0.499427
3154 1 0.478373 0.168052 0.499801
702 1 0.00572578 0.181412 0.497858
777 1 0.0214462 0.192223 0.497661
3220 1 0.0235364 0.179743 0.497626
2870 1 0.0341172 0.195231 0.498524
92 1 0.0400118 0.182715 0.497712
223 1 0.0494543 0.195112 0.497117
224 1 0.0620503 0.185727 0.49857
289 1 0.0517942 0.178875 0.497451
993 1 0.0847849 0.183173 0.498038
2541 1 0.073342 0.178779 0.499191
491 1 0.0737032 0.190444 0.499197
3289 1 0.098525 0.181774 0.496796
717 1 0.0994118 0.194594 0.496653
496 1 0.0872786 0.194395 0.498795
165 1 0.109087 0.186733 0.495499
309 1 0.121435 0.18511 0.497555
1196 1 0.132387 0.190993 0.498515
778 1 0.133725 0.178051 0.49832
360 1 0.147244 0.187834 0.498953
438 1 0.188807 0.174307 0.496744
157 1 0.186953 0.185853 0.498339
525 1 0.201132 0.177836 0.497187
657 1 0.200531 0.189912 0.498784
513 1 0.214083 0.177423 0.497042
574 1 0.215302 0.19117 0.497975
435 1 0.232453 0.175597 0.495775
373 1 0.225337 0.186425 0.49658
293 1 0.247398 0.182162 0.494314
665 1 0.260815 0.182888 0.495453
366 1 0.2402 0.191973 0.495762
434 1 0.27043 0.187315 0.497034
509 1 0.283153 0.183584 0.497988
463 1 0.296087 0.192445 0.497961
369 1 0.303152 0.178313 0.498635
659 1 0.314827 0.177124 0.496948
322 1 0.313424 0.19053 0.496904
370 1 0.331889 0.181127 0.496074
388 1 0.347696 0.186703 0.495893
437 1 0.361393 0.19111 0.494487
734 1 0.372438 0.186694 0.495312
414 1 0.382483 0.179877 0.495826
517 1 0.386342 0.19301 0.496576
264 1 0.395445 0.177633 0.496717
3155 1 0.399927 0.190813 0.496469
397 1 0.410935 0.183695 0.496543
273 1 0.42349 0.188428 0.498418
133 1 0.438621 0.184152 0.499962
466 1 0.450261 0.184535 0.498183
324 1 0.461306 0.179698 0.499091
187 1 0.472114 0.182129 0.498208
396 1 0.483433 0.182115 0.499109
342 1 0.491316 0.189466 0.498837
3638 1 0.00635954 0.196011 0.498053
3075 1 0.0122216 0.207492 0.498228
222 1 0.0243104 0.208146 0.499002
216 1 0.0362425 0.2075 0.497916
563 1 0.0621877 0.213452 0.498566
425 1 0.0508101 0.206592 0.497555
852 1 0.0622177 0.201002 0.497502
636 1 0.0456062 0.215827 0.499693
3567 1 0.0728797 0.201639 0.499297
507 1 0.0782453 0.213098 0.498913
643 1 0.10423 0.205497 0.498145
1061 1 0.0891295 0.206294 0.49996
427 1 0.0988158 0.21562 0.499314
3702 1 0.115246 0.200036 0.497225
633 1 0.112856 0.214679 0.498987
567 1 0.126706 0.201459 0.498476
575 1 0.125039 0.215959 0.499895
286 1 0.135174 0.210068 0.499822
97 1 0.142481 0.200928 0.49909
707 1 0.149656 0.213318 0.498958
290 1 0.159132 0.20054 0.498969
432 1 0.166372 0.216315 0.499969
599 1 0.187815 0.19952 0.498639
512 1 0.177163 0.208297 0.49946
288 1 0.191221 0.214241 0.499748
719 1 0.205217 0.205545 0.498946
443 1 0.221124 0.208916 0.497997
446 1 0.230831 0.199212 0.497106
736 1 0.235926 0.213678 0.496832
534 1 0.252963 0.195827 0.495294
436 1 0.243273 0.204684 0.495834
269 1 0.260461 0.207616 0.497131
516 1 0.251499 0.214439 0.496553
807 1 0.269144 0.20107 0.496674
518 1 0.273509 0.214539 0.49815
741 1 0.282322 0.1999 0.497075
524 1 0.298826 0.206336 0.497984
651 1 0.285182 0.214863 0.497355
591 1 0.31339 0.204616 0.495661
390 1 0.337798 0.195967 0.496135
664 1 0.327487 0.202015 0.49542
403 1 0.341166 0.206902 0.4953
393 1 0.332017 0.215432 0.493612
455 1 0.354395 0.202165 0.495867
606 1 0.367822 0.204108 0.494878
558 1 0.366667 0.21598 0.493192
617 1 0.37645 0.198163 0.495009
613 1 0.382189 0.207856 0.496334
501 1 0.398491 0.20244 0.496239
265 1 0.408841 0.21468 0.496133
470 1 0.395714 0.214205 0.496342
47 1 0.433279 0.199243 0.497545
546 1 0.41418 0.200158 0.496074
447 1 0.424756 0.211905 0.495943
476 1 0.446449 0.199736 0.497398
5541 1 0.452392 0.207812 0.495486
465 1 0.440125 0.210916 0.495216
398 1 0.475037 0.198373 0.496604
399 1 0.46337 0.19749 0.497778
461 1 0.463536 0.213368 0.495727
416 1 0.479034 0.212601 0.496679
278 1 0.493573 0.212224 0.498589
412 1 0.488554 0.200564 0.497623
911 1 0.00591125 0.217625 0.499851
913 1 0.0176101 0.218824 0.499705
3499 1 0.0284153 0.222151 0.498805
999 1 0.104402 0.228245 0.499934
161 1 0.08766 0.222897 0.499935
159 1 0.128216 0.228215 0.499488
733 1 0.116381 0.225715 0.49937
451 1 0.158591 0.228037 0.49914
297 1 0.170697 0.229092 0.499846
365 1 0.180079 0.221914 0.499036
441 1 0.190077 0.231571 0.499323
292 1 0.202867 0.237255 0.498255
520 1 0.205114 0.219956 0.498012
319 1 0.217193 0.237644 0.497481
376 1 0.225181 0.22204 0.498675
715 1 0.233527 0.229943 0.497507
569 1 0.244557 0.224289 0.49716
587 1 0.256815 0.226083 0.497655
237 1 0.243758 0.237473 0.49742
661 1 0.266844 0.223284 0.49596
805 1 0.279265 0.228988 0.496214
640 1 0.268479 0.238063 0.495842
532 1 0.293936 0.224587 0.497394
528 1 0.295292 0.237089 0.494652
449 1 0.320398 0.220518 0.493901
545 1 0.306144 0.218449 0.497429
395 1 0.311043 0.232347 0.493527
598 1 0.328744 0.23094 0.493471
380 1 0.34393 0.228665 0.493497
479 1 0.353019 0.217603 0.494123
590 1 0.363608 0.230923 0.494974
468 1 0.378434 0.218864 0.494079
271 1 0.379221 0.237479 0.492294
462 1 0.404173 0.227592 0.493204
553 1 0.391382 0.227115 0.493792
696 1 0.420265 0.224342 0.494715
335 1 0.413122 0.236086 0.49326
609 1 0.428023 0.234325 0.495561
537 1 0.437111 0.223798 0.495056
407 1 0.449884 0.219562 0.494994
684 1 0.447627 0.233085 0.495462
3297 1 0.462757 0.227745 0.495977
2946 1 0.473974 0.223869 0.495479
409 1 0.475716 0.235844 0.496198
274 1 0.485414 0.22304 0.497678
689 1 0.492373 0.233906 0.497222
638 1 0.140993 0.249056 0.499923
498 1 0.154497 0.260543 0.498385
294 1 0.168006 0.242857 0.498694
646 1 0.154628 0.243828 0.499169
645 1 0.168012 0.254019 0.498436
597 1 0.180178 0.239509 0.499233
718 1 0.180757 0.254153 0.498368
714 1 0.195309 0.245493 0.498638
873 1 0.191312 0.257148 0.498003
508 1 0.206868 0.250149 0.498364
845 1 0.229726 0.244984 0.49628
431 1 0.221322 0.253748 0.496832
444 1 0.240952 0.250101 0.495104
963 1 0.257031 0.245534 0.496538
780 1 0.262872 0.258208 0.49699
744 1 0.273757 0.252067 0.49477
464 1 0.282623 0.243482 0.495803
600 1 0.303175 0.247403 0.494045
660 1 0.289011 0.255002 0.493325
527 1 0.318877 0.243144 0.494003
298 1 0.313719 0.25417 0.494178
326 1 0.336008 0.240546 0.493964
454 1 0.32668 0.254764 0.494059
316 1 0.340629 0.254162 0.493328
386 1 0.353581 0.242074 0.494066
833 1 0.356616 0.254454 0.493706
680 1 0.366603 0.244384 0.493954
620 1 0.384807 0.250235 0.493017
815 1 0.370409 0.258402 0.492339
697 1 0.39477 0.239304 0.49331
417 1 0.405276 0.247308 0.492004
893 1 0.412626 0.258452 0.491654
611 1 0.397642 0.25744 0.491174
346 1 0.421717 0.248613 0.492451
384 1 0.432652 0.256959 0.49365
556 1 0.437945 0.243358 0.494084
332 1 0.450597 0.247416 0.494557
685 1 0.444433 0.259039 0.494381
328 1 0.46151 0.241104 0.495314
483 1 0.469863 0.250114 0.495594
387 1 0.459207 0.25788 0.494416
700 1 0.496679 0.25212 0.497243
751 1 0.485206 0.246676 0.495673
408 1 0.482395 0.258103 0.494659
3915 1 0.139066 0.278593 0.498656
1199 1 0.153349 0.277383 0.497009
921 1 0.163332 0.269734 0.498093
1137 1 0.175495 0.266875 0.498293
927 1 0.187583 0.271137 0.498452
857 1 0.175566 0.281382 0.495807
722 1 0.201643 0.262388 0.497217
1001 1 0.207047 0.273781 0.496144
727 1 0.214357 0.262286 0.498335
1132 1 0.222487 0.268323 0.495857
809 1 0.238298 0.278415 0.496048
713 1 0.237558 0.26407 0.496505
649 1 0.223474 0.280189 0.494889
31 1 0.249841 0.266276 0.496608
1206 1 0.24961 0.276849 0.495175
663 1 0.277692 0.265567 0.493815
450 1 0.261804 0.271586 0.495827
803 1 0.272153 0.27679 0.495682
415 1 0.30087 0.261783 0.49349
452 1 0.2903 0.268808 0.49379
596 1 0.299056 0.282138 0.496405
1160 1 0.285802 0.280766 0.495434
668 1 0.306529 0.274 0.494284
731 1 0.315021 0.26595 0.49373
887 1 0.318492 0.281314 0.494277
750 1 0.325105 0.271018 0.494718
683 1 0.336069 0.268752 0.493855
529 1 0.334067 0.281955 0.494799
672 1 0.34703 0.279007 0.49292
543 1 0.349057 0.266375 0.493467
895 1 0.361185 0.271926 0.492261
548 1 0.377341 0.280926 0.49268
612 1 0.385817 0.269393 0.49243
621 1 0.397891 0.276522 0.491875
748 1 0.412996 0.270748 0.490611
538 1 0.423376 0.265235 0.490305
487 1 0.425447 0.278291 0.490582
3292 1 0.436517 0.270142 0.492177
473 1 0.448915 0.271953 0.493703
2871 1 0.470567 0.266487 0.495585
554 1 0.462151 0.277701 0.495651
472 1 0.475359 0.282308 0.496754
3310 1 0.49421 0.264432 0.496799
629 1 0.491837 0.279508 0.497716
551 1 0.482994 0.27013 0.496768
982 1 0.139723 0.304232 0.499337
648 1 0.144609 0.291265 0.497712
990 1 0.155998 0.301895 0.496641
644 1 0.160976 0.287606 0.497638
716 1 0.171914 0.297175 0.496271
923 1 0.185487 0.286857 0.496029
985 1 0.184454 0.299264 0.494534
594 1 0.199251 0.285156 0.494672
1060 1 0.196565 0.298478 0.495743
515 1 0.211515 0.287305 0.49526
506 1 0.212279 0.302588 0.495882
730 1 0.233813 0.293727 0.495247
1225 1 0.222538 0.294625 0.495329
725 1 0.259703 0.283297 0.49474
885 1 0.247874 0.291321 0.495785
677 1 0.261467 0.296987 0.496005
577 1 0.273463 0.290618 0.495818
511 1 0.289377 0.293299 0.49524
671 1 0.301224 0.298908 0.495124
952 1 0.308944 0.290039 0.493803
317 1 0.324263 0.291634 0.493688
530 1 0.33783 0.292822 0.494012
898 1 0.33709 0.303426 0.493174
827 1 0.353538 0.292001 0.492102
1252 1 0.364635 0.284205 0.491577
907 1 0.35188 0.303428 0.490335
616 1 0.388945 0.292327 0.490892
614 1 0.373476 0.295491 0.492503
690 1 0.401526 0.29137 0.491659
607 1 0.409404 0.301518 0.491431
832 1 0.412339 0.283413 0.490677
625 1 0.421683 0.292558 0.492349
1043 1 0.436836 0.283686 0.493176
630 1 0.436086 0.297763 0.49222
826 1 0.448606 0.295553 0.493808
695 1 0.450113 0.283162 0.493665
552 1 0.465259 0.292902 0.495019
3503 1 0.49739 0.290346 0.498353
1119 1 0.484316 0.291027 0.498427
615 1 0.479311 0.301773 0.496081
410 1 0.492293 0.300862 0.498261
918 1 0.126849 0.307017 0.499998
3843 1 0.144411 0.324075 0.498832
851 1 0.146478 0.312635 0.497904
785 1 0.156665 0.322473 0.497413
1203 1 0.165123 0.313713 0.496468
1009 1 0.171841 0.325151 0.496603
735 1 0.177482 0.313888 0.496315
782 1 0.190907 0.31194 0.495875
1201 1 0.19973 0.320169 0.495968
945 1 0.213272 0.315955 0.496862
855 1 0.222323 0.324876 0.497504
787 1 0.225369 0.308186 0.497404
743 1 0.235632 0.318666 0.497212
810 1 0.243289 0.306905 0.497937
862 1 0.257117 0.307227 0.497615
535 1 0.247866 0.323167 0.4983
812 1 0.259194 0.322157 0.496571
675 1 0.274289 0.30473 0.495512
789 1 0.270159 0.315569 0.49486
863 1 0.279499 0.32415 0.495848
526 1 0.288973 0.309972 0.496052
961 1 0.301728 0.31248 0.494317
460 1 0.302952 0.323313 0.494228
742 1 0.325667 0.305878 0.493957
732 1 0.311578 0.305288 0.493079
1027 1 0.317684 0.315396 0.491846
822 1 0.329796 0.317746 0.492889
959 1 0.34407 0.314223 0.492434
593 1 0.364436 0.305182 0.4911
837 1 0.359254 0.320541 0.489903
763 1 0.373203 0.312114 0.490888
1186 1 0.381972 0.305191 0.490937
1042 1 0.384899 0.321162 0.490365
761 1 0.372096 0.325375 0.490404
541 1 0.395902 0.305429 0.490748
752 1 0.396836 0.31786 0.490778
474 1 0.408085 0.314141 0.492395
1381 1 0.423484 0.309508 0.491154
623 1 0.41834 0.320407 0.49084
969 1 0.433973 0.319681 0.492256
557 1 0.444993 0.310784 0.492609
1034 1 0.44532 0.325989 0.493471
755 1 0.457455 0.306569 0.495016
686 1 0.469995 0.308956 0.495336
694 1 0.457755 0.318832 0.494243
765 1 0.47634 0.320384 0.495356
547 1 0.487439 0.312186 0.497752
1153 1 0.125143 0.341094 0.499699
806 1 0.137833 0.336685 0.499173
922 1 0.150667 0.335418 0.497907
881 1 0.162498 0.335369 0.497742
739 1 0.172337 0.342169 0.496167
796 1 0.184366 0.326617 0.495826
864 1 0.182878 0.340782 0.496134
792 1 0.196227 0.336896 0.496345
1204 1 0.209751 0.332176 0.496694
258 1 0.233773 0.330143 0.497795
869 1 0.218718 0.340055 0.4983
790 1 0.231329 0.341053 0.499462
647 1 0.259491 0.334847 0.496474
953 1 0.245842 0.337792 0.497322
682 1 0.271469 0.333811 0.496802
823 1 0.272387 0.3467 0.495637
943 1 0.291399 0.326378 0.495982
658 1 0.282987 0.337214 0.495874
522 1 0.2953 0.337812 0.494829
521 1 0.316242 0.328038 0.492397
835 1 0.308192 0.335824 0.492775
747 1 0.321956 0.339416 0.491254
894 1 0.330223 0.327791 0.491475
605 1 0.344461 0.329383 0.490263
544 1 0.333418 0.343058 0.490963
819 1 0.346981 0.34298 0.489705
603 1 0.362208 0.333917 0.490928
829 1 0.360252 0.347636 0.490272
484 1 0.384582 0.332212 0.489524
975 1 0.371766 0.340642 0.489448
754 1 0.382606 0.345069 0.488772
1091 1 0.404949 0.328702 0.489524
687 1 0.396896 0.336787 0.489693
1026 1 0.408379 0.342638 0.489139
1188 1 0.41765 0.332946 0.491507
764 1 0.430134 0.331689 0.492147
965 1 0.426263 0.342913 0.492105
1037 1 0.441112 0.340034 0.493201
3724 1 0.454877 0.337526 0.494844
973 1 0.46562 0.327772 0.495225
824 1 0.471569 0.344582 0.496362
971 1 0.486928 0.328174 0.499564
1031 1 0.480208 0.33507 0.495008
1166 1 0.492024 0.344411 0.49903
1067 1 0.124173 0.358171 0.498678
3919 1 0.115469 0.367633 0.499838
1274 1 0.139273 0.361525 0.496676
1127 1 0.134652 0.349503 0.497836
4060 1 0.149573 0.348301 0.497838
712 1 0.161506 0.347858 0.496755
791 1 0.152874 0.361747 0.496447
1207 1 0.166674 0.358364 0.496037
514 1 0.192835 0.35364 0.496586
581 1 0.178932 0.356383 0.496503
737 1 0.192975 0.367349 0.498089
579 1 0.20415 0.348136 0.496845
580 1 0.208801 0.364547 0.498888
586 1 0.222327 0.36743 0.498356
652 1 0.229007 0.355559 0.498876
539 1 0.259012 0.350326 0.496831
584 1 0.246855 0.361465 0.497575
954 1 0.240685 0.349463 0.498353
674 1 0.262248 0.365207 0.496819
601 1 0.272896 0.358554 0.497184
1092 1 0.284331 0.348381 0.496436
456 1 0.298693 0.353854 0.495811
604 1 0.286729 0.360298 0.495647
1017 1 0.300526 0.366446 0.49636
757 1 0.32523 0.353568 0.492457
542 1 0.31165 0.361815 0.4955
817 1 0.311312 0.349718 0.493995
1452 1 0.325403 0.366117 0.494267
678 1 0.337996 0.357174 0.490722
1019 1 0.352409 0.359728 0.490311
691 1 0.367134 0.362129 0.49074
903 1 0.382329 0.359533 0.489798
960 1 0.391104 0.369411 0.491005
964 1 0.396325 0.350189 0.48938
1095 1 0.399572 0.361555 0.489456
1082 1 0.412807 0.351783 0.490825
1106 1 0.423463 0.357964 0.493318
759 1 0.413128 0.367186 0.490685
1580 1 0.436843 0.368642 0.495703
1093 1 0.43824 0.35457 0.494643
1032 1 0.455763 0.35001 0.495098
972 1 0.452066 0.361951 0.496332
3362 1 0.466266 0.35902 0.496147
1168 1 0.482894 0.351642 0.496965
3922 1 0.479255 0.364021 0.498677
1107 1 0.494718 0.357801 0.49926
1341 1 0.131989 0.374224 0.498887
1263 1 0.147009 0.372509 0.497095
1359 1 0.138811 0.386607 0.499641
1296 1 0.150962 0.385409 0.498193
1077 1 0.161276 0.371634 0.496213
858 1 0.16612 0.382765 0.498046
729 1 0.179428 0.385876 0.496621
788 1 0.189976 0.381176 0.496955
871 1 0.17817 0.370209 0.496873
890 1 0.202538 0.376275 0.49662
879 1 0.199046 0.390385 0.498207
662 1 0.214994 0.376579 0.498891
859 1 0.212068 0.387985 0.496791
650 1 0.236919 0.370674 0.497852
950 1 0.226406 0.383067 0.497006
653 1 0.238236 0.384267 0.497515
866 1 0.249488 0.378646 0.497329
592 1 0.254151 0.389051 0.497495
745 1 0.266552 0.391056 0.497377
1088 1 0.263635 0.377976 0.496956
884 1 0.277475 0.383721 0.497112
814 1 0.276516 0.371048 0.495451
610 1 0.289572 0.376971 0.495994
813 1 0.303662 0.381502 0.496135
740 1 0.291808 0.389224 0.49704
888 1 0.314744 0.374598 0.494959
962 1 0.327042 0.380134 0.493948
892 1 0.335875 0.369628 0.490805
756 1 0.342529 0.385621 0.4919
1157 1 0.351081 0.372197 0.490227
1154 1 0.364374 0.377189 0.491052
482 1 0.357895 0.387488 0.490309
1029 1 0.378328 0.375046 0.49011
825 1 0.374402 0.387552 0.492978
836 1 0.389452 0.383205 0.491715
1086 1 0.402839 0.375787 0.491698
1370 1 0.401386 0.38866 0.492117
1167 1 0.414323 0.383912 0.491828
1021 1 0.424349 0.374497 0.49446
4345 1 0.424733 0.390355 0.496494
1305 1 0.43486 0.380058 0.494377
820 1 0.448158 0.374296 0.496285
1102 1 0.447955 0.386741 0.497314
1100 1 0.472366 0.374831 0.498313
897 1 0.460633 0.373769 0.496546
1243 1 0.462782 0.385077 0.498324
1260 1 0.475058 0.387684 0.499073
1238 1 0.493015 0.369996 0.4999
831 1 0.484947 0.380078 0.499245
1427 1 0.110113 0.404089 0.499442
808 1 0.156543 0.409511 0.499702
1333 1 0.171976 0.398787 0.4977
1222 1 0.159411 0.395905 0.498869
994 1 0.183351 0.408949 0.49815
1062 1 0.187608 0.396038 0.498568
728 1 0.203676 0.402801 0.49774
1135 1 0.226386 0.394736 0.497166
877 1 0.219241 0.40555 0.498149
798 1 0.233242 0.412945 0.498159
1024 1 0.236899 0.400505 0.49654
1089 1 0.255531 0.403901 0.497207
799 1 0.279793 0.397397 0.496474
1652 1 0.26962 0.406381 0.497926
746 1 0.291762 0.405583 0.497262
882 1 0.319458 0.392582 0.4947
886 1 0.304393 0.396789 0.495628
738 1 0.312558 0.411608 0.495474
955 1 0.320466 0.404613 0.495574
602 1 0.333352 0.396708 0.492575
818 1 0.342438 0.403819 0.493396
949 1 0.333591 0.410526 0.496153
889 1 0.366159 0.39832 0.491958
667 1 0.354087 0.399302 0.492867
688 1 0.361879 0.412742 0.493716
951 1 0.375199 0.403435 0.494563
608 1 0.385446 0.394913 0.492425
840 1 0.390813 0.409889 0.495902
1521 1 0.397759 0.399569 0.493744
1443 1 0.404094 0.407739 0.497018
1322 1 0.412293 0.396851 0.494622
956 1 0.427266 0.404036 0.498064
1090 1 0.415826 0.40855 0.498305
904 1 0.437335 0.394725 0.497936
1310 1 0.439916 0.408192 0.499094
4353 1 0.453021 0.399207 0.498541
1451 1 0.464572 0.397789 0.499927
4337 1 0.00649257 0.432381 0.499796
4268 1 0.0326317 0.42387 0.498901
3920 1 0.045312 0.4274 0.499703
1128 1 0.0570514 0.428313 0.499852
1013 1 0.170472 0.413088 0.499997
726 1 0.171158 0.431468 0.49982
925 1 0.193729 0.414106 0.498574
793 1 0.179648 0.422605 0.499198
878 1 0.211475 0.433951 0.499486
880 1 0.209513 0.42001 0.498513
804 1 0.197555 0.428518 0.498933
1151 1 0.238893 0.428356 0.496719
802 1 0.223731 0.422777 0.499114
1016 1 0.254234 0.416978 0.49749
944 1 0.282405 0.414371 0.496065
874 1 0.279034 0.429042 0.498373
1507 1 0.261492 0.428974 0.498674
1298 1 0.269614 0.419745 0.497258
1223 1 0.299204 0.414826 0.495633
1085 1 0.289441 0.42323 0.497569
676 1 0.298324 0.431588 0.496689
957 1 0.312734 0.425092 0.496931
942 1 0.326703 0.421236 0.496136
627 1 0.337689 0.42783 0.497843
749 1 0.348166 0.41383 0.494441
1438 1 0.352289 0.425445 0.496112
1232 1 0.365004 0.422857 0.496929
966 1 0.378458 0.414824 0.496725
891 1 0.381417 0.427159 0.497177
828 1 0.391231 0.423889 0.497945
1448 1 0.40334 0.420126 0.498613
1169 1 0.395215 0.434233 0.49852
1237 1 0.415704 0.42454 0.499313
1583 1 0.427504 0.419319 0.499987
1259 1 0.450845 0.415356 0.499928
1273 1 0.00290555 0.444718 0.498098
1006 1 0.0138616 0.442384 0.499162
4197 1 0.0204206 0.450883 0.49627
1216 1 0.0242412 0.435598 0.499384
1410 1 0.0363851 0.436959 0.497951
1422 1 0.0332449 0.448612 0.496851
784 1 0.0505553 0.438848 0.497476
1424 1 0.0473351 0.450966 0.496197
1332 1 0.0596403 0.452528 0.498041
1126 1 0.066243 0.440648 0.497878
1500 1 0.073891 0.450943 0.499572
1068 1 0.105405 0.442249 0.4989
1087 1 0.127946 0.453501 0.499866
1071 1 0.114584 0.452495 0.497521
935 1 0.162285 0.442817 0.499891
946 1 0.211953 0.45062 0.498711
666 1 0.198402 0.443006 0.499567
1015 1 0.237667 0.44222 0.499268
1010 1 0.225914 0.436401 0.499741
1642 1 0.252244 0.437841 0.498868
654 1 0.25365 0.449416 0.498875
797 1 0.289453 0.442966 0.498767
1020 1 0.310108 0.437869 0.497055
1023 1 0.305272 0.448051 0.497313
958 1 0.318433 0.447913 0.498088
760 1 0.325622 0.436734 0.497725
758 1 0.331867 0.454494 0.499471
1083 1 0.338297 0.441261 0.499085
1233 1 0.357212 0.436169 0.499796
1301 1 0.348817 0.448495 0.499512
1236 1 0.384976 0.440954 0.498435
875 1 0.371255 0.437564 0.497628
4338 1 0.00927228 0.458523 0.496285
930 1 0.0120812 0.469736 0.494456
1283 1 0.0377456 0.459937 0.495426
1344 1 0.0336317 0.475916 0.495407
4182 1 0.02491 0.464835 0.496255
1208 1 0.0542798 0.464208 0.49658
1147 1 0.0452079 0.472311 0.497191
1354 1 0.081013 0.47044 0.498657
1484 1 0.0667259 0.465668 0.498867
1279 1 0.108292 0.470082 0.498504
1418 1 0.0952269 0.46984 0.498049
1715 1 0.100812 0.457367 0.498743
936 1 0.0875533 0.457861 0.497626
1576 1 0.121288 0.475883 0.496732
1138 1 0.11988 0.463933 0.498424
868 1 0.143338 0.476472 0.498952
1640 1 0.13355 0.467017 0.498264
1364 1 0.169791 0.469819 0.498364
938 1 0.15426 0.461845 0.499907
1000 1 0.155271 0.472961 0.498564
872 1 0.181109 0.463232 0.499358
1774 1 0.180363 0.477132 0.498358
1014 1 0.213281 0.46454 0.499726
801 1 0.197778 0.476832 0.49876
1727 1 0.222269 0.474879 0.499819
1574 1 0.23989 0.470012 0.499907
1725 1 0.255503 0.461922 0.499876
1502 1 0.295617 0.461287 0.49919
811 1 0.320899 0.46259 0.498801
1141 1 0.0203288 0.494111 0.495229
1617 1 0.00936853 0.483185 0.495067
1548 1 0.00835851 0.496009 0.495295
1425 1 0.0210334 0.479092 0.495721
1069 1 0.0430224 0.49871 0.495012
997 1 0.0325372 0.488312 0.495018
1620 1 0.0587304 0.491803 0.496196
1269 1 0.0471007 0.487364 0.495393
1280 1 0.057587 0.478942 0.498028
1220 1 0.0852543 0.484013 0.49769
1217 1 0.0733254 0.49337 0.496993
1215 1 0.0701545 0.481395 0.498769
1142 1 0.0869369 0.496864 0.496233
1357 1 0.0999284 0.493529 0.496961
1287 1 0.101211 0.481621 0.495644
940 1 0.111599 0.488479 0.495411
1295 1 0.122618 0.494182 0.498145
929 1 0.149383 0.487906 0.49999
1428 1 0.133239 0.486753 0.497798
1931 1 0.16902 0.482672 0.497455
1011 1 0.15904 0.492977 0.498219
720 1 0.188334 0.488219 0.497275
1782 1 0.177874 0.497207 0.4977
1567 1 0.213748 0.494792 0.498008
1291 1 0.201769 0.490311 0.49931
1224 1 0.210536 0.479795 0.498885
1008 1 0.224163 0.487925 0.499244
1707 1 0.235811 0.482332 0.499415
1497 1 0.237969 0.495475 0.498052
285 1 0.0154054 0.019797 0.502054
4 1 0.0278157 0.0188188 0.500653
2997 1 0.0430321 0.0169999 0.50126
6 1 0.0726844 0.0140772 0.500147
2668 1 0.0957431 0.0158104 0.500268
2335 1 0.0997295 0.00151777 0.500508
2532 1 0.10838 0.0164199 0.501407
169 1 0.122103 0.0154922 0.500967
2603 1 0.116895 0.00327264 0.501316
2464 1 0.135667 0.00789051 0.50114
10 1 0.149308 0.00774549 0.500711
2681 1 0.162994 0.0148224 0.500288
101 1 0.172715 0.00547882 0.500749
2684 1 0.18605 0.00674933 0.50129
2247 1 0.210961 0.00191202 0.502176
2320 1 0.206387 0.0207231 0.500332
2398 1 0.214758 0.0137581 0.500607
2195 1 0.19946 0.00622636 0.502955
2738 1 0.224297 0.00106438 0.500729
2461 1 0.228992 0.0131459 0.500218
2488 1 0.239261 0.0021509 0.502196
2770 1 0.239275 0.0188745 0.5009
2394 1 0.251234 0.00689684 0.50195
242 1 0.256219 0.0214854 0.500863
2698 1 0.266632 0.012871 0.501901
124 1 0.285128 0.011358 0.502353
2330 1 0.29619 0.0134409 0.503892
2768 1 0.306541 0.00627543 0.503508
2556 1 0.311901 0.0196854 0.503948
62 1 0.322023 0.0109924 0.504317
2633 1 0.334377 0.000417835 0.504676
2775 1 0.335898 0.0159295 0.505596
2794 1 0.346339 0.00781381 0.505395
2776 1 0.359025 0.00764196 0.505905
135 1 0.366206 0.0214172 0.505728
54 1 0.351428 0.0207167 0.506001
477 1 0.381168 0.00101631 0.505646
68 1 0.371867 0.0073309 0.505909
467 1 0.378419 0.0194282 0.505042
2301 1 0.390905 0.00860865 0.505058
44 1 0.405909 0.0039053 0.505735
2557 1 0.40168 0.016963 0.505314
2723 1 0.415071 0.0190998 0.504461
3230 1 0.418529 0.00295079 0.503909
2824 1 0.429693 0.010281 0.502073
3083 1 0.440559 0.00454003 0.50251
2725 1 0.444802 0.0182545 0.502505
2793 1 0.455633 0.00905153 0.503232
2651 1 0.46731 0.01414 0.503509
3086 1 0.478785 0.0179656 0.502063
349 1 0.483849 0.0061987 0.502935
2894 1 0.495299 0.0143957 0.504388
17 1 0.0031243 0.024848 0.501027
150 1 0.00765884 0.0357248 0.500884
1 1 0.0357651 0.0297057 0.503086
3428 1 0.0225734 0.0333698 0.500942
99 1 0.0333783 0.0423956 0.500766
2249 1 0.0463072 0.0432918 0.500515
2594 1 0.0639643 0.022889 0.501282
5592 1 0.0583743 0.0392064 0.502189
23 1 0.0481374 0.0296721 0.50067
2471 1 0.0729098 0.0336495 0.501584
2534 1 0.0853326 0.0371703 0.501913
2593 1 0.0878934 0.0241077 0.501183
211 1 0.0970963 0.0329106 0.500937
153 1 0.110464 0.0284545 0.500828
310 1 0.254866 0.0431565 0.501372
116 1 0.245879 0.0312299 0.500956
2625 1 0.274819 0.0220059 0.50115
46 1 0.26277 0.0322839 0.501352
2762 1 0.276361 0.035483 0.501741
2407 1 0.28883 0.0260662 0.50252
2408 1 0.302249 0.0280742 0.502988
2498 1 0.28888 0.0396931 0.501283
2057 1 0.30214 0.042224 0.502997
2560 1 0.313798 0.0326868 0.504898
2634 1 0.321923 0.039559 0.504673
63 1 0.325513 0.0243936 0.50451
383 1 0.337093 0.0277597 0.505573
2707 1 0.332615 0.0394686 0.505183
130 1 0.347254 0.0347163 0.504974
2570 1 0.36056 0.0320388 0.504761
471 1 0.390853 0.0219266 0.504635
131 1 0.378261 0.031943 0.506589
117 1 0.383117 0.0419285 0.504894
202 1 0.394788 0.0374788 0.505044
339 1 0.403648 0.0426405 0.502665
329 1 0.404182 0.0299596 0.504471
2512 1 0.428926 0.0247633 0.502626
2949 1 0.416291 0.0308649 0.503603
2650 1 0.431544 0.0383301 0.501029
272 1 0.461138 0.0395131 0.501022
2785 1 0.460341 0.0247265 0.500829
3294 1 0.470775 0.0325189 0.501503
132 1 0.499991 0.0297972 0.504444
205 1 0.486496 0.0276443 0.503292
277 1 0.484275 0.0405677 0.502638
2800 1 0.49813 0.0433161 0.503847
2938 1 0.0157406 0.0472892 0.501547
152 1 0.0122393 0.0623287 0.500555
18 1 0.0246549 0.0549493 0.500592
96 1 0.0646012 0.0511864 0.500976
2615 1 0.0513936 0.055666 0.500635
2564 1 0.077961 0.049473 0.501682
156 1 0.0758219 0.0597312 0.500925
307 1 0.0899433 0.0503665 0.501606
321 1 0.267969 0.0486937 0.500297
2773 1 0.265214 0.0599294 0.500175
2629 1 0.295003 0.0538732 0.502092
2483 1 0.304095 0.0621848 0.503229
2635 1 0.311449 0.050749 0.503468
347 1 0.325807 0.0531439 0.503752
2786 1 0.340535 0.0509719 0.503611
111 1 0.336068 0.0619057 0.502976
2709 1 0.353531 0.0467299 0.503781
2706 1 0.350282 0.0601828 0.503096
262 1 0.364769 0.0553348 0.504109
139 1 0.369922 0.0435068 0.504979
2630 1 0.380059 0.0546009 0.504039
203 1 0.391895 0.0509743 0.503984
5534 1 0.410636 0.0538736 0.501658
2789 1 0.402186 0.0631578 0.503033
199 1 0.41786 0.0438963 0.502187
2710 1 0.4305 0.0499158 0.501317
2811 1 0.421154 0.0567894 0.502548
57 1 0.443266 0.0439522 0.500524
129 1 0.440843 0.0577987 0.501291
65 1 0.454089 0.0522817 0.501359
60 1 0.471695 0.0478244 0.50247
3039 1 0.469339 0.0622629 0.502836
69 1 0.49998 0.0588672 0.505605
3110 1 0.48443 0.0584626 0.504188
287 1 0.00774929 0.0743253 0.502334
2756 1 0.0200144 0.0726099 0.500149
282 1 0.0633593 0.0659128 0.500891
2741 1 0.0704597 0.0757777 0.50128
167 1 0.0956078 0.0768881 0.500065
2689 1 0.299196 0.0736734 0.501132
181 1 0.287215 0.0777847 0.500383
314 1 0.322919 0.0660943 0.50409
2342 1 0.31379 0.0736016 0.502194
2484 1 0.307383 0.0869327 0.500895
126 1 0.323381 0.0826664 0.502227
442 1 0.334813 0.0757514 0.500967
323 1 0.347766 0.073842 0.501377
2346 1 0.359746 0.069102 0.50421
372 1 0.356527 0.0835822 0.500934
115 1 0.368312 0.0789173 0.502407
327 1 0.388462 0.0652339 0.501432
198 1 0.376627 0.0666213 0.503938
261 1 0.381864 0.0795853 0.503609
257 1 0.398046 0.0746646 0.502759
318 1 0.403675 0.0849913 0.50146
2485 1 0.414413 0.0800832 0.502219
56 1 0.413099 0.066098 0.503208
64 1 0.429279 0.0653583 0.502058
58 1 0.428744 0.0771611 0.502711
137 1 0.439802 0.0821939 0.5028
2942 1 0.454703 0.0671114 0.501668
2796 1 0.4416 0.0696284 0.502408
345 1 0.452355 0.0817494 0.504031
55 1 0.46705 0.0758594 0.503942
2795 1 0.480044 0.0725838 0.502652
201 1 0.49005 0.0846058 0.503271
3035 1 0.49378 0.0705473 0.502229
219 1 0.00943891 0.0873897 0.500818
3288 1 0.0105024 0.101316 0.500568
2561 1 0.294364 0.0881811 0.500258
190 1 0.317035 0.0970406 0.500125
2704 1 0.340903 0.0878755 0.501182
2551 1 0.3641 0.095459 0.501225
189 1 0.3507 0.0937231 0.500231
2414 1 0.356392 0.104497 0.500676
123 1 0.388887 0.0890605 0.502961
391 1 0.382123 0.102437 0.500653
266 1 0.376089 0.0899249 0.500944
192 1 0.394023 0.101161 0.501
248 1 0.407004 0.0994366 0.501915
125 1 0.424688 0.0912737 0.502533
336 1 0.417841 0.104627 0.502494
267 1 0.435811 0.100918 0.503406
270 1 0.442343 0.0920721 0.504502
392 1 0.452368 0.0977068 0.504215
343 1 0.475618 0.0896764 0.504324
53 1 0.463579 0.0917865 0.505494
260 1 0.475705 0.106259 0.506051
5464 1 0.489284 0.100218 0.504572
2944 1 0.389239 0.114012 0.500503
191 1 0.373203 0.109449 0.500344
2699 1 0.401384 0.112316 0.50089
341 1 0.413 0.114055 0.501699
259 1 0.402847 0.12389 0.501131
120 1 0.392063 0.127032 0.500046
255 1 0.429588 0.112986 0.504429
401 1 0.423368 0.121532 0.502992
2778 1 0.413888 0.130362 0.500978
50 1 0.436872 0.124204 0.503044
550 1 0.446313 0.113216 0.50337
184 1 0.450118 0.124372 0.503988
119 1 0.459711 0.130001 0.50332
2798 1 0.461004 0.112234 0.506108
204 1 0.469861 0.121232 0.504813
2877 1 0.498016 0.112774 0.503535
127 1 0.482979 0.118783 0.503401
334 1 0.495767 0.128594 0.504454
457 1 0.404104 0.139597 0.500707
389 1 0.428289 0.134383 0.502272
304 1 0.41972 0.146455 0.501174
320 1 0.436458 0.146071 0.501879
411 1 0.440573 0.135819 0.503422
330 1 0.451728 0.139565 0.502129
3153 1 0.468025 0.139099 0.503869
338 1 0.47565 0.152155 0.502995
2584 1 0.460708 0.151261 0.502224
402 1 0.479338 0.132232 0.503311
2876 1 0.498446 0.147684 0.505632
188 1 0.485428 0.142331 0.504966
3149 1 0.00291388 0.156259 0.500139
405 1 0.419866 0.16324 0.500869
200 1 0.431608 0.156733 0.502814
276 1 0.446155 0.154455 0.501655
333 1 0.435893 0.168582 0.500663
469 1 0.450918 0.166927 0.500059
2782 1 0.465921 0.163991 0.500984
3157 1 0.499503 0.165455 0.501651
481 1 0.486378 0.157214 0.503161
128 1 0.491302 0.172036 0.501055
364 1 0.160166 0.183835 0.500259
176 1 0.172509 0.185822 0.500309
183 1 0.421974 0.175528 0.50053
178 1 0.176875 0.19602 0.500508
423 1 0.0125826 0.231336 0.502357
421 1 0.0227117 0.238694 0.502142
359 1 0.0403511 0.227733 0.500289
3640 1 0.0558942 0.225833 0.500583
226 1 0.071999 0.223787 0.500467
367 1 0.0791661 0.23674 0.503112
3563 1 0.0679409 0.237565 0.50139
856 1 0.0904143 0.235731 0.502062
3639 1 0.118427 0.237798 0.500988
565 1 0.138231 0.220945 0.501406
576 1 0.144929 0.231393 0.501288
3277 1 0.015683 0.250187 0.503236
3560 1 0.00615187 0.24179 0.501912
3495 1 0.00271791 0.255859 0.502596
854 1 0.0360884 0.2408 0.501399
917 1 0.0322231 0.25493 0.503696
220 1 0.0597629 0.250964 0.502948
1133 1 0.045295 0.254768 0.503534
564 1 0.0514267 0.241085 0.501701
301 1 0.0781923 0.252068 0.501834
363 1 0.103445 0.240972 0.501008
1058 1 0.0891848 0.248814 0.502488
3498 1 0.100853 0.257897 0.502604
230 1 0.114598 0.250183 0.50082
3360 1 0.127386 0.250936 0.501626
988 1 0.133836 0.239912 0.500241
239 1 0.0208734 0.262626 0.503047
3629 1 0.00616327 0.279216 0.505577
494 1 0.00851016 0.268407 0.504361
705 1 0.0198591 0.27592 0.505565
3418 1 0.0382172 0.268322 0.503472
3358 1 0.0313057 0.276818 0.50507
1059 1 0.0498166 0.273459 0.504731
232 1 0.060478 0.275643 0.504253
706 1 0.0558421 0.264262 0.503243
709 1 0.0839638 0.264847 0.503449
3848 1 0.072584 0.273045 0.504133
3569 1 0.0683448 0.2614 0.502557
710 1 0.0869881 0.277004 0.504227
924 1 0.0995233 0.271075 0.502132
500 1 0.123792 0.26685 0.501011
1194 1 0.112253 0.276489 0.502378
703 1 0.11267 0.264743 0.501567
1195 1 0.123512 0.280634 0.500422
3708 1 0.138794 0.262665 0.500563
914 1 0.0209628 0.287474 0.506078
991 1 0.00894146 0.292115 0.506053
3775 1 0.000738662 0.302931 0.506641
3632 1 0.0122781 0.302943 0.507397
1057 1 0.0246072 0.299081 0.507731
704 1 0.034631 0.288668 0.504799
4119 1 0.035275 0.300673 0.507816
850 1 0.0440514 0.283248 0.506163
100 1 0.0586416 0.289298 0.505318
3570 1 0.0471512 0.294192 0.506178
3918 1 0.0722272 0.287389 0.504358
1053 1 0.0828032 0.301755 0.506109
853 1 0.0837886 0.2885 0.503919
3497 1 0.0653977 0.303276 0.506064
1063 1 0.0983948 0.28305 0.502726
1064 1 0.0965168 0.296237 0.503868
669 1 0.109482 0.288392 0.501512
776 1 0.122425 0.294952 0.501032
102 1 0.133292 0.291908 0.500394
3421 1 0.00683275 0.317445 0.508788
632 1 0.0210966 0.314115 0.50811
3709 1 0.0364872 0.3129 0.508111
1136 1 0.0295369 0.32485 0.508662
779 1 0.0526802 0.306166 0.505968
495 1 0.0453953 0.320365 0.509544
846 1 0.0601103 0.316813 0.506651
642 1 0.0756306 0.31239 0.506785
1051 1 0.0799705 0.324087 0.505531
989 1 0.0907279 0.309902 0.503944
926 1 0.102794 0.31194 0.503211
995 1 0.0925723 0.322527 0.503037
1205 1 0.113473 0.305251 0.502158
1130 1 0.117941 0.317884 0.500538
4055 1 0.135246 0.315517 0.500658
562 1 0.0157329 0.327364 0.509504
920 1 0.0049243 0.332201 0.508676
1193 1 0.0125648 0.34437 0.507721
1131 1 0.0371946 0.331529 0.509396
3983 1 0.0233964 0.338338 0.509323
1125 1 0.0369667 0.344161 0.509283
1401 1 0.0477102 0.340891 0.509335
3766 1 0.0608288 0.346112 0.50696
3844 1 0.0529993 0.33092 0.509362
1197 1 0.0662646 0.332981 0.506179
3909 1 0.0794112 0.33864 0.504806
4051 1 0.106593 0.327515 0.502874
1081 1 0.0914768 0.338376 0.503726
986 1 0.101423 0.343119 0.501681
932 1 0.11361 0.337044 0.500638
1270 1 0.128811 0.326455 0.500756
3773 1 0.00234821 0.35223 0.506246
3698 1 0.0156204 0.360794 0.507175
915 1 0.024659 0.351843 0.509259
1264 1 0.0276361 0.364365 0.507791
844 1 0.0371573 0.356529 0.507625
1334 1 0.039896 0.368132 0.506579
3840 1 0.0499993 0.35265 0.507921
3849 1 0.0622347 0.358374 0.506209
1551 1 0.050502 0.365067 0.506349
992 1 0.0706398 0.366101 0.504027
1139 1 0.0727918 0.352617 0.504955
934 1 0.0848235 0.350312 0.503401
1286 1 0.0824292 0.362244 0.503803
1336 1 0.0961659 0.354172 0.502861
1140 1 0.0944192 0.366246 0.502827
1078 1 0.105017 0.35981 0.500237
656 1 0.112878 0.348486 0.500419
573 1 0.215452 0.35373 0.500078
4193 1 0.00170869 0.371681 0.505126
3850 1 0.0176426 0.375966 0.505335
1409 1 0.00136975 0.387807 0.503862
1266 1 0.0307915 0.381889 0.505215
1276 1 0.0443578 0.380173 0.504189
3623 1 0.0602566 0.37331 0.503594
1074 1 0.0542962 0.388381 0.502965
3845 1 0.0677764 0.387555 0.501541
1218 1 0.0846134 0.387024 0.502674
3842 1 0.074234 0.377951 0.503234
1052 1 0.10544 0.374596 0.502121
3913 1 0.0987457 0.383637 0.501647
1124 1 0.0884815 0.376102 0.502223
861 1 0.112353 0.390814 0.502952
1073 1 0.121262 0.381706 0.501724
3984 1 0.0158274 0.392074 0.503615
1192 1 0.0134133 0.406195 0.501071
1282 1 0.0011008 0.402753 0.502233
1202 1 0.038818 0.394761 0.502228
1340 1 0.0248913 0.41139 0.500712
1267 1 0.0386728 0.408594 0.50033
1351 1 0.0271006 0.397224 0.502747
916 1 0.0531885 0.401071 0.501127
1149 1 0.0656217 0.403193 0.501166
1360 1 0.0802678 0.397336 0.502252
1290 1 0.0769089 0.41303 0.500759
1072 1 0.0955146 0.398813 0.501547
933 1 0.0985085 0.412869 0.500985
724 1 0.126363 0.396154 0.500423
931 1 0.120856 0.408304 0.501871
998 1 0.134443 0.407668 0.502261
721 1 0.147155 0.40323 0.500158
1469 1 0.477637 0.400815 0.500938
1251 1 0.466182 0.40868 0.502101
3799 1 0.491566 0.405239 0.5009
1253 1 0.490504 0.392102 0.50054
4335 1 0.00847901 0.417751 0.500368
1277 1 0.0174128 0.425702 0.500902
996 1 0.0493206 0.414348 0.500274
794 1 0.0621621 0.416324 0.502214
1485 1 0.0730158 0.42901 0.50143
1075 1 0.0881231 0.425528 0.502284
941 1 0.103695 0.427508 0.500189
1281 1 0.113877 0.417357 0.501887
582 1 0.119638 0.427875 0.500427
1143 1 0.129609 0.42162 0.500756
1080 1 0.140587 0.432481 0.50002
1226 1 0.144986 0.419569 0.50021
1365 1 0.156685 0.423795 0.501216
865 1 0.183538 0.434348 0.500318
838 1 0.406351 0.433785 0.500009
1247 1 0.430942 0.432308 0.500877
1741 1 0.454548 0.430472 0.500842
896 1 0.439679 0.423346 0.501532
4064 1 0.46337 0.420097 0.500536
3852 1 0.468577 0.431791 0.501564
1179 1 0.47993 0.413292 0.502226
762 1 0.478525 0.42596 0.501501
1033 1 0.491834 0.42095 0.502182
928 1 0.083218 0.440139 0.500708
1284 1 0.0933588 0.446384 0.50033
1066 1 0.121985 0.440612 0.500028
1129 1 0.136092 0.443956 0.501213
937 1 0.152053 0.438085 0.500997
1499 1 0.147498 0.448842 0.500352
1227 1 0.167275 0.456357 0.500231
1716 1 0.18988 0.452849 0.500097
1292 1 0.178881 0.447087 0.500531
883 1 0.227342 0.450951 0.500632
1638 1 0.275887 0.440131 0.500336
821 1 0.265552 0.448623 0.500278
1229 1 0.282996 0.454562 0.50163
1441 1 0.364273 0.4488 0.501361
816 1 0.374903 0.449062 0.501009
753 1 0.387533 0.454628 0.502115
1108 1 0.397959 0.446443 0.501441
1447 1 0.411324 0.445897 0.501885
1152 1 0.431122 0.444276 0.502157
1303 1 0.423941 0.453239 0.502417
1709 1 0.418625 0.438226 0.501648
1525 1 0.441702 0.435556 0.501443
1101 1 0.437723 0.455566 0.503606
1373 1 0.445411 0.445662 0.503178
1302 1 0.457427 0.444213 0.50204
1240 1 0.468809 0.444248 0.500844
1099 1 0.491229 0.435597 0.501531
3997 1 0.482071 0.444991 0.502311
1315 1 0.490651 0.454518 0.503304
1713 1 0.142686 0.459979 0.500382
723 1 0.194253 0.465646 0.501013
1434 1 0.202293 0.4582 0.500773
867 1 0.227177 0.465259 0.50093
1299 1 0.255935 0.474608 0.5006
679 1 0.239445 0.457383 0.500233
1439 1 0.269033 0.471128 0.501125
673 1 0.270387 0.459215 0.500521
1511 1 0.300305 0.475053 0.50148
1723 1 0.283023 0.469002 0.501114
1793 1 0.317596 0.477036 0.500986
800 1 0.308894 0.461312 0.500918
948 1 0.346667 0.463477 0.500057
1653 1 0.331822 0.472008 0.500312
1783 1 0.357297 0.475975 0.502728
1588 1 0.360921 0.461782 0.50094
1366 1 0.383773 0.477504 0.504312
1022 1 0.377561 0.460626 0.502065
876 1 0.370057 0.471913 0.50151
1862 1 0.39073 0.467035 0.503514
1096 1 0.404541 0.470434 0.504438
1446 1 0.402245 0.458739 0.502337
1579 1 0.420685 0.471482 0.504133
1384 1 0.430111 0.463494 0.504614
1442 1 0.431894 0.477778 0.504755
1575 1 0.414006 0.46022 0.502449
1311 1 0.441375 0.469203 0.503786
1038 1 0.449831 0.457456 0.502292
1387 1 0.453392 0.471972 0.505333
1312 1 0.462233 0.456769 0.503204
1028 1 0.465917 0.470386 0.504341
4145 1 0.475418 0.457599 0.502261
4207 1 0.477857 0.472866 0.502032
1397 1 0.497186 0.47634 0.502377
1450 1 0.489246 0.465597 0.50133
795 1 0.141025 0.495847 0.500307
1426 1 0.251801 0.49961 0.500629
1300 1 0.251693 0.487393 0.501126
1719 1 0.280397 0.496375 0.503016
1792 1 0.275738 0.48444 0.502194
1007 1 0.26718 0.496361 0.502154
1076 1 0.265277 0.483249 0.501703
1012 1 0.292815 0.494214 0.503199
1504 1 0.287427 0.482902 0.501711
1159 1 0.303762 0.485759 0.503735
1231 1 0.31835 0.490377 0.501833
1641 1 0.305155 0.496204 0.502326
1710 1 0.330253 0.498421 0.502462
1170 1 0.344113 0.494867 0.502822
1025 1 0.33424 0.483241 0.503133
947 1 0.346544 0.480499 0.501706
1586 1 0.355985 0.49041 0.504067
1594 1 0.385072 0.493234 0.505218
1651 1 0.373011 0.498173 0.504452
1437 1 0.371195 0.485386 0.503828
1156 1 0.412165 0.497248 0.505256
1643 1 0.400583 0.493008 0.505384
1158 1 0.396598 0.48076 0.504525
1163 1 0.41318 0.481984 0.50458
1587 1 0.425379 0.491567 0.504656
1035 1 0.448108 0.496624 0.502842
1304 1 0.4437 0.48485 0.505777
1527 1 0.436368 0.497291 0.504828
1319 1 0.470442 0.495241 0.50346
1241 1 0.45721 0.483285 0.504558
1309 1 0.470006 0.482365 0.504615
4136 1 0.483909 0.496936 0.502623
1177 1 0.485228 0.483538 0.502861
1324 1 0.498831 0.491423 0.501381
1144 1 0.0164657 0.50591 0.49562
1545 1 0.00548885 0.512677 0.49338
1487 1 0.024664 0.515509 0.493242
1347 1 0.0385545 0.514309 0.492552
4542 1 0.0313416 0.504365 0.495943
1419 1 0.0516818 0.516607 0.493998
1134 1 0.0557498 0.504085 0.494656
1355 1 0.0628416 0.51947 0.494103
1146 1 0.0665842 0.505006 0.494896
1363 1 0.0757137 0.519473 0.49472
870 1 0.0787722 0.508679 0.496097
1414 1 0.0916842 0.509937 0.496479
1421 1 0.104747 0.509182 0.495766
1560 1 0.115004 0.503669 0.497032
1506 1 0.120366 0.515239 0.496998
1362 1 0.142594 0.513845 0.499329
1784 1 0.132493 0.50465 0.498091
1847 1 0.149864 0.50441 0.498336
1577 1 0.159368 0.513214 0.496892
1494 1 0.166023 0.503143 0.498829
1294 1 0.176265 0.513164 0.497275
1361 1 0.190437 0.514705 0.497498
1293 1 0.19023 0.501952 0.497241
1002 1 0.203506 0.515784 0.496326
1435 1 0.213783 0.507363 0.4975
939 1 0.202247 0.50151 0.496908
1496 1 0.22332 0.517867 0.499146
1084 1 0.226778 0.500519 0.497989
1645 1 0.234181 0.519737 0.497736
1711 1 0.236688 0.508585 0.498904
1018 1 0.247255 0.514102 0.499058
1288 1 0.0135149 0.523061 0.494206
1614 1 0.00785741 0.534253 0.492094
1681 1 0.0235079 0.531937 0.493064
1342 1 0.0363929 0.525586 0.494193
1493 1 0.0330338 0.540857 0.493924
4389 1 0.052592 0.530124 0.492455
1564 1 0.0435267 0.540566 0.492829
1480 1 0.0665956 0.533038 0.492015
1148 1 0.079235 0.532365 0.494738
1565 1 0.105816 0.521989 0.495436
1490 1 0.0903385 0.523753 0.49517
1758 1 0.0998868 0.532201 0.496079
1431 1 0.0891875 0.540596 0.495595
1846 1 0.115859 0.533089 0.495229
1690 1 0.127602 0.538246 0.497713
1482 1 0.129651 0.525082 0.497211
4548 1 0.14322 0.52646 0.497794
1687 1 0.147426 0.53872 0.497611
1432 1 0.16891 0.525427 0.496097
1639 1 0.155161 0.523441 0.497045
1553 1 0.160616 0.535345 0.495994
1934 1 0.175952 0.538233 0.496923
1760 1 0.190323 0.539284 0.495787
1704 1 0.182785 0.527971 0.497009
1003 1 0.212963 0.522013 0.496039
1854 1 0.196242 0.525249 0.495833
1661 1 0.205895 0.533034 0.495967
1358 1 0.219701 0.536833 0.496699
1795 1 0.235079 0.532887 0.497689
1660 1 0.256186 0.541338 0.498763
1495 1 0.248739 0.526911 0.498398
1569 1 0.269517 0.534117 0.499832
1356 1 0.0199705 0.547848 0.492591
1412 1 0.00797047 0.547097 0.492279
1612 1 0.00204696 0.561391 0.493589
4470 1 0.0141423 0.559531 0.492911
1271 1 0.0296467 0.554897 0.493034
1214 1 0.04233 0.555171 0.492666
1209 1 0.0561342 0.544402 0.491476
4409 1 0.0562077 0.55638 0.492404
1145 1 0.0735908 0.544269 0.492975
1492 1 0.0705476 0.555761 0.49283
1289 1 0.0844959 0.552948 0.493572
1433 1 0.101553 0.54985 0.494489
1488 1 0.0948161 0.560001 0.493598
1686 1 0.111973 0.544895 0.496298
1004 1 0.110587 0.560056 0.493538
1621 1 0.125876 0.551656 0.495326
1556 1 0.138176 0.547298 0.498592
1420 1 0.138911 0.560034 0.496217
860 1 0.152066 0.554427 0.496196
1554 1 0.16197 0.546179 0.497507
1857 1 0.165395 0.560784 0.495479
1699 1 0.173814 0.550491 0.495164
1708 1 0.187291 0.550054 0.495758
1997 1 0.179984 0.561135 0.493746
1759 1 0.194385 0.561146 0.495429
1489 1 0.199722 0.550029 0.495498
1872 1 0.209652 0.562488 0.49573
1633 1 0.211257 0.547224 0.495056
1667 1 0.228722 0.548178 0.495855
1718 1 0.221789 0.558612 0.494637
1509 1 0.242123 0.544082 0.497145
1714 1 0.240609 0.557433 0.495279
1860 1 0.254652 0.553859 0.497933
1664 1 0.253269 0.564076 0.49712
1648 1 0.269253 0.550229 0.499184
1794 1 0.270968 0.561868 0.498993
1597 1 0.34173 0.56274 0.499929
4270 1 0.00889345 0.573648 0.492827
4689 1 0.0142027 0.5851 0.491858
1824 1 0.000449783 0.585705 0.492661
4410 1 0.0219129 0.570673 0.49297
4544 1 0.0360787 0.568451 0.494106
4399 1 0.0303081 0.581642 0.493545
1478 1 0.0479292 0.570505 0.492604
1611 1 0.0584117 0.581556 0.491888
1479 1 0.0460612 0.584303 0.492237
1285 1 0.0622513 0.570127 0.49144
1275 1 0.0785563 0.565821 0.492885
1430 1 0.0777041 0.578076 0.493127
1211 1 0.0907915 0.570981 0.492638
1557 1 0.103852 0.574815 0.49411
1212 1 0.0944113 0.581668 0.494186
1572 1 0.12562 0.566328 0.494409
4408 1 0.117557 0.575003 0.494218
1491 1 0.129049 0.58534 0.494114
4549 1 0.113343 0.585123 0.494471
1481 1 0.135959 0.575129 0.495396
1627 1 0.149459 0.569777 0.496153
1622 1 0.163475 0.573829 0.496293
1852 1 0.168627 0.583829 0.496817
1570 1 0.153821 0.581519 0.4957
1566 1 0.177708 0.57296 0.494851
1790 1 0.185808 0.581876 0.496534
1876 1 0.193261 0.573606 0.494501
1706 1 0.199855 0.582023 0.496049
1724 1 0.208871 0.573956 0.496215
2008 1 0.23338 0.567808 0.494856
1937 1 0.220406 0.57237 0.495162
1785 1 0.223833 0.585112 0.496689
2024 1 0.235164 0.579284 0.496555
1656 1 0.246288 0.574039 0.495782
2291 1 0.251019 0.585936 0.498255
1712 1 0.261731 0.573567 0.498476
1859 1 0.280272 0.573027 0.499311
1221 1 0.271856 0.57976 0.499504
1662 1 0.296194 0.579637 0.499366
1465 1 0.317047 0.574126 0.499221
1873 1 0.332918 0.575435 0.499184
1608 1 0.480768 0.582615 0.499558
1892 1 0.0131905 0.599618 0.49267
4741 1 0.0269498 0.607796 0.493184
1898 1 0.0241051 0.593318 0.492775
1416 1 0.0381549 0.597093 0.493143
1682 1 0.0541214 0.59596 0.493472
4474 1 0.0639703 0.607511 0.493368
1483 1 0.08457 0.59015 0.493879
1691 1 0.0711009 0.5915 0.493202
4620 1 0.0803793 0.604163 0.492262
2055 1 0.0907482 0.599204 0.493955
4759 1 0.102393 0.592935 0.494596
1843 1 0.106021 0.606671 0.493453
1766 1 0.117155 0.600083 0.495878
1644 1 0.129787 0.596834 0.496679
4468 1 0.143045 0.588088 0.496193
1701 1 0.144351 0.601635 0.496699
4480 1 0.157589 0.594135 0.496381
1777 1 0.16782 0.59953 0.496103
1878 1 0.180777 0.593283 0.497947
1944 1 0.175808 0.607335 0.497777
1771 1 0.186671 0.60593 0.497158
1546 1 0.195116 0.594148 0.497101
2095 1 0.210327 0.590001 0.497426
1705 1 0.20676 0.603229 0.497946
1870 1 0.221134 0.598287 0.497751
1659 1 0.235159 0.593987 0.499041
1945 1 0.248817 0.602757 0.499184
1946 1 0.264732 0.606656 0.498732
1734 1 0.264579 0.593796 0.499783
2020 1 0.27727 0.597793 0.499271
1658 1 0.285434 0.587399 0.499279
1743 1 0.295437 0.59834 0.499331
1802 1 0.285321 0.608681 0.498301
1941 1 0.310042 0.589815 0.499358
1595 1 0.305656 0.604256 0.499261
1458 1 0.334047 0.588516 0.499442
1886 1 0.340195 0.598182 0.499523
4491 1 0.489895 0.608396 0.499889
1472 1 0.00350295 0.628395 0.493047
4467 1 0.0106261 0.611157 0.494471
1696 1 0.015791 0.623075 0.49277
1688 1 0.0307065 0.621399 0.493026
1756 1 0.0433851 0.628128 0.49359
1070 1 0.0407462 0.6088 0.493393
1761 1 0.0498927 0.616094 0.491878
4607 1 0.0807717 0.618092 0.492677
1552 1 0.0674444 0.622735 0.493699
4688 1 0.093175 0.623043 0.494285
1764 1 0.0949563 0.610326 0.493204
4962 1 0.105179 0.623856 0.495518
1767 1 0.128892 0.610494 0.498519
1636 1 0.11691 0.614669 0.496895
4479 1 0.125642 0.624937 0.497424
1616 1 0.138665 0.616592 0.498002
1685 1 0.150226 0.611602 0.498356
2011 1 0.151199 0.627911 0.498729
1543 1 0.161021 0.616108 0.499665
1561 1 0.17474 0.618941 0.499764
1417 1 0.191811 0.616974 0.49802
1798 1 0.206781 0.619184 0.497259
1666 1 0.220001 0.614406 0.498976
2069 1 0.234608 0.6134 0.498521
1729 1 0.224457 0.626689 0.497479
1936 1 0.253446 0.615539 0.499493
2076 1 0.242192 0.625063 0.49891
1804 1 0.27001 0.616277 0.499234
1880 1 0.283918 0.622558 0.498801
1801 1 0.29684 0.618908 0.499058
1867 1 0.308627 0.626966 0.499682
4828 1 0.0182839 0.637923 0.493545
4673 1 0.00637876 0.644462 0.492645
4746 1 0.0244115 0.650544 0.492941
4472 1 0.0312726 0.632731 0.491787
4754 1 0.0357 0.642781 0.493741
1619 1 0.0556013 0.631856 0.493825
4401 1 0.0468234 0.643307 0.493108
1683 1 0.0607538 0.644423 0.494198
2037 1 0.079735 0.63126 0.495203
4393 1 0.0693277 0.636571 0.494536
4619 1 0.0800165 0.644456 0.495569
4398 1 0.0917739 0.634834 0.493545
1831 1 0.1024 0.639341 0.49447
4614 1 0.0910362 0.649471 0.496418
2139 1 0.113069 0.632497 0.497585
1770 1 0.114622 0.650192 0.496955
2040 1 0.124368 0.640942 0.4981
4618 1 0.13566 0.632508 0.499075
2072 1 0.135053 0.645337 0.497564
1559 1 0.147285 0.640357 0.498606
1624 1 0.166955 0.631822 0.499209
1630 1 0.16105 0.643249 0.498763
1788 1 0.177446 0.641884 0.499315
1692 1 0.183419 0.631409 0.498432
1730 1 0.194725 0.643635 0.498541
2147 1 0.196395 0.630713 0.497877
2285 1 0.208533 0.645436 0.497067
1702 1 0.209538 0.631905 0.499165
1874 1 0.233788 0.637115 0.496831
2053 1 0.221604 0.640255 0.496019
2094 1 0.247277 0.641284 0.496798
1800 1 0.255919 0.631636 0.499936
1445 1 0.26917 0.630761 0.499875
1943 1 0.263189 0.644235 0.498523
1996 1 0.276522 0.644474 0.498388
1582 1 0.298202 0.632886 0.499411
2087 1 0.283187 0.634488 0.498712
1590 1 0.292439 0.647269 0.499428
4687 1 0.0110098 0.661978 0.493033
1839 1 0.0246663 0.665433 0.495567
1834 1 0.0371775 0.655677 0.494208
1973 1 0.0406329 0.668045 0.495145
4541 1 0.0515534 0.654872 0.49513
1899 1 0.0599376 0.664658 0.496049
4476 1 0.0686602 0.653215 0.495996
1851 1 0.0727564 0.667681 0.496981
1694 1 0.0815311 0.658372 0.496099
1689 1 0.0852216 0.672219 0.497896
1908 1 0.102049 0.653656 0.494758
1631 1 0.0965812 0.666016 0.497706
1429 1 0.112313 0.664264 0.498222
1977 1 0.125776 0.656146 0.499043
4612 1 0.131628 0.668176 0.497977
1703 1 0.143818 0.665511 0.498789
1902 1 0.144621 0.653982 0.498182
1797 1 0.170891 0.667307 0.498655
1967 1 0.171589 0.6557 0.499281
1757 1 0.157076 0.666262 0.498535
1768 1 0.158583 0.655412 0.499757
1550 1 0.185716 0.658232 0.499891
2211 1 0.205101 0.672462 0.498755
1772 1 0.199106 0.658811 0.497071
2019 1 0.213279 0.65773 0.497312
1917 1 0.226269 0.65229 0.495284
2217 1 0.223297 0.669356 0.494988
2070 1 0.238192 0.666834 0.493977
2154 1 0.241974 0.654653 0.496002
1728 1 0.251045 0.667404 0.49455
2274 1 0.257309 0.655652 0.495805
1861 1 0.280348 0.667376 0.498519
2215 1 0.271882 0.656157 0.497267
1999 1 0.264272 0.666984 0.495929
1670 1 0.28489 0.656627 0.498112
2056 1 0.00121248 0.683728 0.494442
4680 1 0.0132102 0.67505 0.494454
4756 1 0.0114896 0.691603 0.494994
1698 1 0.0218028 0.682809 0.49453
4959 1 0.0304673 0.675805 0.493167
2189 1 0.0402731 0.686395 0.49328
1751 1 0.0617742 0.676532 0.493987
1976 1 0.0506756 0.677484 0.494296
1695 1 0.0501909 0.694034 0.493695
1562 1 0.0611093 0.68729 0.495865
1927 1 0.0731425 0.684212 0.497421
1629 1 0.0857352 0.685887 0.499773
1763 1 0.0978499 0.684183 0.49933
1219 1 0.106448 0.674687 0.498785
1628 1 0.119981 0.675446 0.499756
1789 1 0.141244 0.694127 0.499653
2121 1 0.135957 0.680188 0.498773
1568 1 0.150901 0.679375 0.497235
1998 1 0.161606 0.677153 0.499389
1778 1 0.154101 0.691764 0.498244
1935 1 0.191024 0.675474 0.498907
1858 1 0.185106 0.688388 0.498598
2112 1 0.17425 0.679766 0.498462
2007 1 0.21271 0.680389 0.497833
1230 1 0.197627 0.688679 0.497874
1722 1 0.209516 0.693824 0.496838
1600 1 0.227732 0.682149 0.496256
2003 1 0.22126 0.69389 0.4971
2014 1 0.241678 0.679769 0.49372
2004 1 0.246431 0.691437 0.495488
1733 1 0.256161 0.679399 0.495031
1514 1 0.261023 0.69171 0.49535
1940 1 0.272226 0.680172 0.497661
2080 1 0.281143 0.689624 0.49897
1875 1 0.294402 0.693802 0.499313
2153 1 0.290257 0.678021 0.499322
1822 1 0.0130042 0.705128 0.494149
4889 1 0.0237309 0.696432 0.494231
4829 1 0.0279586 0.712624 0.493271
1962 1 0.0360546 0.703866 0.492931
1555 1 0.0613715 0.701629 0.495384
1753 1 0.0525513 0.713072 0.493131
1828 1 0.0739403 0.69699 0.498289
1922 1 0.0756041 0.709562 0.49579
1773 1 0.0866034 0.698065 0.499154
1984 1 0.0867812 0.716313 0.496649
1781 1 0.0983246 0.710985 0.499246
2244 1 0.109274 0.712238 0.498859
1787 1 0.145288 0.710949 0.499478
1855 1 0.15758 0.70427 0.499106
1732 1 0.172098 0.716358 0.499591
1909 1 0.173496 0.703744 0.498602
1498 1 0.185174 0.700353 0.498244
1987 1 0.190169 0.710366 0.497551
1993 1 0.210694 0.705759 0.496693
1775 1 0.197874 0.700398 0.497128
1558 1 0.202457 0.715064 0.496482
2277 1 0.234854 0.697653 0.495924
2352 1 0.222616 0.7074 0.495976
2357 1 0.235715 0.71221 0.495664
2077 1 0.24742 0.703154 0.495031
1598 1 0.259389 0.70831 0.495207
1956 1 0.272259 0.700316 0.496716
1517 1 0.272581 0.713367 0.49766
2009 1 0.28656 0.703451 0.499932
4698 1 0.492079 0.702528 0.499736
4613 1 0.0105581 0.720625 0.493394
5171 1 0.013028 0.738438 0.493349
4823 1 0.0222232 0.727862 0.494022
4897 1 0.0326144 0.738819 0.494344
1825 1 0.0401421 0.725618 0.493701
1842 1 0.0542131 0.728121 0.493049
2132 1 0.0669253 0.720264 0.496097
1903 1 0.0753334 0.727989 0.495238
1780 1 0.089317 0.733211 0.4973
1900 1 0.0997363 0.723528 0.496554
2031 1 0.123071 0.733161 0.498873
1827 1 0.114511 0.723629 0.498995
1765 1 0.109001 0.734193 0.497249
1978 1 0.135939 0.73506 0.499299
2127 1 0.146539 0.726555 0.499047
1850 1 0.183513 0.718848 0.497223
4891 1 0.1869 0.731556 0.498618
1913 1 0.197815 0.725974 0.496838
2140 1 0.209285 0.732212 0.496451
2356 1 0.214892 0.721391 0.495821
2222 1 0.228809 0.723035 0.496345
2143 1 0.225158 0.733443 0.49554
1939 1 0.239075 0.728986 0.496485
1807 1 0.24823 0.718066 0.49505
1799 1 0.254168 0.731492 0.497213
2350 1 0.26212 0.721773 0.496578
2281 1 0.277278 0.727039 0.497816
2216 1 0.265165 0.735995 0.498893
2282 1 0.289495 0.731433 0.499392
2294 1 0.299145 0.733946 0.497831
1811 1 0.287847 0.718334 0.499845
2098 1 0.312243 0.733591 0.498274
2160 1 0.324982 0.732944 0.499908
2438 1 0.488898 0.733465 0.499968
1750 1 0.488587 0.71754 0.499486
4545 1 0.00133201 0.74063 0.49441
2048 1 0.0128208 0.75464 0.495974
2114 1 0.022674 0.748416 0.494779
2041 1 0.02807 0.759685 0.497036
2109 1 0.0384654 0.748426 0.496828
1897 1 0.0478532 0.739585 0.495025
4682 1 0.0634364 0.740493 0.495077
1895 1 0.0532385 0.752129 0.497115
4606 1 0.0445627 0.760674 0.49811
1849 1 0.0680337 0.755042 0.49765
2115 1 0.0788015 0.760511 0.498224
1930 1 0.0795 0.741981 0.497843
1841 1 0.0909015 0.75265 0.499056
2045 1 0.098456 0.741867 0.4978
2243 1 0.10801 0.751842 0.497684
2386 1 0.125761 0.759488 0.499068
2241 1 0.121604 0.747827 0.499984
1915 1 0.137134 0.747422 0.499144
1982 1 0.175468 0.745839 0.499696
2353 1 0.187502 0.745399 0.498356
1925 1 0.182101 0.760171 0.499358
1776 1 0.198141 0.757369 0.497418
2016 1 0.211102 0.754065 0.497366
2065 1 0.200427 0.74063 0.497621
1933 1 0.215135 0.742991 0.497697
2017 1 0.237392 0.757085 0.497255
2286 1 0.223904 0.759942 0.496573
2425 1 0.22594 0.747925 0.496439
2170 1 0.238167 0.743473 0.496592
1837 1 0.252281 0.756141 0.498341
2354 1 0.249797 0.742744 0.49804
2071 1 0.261064 0.746369 0.497839
1926 1 0.273961 0.74629 0.496688
1910 1 0.281358 0.756214 0.496826
4910 1 0.268167 0.757141 0.497971
4766 1 0.283985 0.741412 0.498348
2213 1 0.29484 0.745221 0.495921
1869 1 0.3017 0.756163 0.495264
2519 1 0.321642 0.746746 0.499211
2212 1 0.314216 0.759958 0.497021
4909 1 0.308183 0.746836 0.496581
1948 1 0.331414 0.756597 0.497269
1953 1 0.34557 0.759355 0.498199
2157 1 0.337238 0.74456 0.499865
1539 1 0.351274 0.747228 0.498394
5112 1 0.358558 0.759295 0.497935
1959 1 0.379172 0.758345 0.499429
1881 1 0.394364 0.756721 0.498727
5055 1 0.482539 0.757341 0.499476
2510 1 0.497539 0.746597 0.4986
5262 1 0.48441 0.744884 0.498138
4808 1 0.00271171 0.768667 0.496502
4957 1 0.0142184 0.770176 0.49709
5109 1 0.0123728 0.78069 0.499573
1762 1 0.0327051 0.771278 0.497829
1823 1 0.0241535 0.78112 0.499952
4616 1 0.0585118 0.774443 0.499541
1829 1 0.0579371 0.762718 0.498243
1972 1 0.0447771 0.773744 0.498705
2044 1 0.0750684 0.775269 0.499065
2042 1 0.0995308 0.760941 0.499016
2034 1 0.104543 0.776843 0.499764
1980 1 0.0893454 0.769309 0.498557
1833 1 0.114973 0.767405 0.499124
2145 1 0.138226 0.780639 0.499588
1835 1 0.191318 0.769272 0.498437
1990 1 0.176358 0.770627 0.499353
1918 1 0.213053 0.766983 0.497151
2120 1 0.207172 0.777525 0.497537
2411 1 0.195762 0.782317 0.497761
2079 1 0.22728 0.770931 0.498087
1919 1 0.23764 0.780108 0.498293
1791 1 0.244508 0.767823 0.498199
2228 1 0.25882 0.780657 0.498786
2144 1 0.260919 0.767486 0.497567
4763 1 0.277591 0.769939 0.498376
2309 1 0.291773 0.763498 0.495962
2156 1 0.288586 0.776427 0.498273
4971 1 0.302913 0.771271 0.497323
2135 1 0.314722 0.775921 0.498153
1995 1 0.325099 0.767764 0.495418
2219 1 0.336494 0.773743 0.497127
2092 1 0.348641 0.769833 0.497791
4838 1 0.361883 0.774278 0.498484
2151 1 0.374613 0.769445 0.498013
1949 1 0.38879 0.76887 0.498892
5263 1 0.387244 0.780971 0.498149
4842 1 0.449038 0.775261 0.499358
4693 1 0.445935 0.762982 0.499342
4906 1 0.471987 0.780778 0.497894
2375 1 0.494145 0.764292 0.498824
4699 1 0.479872 0.771878 0.499624
2304 1 0.491189 0.776281 0.498122
1894 1 0.0381876 0.787325 0.499896
1752 1 0.1211 0.803437 0.499394
2036 1 0.114712 0.786833 0.499336
2337 1 0.130409 0.788872 0.499816
2259 1 0.172369 0.793476 0.499165
2105 1 0.165135 0.782933 0.499849
2253 1 0.161812 0.800655 0.499368
2073 1 0.190377 0.794009 0.49976
2181 1 0.203025 0.793419 0.498253
1923 1 0.214239 0.795052 0.498378
1700 1 0.219711 0.782615 0.498269
2000 1 0.227266 0.789648 0.49941
2359 1 0.228282 0.801404 0.49962
2355 1 0.249876 0.788022 0.498884
2075 1 0.240255 0.794819 0.498742
2288 1 0.274196 0.782659 0.499249
2146 1 0.274301 0.800531 0.499674
2427 1 0.285846 0.791519 0.499582
4836 1 0.301672 0.787944 0.497541
2010 1 0.298707 0.801015 0.49984
2210 1 0.319094 0.787635 0.497284
5260 1 0.325046 0.798386 0.498977
2136 1 0.312516 0.797298 0.498827
4972 1 0.343691 0.7996 0.498271
5041 1 0.344709 0.782737 0.497965
4903 1 0.331447 0.788411 0.497705
2504 1 0.356937 0.799636 0.496977
5329 1 0.355738 0.787518 0.497815
2379 1 0.370182 0.785085 0.498241
2085 1 0.36995 0.803713 0.49658
5117 1 0.379342 0.796287 0.498114
5323 1 0.395391 0.792688 0.498676
5465 1 0.407202 0.797529 0.499812
5190 1 0.419236 0.800823 0.498835
5334 1 0.432711 0.803943 0.499188
5463 1 0.445283 0.797825 0.499122
2169 1 0.443844 0.784923 0.499656
5053 1 0.459725 0.803531 0.496555
5551 1 0.47026 0.794288 0.497669
4560 1 0.459311 0.786819 0.497623
5327 1 0.483033 0.786116 0.497845
2378 1 0.488171 0.796396 0.495882
2258 1 0.104824 0.805898 0.499809
1985 1 0.101987 0.825134 0.499692
2068 1 0.167244 0.813119 0.499398
1632 1 0.194652 0.807934 0.499909
2059 1 0.207368 0.807621 0.499297
2276 1 0.238487 0.808506 0.499342
2138 1 0.251199 0.804745 0.49954
2205 1 0.264738 0.808575 0.499928
4901 1 0.28577 0.805588 0.498728
2300 1 0.336417 0.815334 0.497954
5111 1 0.36521 0.819225 0.497935
2220 1 0.353429 0.811789 0.498073
4974 1 0.348657 0.824837 0.498221
5114 1 0.378326 0.812063 0.495937
2374 1 0.374884 0.825263 0.49767
4557 1 0.387291 0.818321 0.49939
4841 1 0.406859 0.808629 0.499829
5183 1 0.394573 0.805227 0.498908
2369 1 0.398869 0.817511 0.498471
5254 1 0.41835 0.813792 0.498858
2307 1 0.429717 0.821245 0.499088
2577 1 0.41325 0.82583 0.49918
5321 1 0.446994 0.810399 0.497735
5393 1 0.457332 0.819935 0.497416
2653 1 0.469148 0.812712 0.496975
2788 1 0.478971 0.80446 0.497483
5257 1 0.492242 0.80825 0.496624
2310 1 0.481965 0.816038 0.495902
1981 1 0.238012 0.82724 0.499219
2230 1 0.2386 0.841342 0.498958
2287 1 0.250127 0.83518 0.499822
2575 1 0.361191 0.830319 0.498291
2445 1 0.354592 0.843798 0.498781
5330 1 0.372354 0.838191 0.499379
2581 1 0.403825 0.834553 0.499859
66 1 0.41756 0.838735 0.499621
2509 1 0.430227 0.833904 0.499528
5116 1 0.433502 0.846774 0.498105
2012 1 0.445531 0.826302 0.498016
5251 1 0.446724 0.841497 0.497748
5474 1 0.472217 0.841316 0.497594
5189 1 0.460185 0.833086 0.498499
2159 1 0.470284 0.826212 0.496204
2729 1 0.481141 0.830971 0.496573
5397 1 0.494777 0.826212 0.49718
2373 1 0.490437 0.840213 0.495462
1991 1 0.0610831 0.859823 0.499929
1912 1 0.187699 0.860588 0.499082
2566 1 0.367324 0.850124 0.499907
4768 1 0.357197 0.857149 0.499921
2718 1 0.383905 0.848179 0.499338
2444 1 0.393385 0.85931 0.499959
2511 1 0.417661 0.8642 0.497793
2240 1 0.423593 0.85413 0.499114
2582 1 0.434479 0.862399 0.497834
5403 1 0.443834 0.855968 0.499644
206 1 0.469726 0.867182 0.499754
5256 1 0.473043 0.853232 0.498862
2646 1 0.458263 0.862913 0.499672
5044 1 0.460168 0.849064 0.499701
3100 1 0.483579 0.865927 0.49827
2649 1 0.498059 0.863389 0.495314
194 1 0.486054 0.852489 0.495569
2327 1 0.0290361 0.888414 0.49888
2188 1 0.0375238 0.881145 0.499884
2190 1 0.179693 0.877161 0.499563
2713 1 0.413801 0.877892 0.499807
2419 1 0.423101 0.887169 0.499218
51 1 0.426599 0.872175 0.498409
2715 1 0.435794 0.882531 0.498516
2720 1 0.442205 0.873355 0.498762
2232 1 0.448981 0.885124 0.498535
5535 1 0.465433 0.881344 0.49869
5396 1 0.495035 0.875367 0.497224
2568 1 0.489249 0.885114 0.49871
5405 1 0.478404 0.877625 0.498462
2050 1 0.0183191 0.896283 0.498915
2245 1 0.0304366 0.904283 0.499357
2454 1 0.0405603 0.896647 0.499094
5178 1 0.0406813 0.910567 0.499627
2123 1 0.0525505 0.909654 0.499425
1906 1 0.0765117 0.910849 0.498743
2329 1 0.0884363 0.908168 0.499333
2465 1 0.104294 0.901555 0.498863
2683 1 0.116175 0.900694 0.49955
2399 1 0.111311 0.912733 0.498531
2270 1 0.212825 0.899978 0.49949
2481 1 0.200388 0.896151 0.499162
2717 1 0.39938 0.909424 0.499641
2377 1 0.434688 0.894891 0.49862
2585 1 0.490287 0.909989 0.498974
5462 1 0.48634 0.897872 0.498247
5472 1 0.49854 0.893919 0.497956
4898 1 0.0200385 0.914128 0.499648
80 1 0.0115208 0.924892 0.498836
81 1 0.0226696 0.932249 0.498151
2677 1 0.0315318 0.919716 0.498367
79 1 0.0348613 0.934766 0.499584
2600 1 0.0605828 0.924838 0.499669
2383 1 0.0651483 0.913282 0.499433
2458 1 0.0861478 0.932693 0.498773
2529 1 0.0774024 0.921508 0.499021
72 1 0.0701232 0.931775 0.499499
2462 1 0.0989435 0.913833 0.499027
2526 1 0.106909 0.925184 0.49762
5248 1 0.0898928 0.92085 0.498097
2530 1 0.117971 0.933819 0.498702
2336 1 0.121352 0.921177 0.499295
2387 1 0.136704 0.919136 0.499779
2199 1 0.132356 0.931739 0.499107
2476 1 0.147286 0.929612 0.499435
2412 1 0.202705 0.921966 0.499859
142 1 0.0213051 0.947327 0.498755
5523 1 0.00550464 0.941362 0.499043
2608 1 0.00869149 0.953162 0.498435
16 1 0.0567685 0.953841 0.499211
2248 1 0.0641791 0.941951 0.498423
164 1 0.0506337 0.934815 0.499254
2736 1 0.0779355 0.944614 0.499879
7 1 0.108038 0.944574 0.498705
2536 1 0.0941131 0.948469 0.499018
2390 1 0.100498 0.935964 0.497864
2193 1 0.126799 0.945761 0.498832
2621 1 0.144123 0.94174 0.498892
5320 1 0.140264 0.954063 0.499664
2334 1 0.167465 0.942421 0.498657
2262 1 0.154165 0.953373 0.498953
2396 1 0.17932 0.94405 0.499362
2332 1 0.193053 0.945693 0.49937
5386 1 0.00445112 0.966971 0.497042
5585 1 0.0167324 0.962883 0.497572
2606 1 0.0427995 0.959578 0.498947
5589 1 0.0362658 0.971882 0.49783
5528 1 0.0235619 0.975566 0.497512
5518 1 0.0297641 0.960399 0.497886
77 1 0.0643296 0.969655 0.499951
2062 1 0.0795488 0.970076 0.499422
2381 1 0.0839166 0.957158 0.499085
2664 1 0.0713201 0.957965 0.499553
2624 1 0.0950025 0.968318 0.499162
83 1 0.106406 0.970593 0.499548
2391 1 0.132358 0.9645 0.499095
2680 1 0.147815 0.965515 0.49856
2558 1 0.167376 0.957876 0.49714
2328 1 0.160011 0.969809 0.498252
2187 1 0.189977 0.969959 0.499359
2460 1 0.173924 0.972296 0.498807
2416 1 0.182913 0.95893 0.498131
2769 1 0.20011 0.957661 0.499965
2939 1 0.0106952 0.991721 0.497835
8 1 0.0126757 0.979646 0.498883
5595 1 0.00164689 0.99902 0.49651
5521 1 0.025227 0.99164 0.499274
2591 1 0.0364882 0.984917 0.498528
5443 1 0.044668 0.996726 0.499632
3218 1 0.0546139 0.98553 0.499264
2331 1 0.0868735 0.991992 0.499206
2745 1 0.0727691 0.982644 0.498748
2595 1 0.0724781 0.997274 0.499158
2322 1 0.089876 0.979009 0.497707
2521 1 0.102022 0.984192 0.499571
103 1 0.167166 0.982648 0.498655
2746 1 0.155009 0.982134 0.499426
109 1 0.183333 0.980707 0.497655
2533 1 0.175062 0.991673 0.499009
2539 1 0.198696 0.995567 0.499683
1079 1 0.25905 0.509529 0.500657
1150 1 0.2715 0.510311 0.502905
1646 1 0.287335 0.508204 0.503402
1512 1 0.30109 0.508669 0.504259
1863 1 0.297165 0.520835 0.503569
1508 1 0.316976 0.516349 0.502222
1367 1 0.314901 0.504117 0.502655
1578 1 0.347491 0.508537 0.502891
1589 1 0.33496 0.510517 0.502114
1864 1 0.356578 0.517538 0.502726
1737 1 0.361139 0.502289 0.504084
1155 1 0.38125 0.511587 0.504839
1523 1 0.370392 0.514191 0.503632
1369 1 0.394077 0.515089 0.506473
1932 1 0.4053 0.509053 0.50699
1372 1 0.394419 0.503244 0.505562
1453 1 0.423177 0.504694 0.505653
1518 1 0.414632 0.518439 0.5074
1094 1 0.436431 0.509859 0.504411
1316 1 0.45093 0.511908 0.502865
1172 1 0.464628 0.513065 0.502545
1746 1 0.472074 0.521622 0.503215
1297 1 0.459728 0.50059 0.503071
1815 1 0.481237 0.509531 0.502635
1391 1 0.489444 0.520452 0.50251
4634 1 0.496294 0.508154 0.500527
1444 1 0.2793 0.523273 0.502301
1573 1 0.262486 0.52456 0.500424
1779 1 0.280171 0.540778 0.501226
1803 1 0.287893 0.532126 0.500819
1717 1 0.298901 0.537489 0.502733
1563 1 0.319723 0.534583 0.503078
1503 1 0.309427 0.526806 0.503601
1786 1 0.30957 0.543358 0.50356
1368 1 0.340104 0.523708 0.502664
1736 1 0.334755 0.535808 0.501947
1866 1 0.327291 0.523027 0.50124
1647 1 0.352389 0.529186 0.502898
1535 1 0.360818 0.537795 0.501064
2090 1 0.349364 0.539393 0.501385
1868 1 0.369946 0.527534 0.502045
1796 1 0.381811 0.525076 0.505535
1463 1 0.37749 0.538583 0.502865
1720 1 0.403604 0.524014 0.505136
1655 1 0.392772 0.531105 0.505543
1510 1 0.406966 0.535304 0.506321
1374 1 0.42077 0.533622 0.505885
1505 1 0.429314 0.521865 0.50632
1650 1 0.437966 0.534936 0.505307
1383 1 0.442119 0.523087 0.504447
1173 1 0.453262 0.534884 0.503982
1098 1 0.458046 0.524067 0.501748
4274 1 0.467975 0.535499 0.502995
4570 1 0.4812 0.532909 0.50386
1250 1 0.494287 0.534115 0.503002
1625 1 0.282537 0.560133 0.50023
1571 1 0.299226 0.553898 0.501877
1735 1 0.289993 0.547917 0.500619
1669 1 0.314254 0.556512 0.501122
1306 1 0.325041 0.54674 0.500965
1529 1 0.337248 0.548995 0.501643
1950 1 0.328503 0.561246 0.500102
1663 1 0.354278 0.552197 0.502138
1654 1 0.368844 0.551512 0.502194
1436 1 0.38883 0.54479 0.505323
1375 1 0.382794 0.555648 0.503645
1513 1 0.401079 0.545862 0.505039
4272 1 0.411333 0.54897 0.505404
1396 1 0.396511 0.558691 0.505053
1228 1 0.427657 0.545146 0.505494
1390 1 0.421452 0.561652 0.503614
1657 1 0.436335 0.556811 0.505594
1593 1 0.445205 0.547271 0.504941
1668 1 0.448241 0.55966 0.504227
1591 1 0.470945 0.5476 0.503696
1380 1 0.457299 0.547479 0.504569
1386 1 0.46366 0.559247 0.503873
1314 1 0.47912 0.557782 0.50328
1501 1 0.484178 0.545207 0.502999
4276 1 0.494662 0.555334 0.502909
1649 1 0.291182 0.567305 0.500619
1947 1 0.304498 0.566824 0.50094
4486 1 0.322121 0.585447 0.500213
1462 1 0.344952 0.577615 0.500469
1460 1 0.355322 0.567635 0.501526
1809 1 0.362278 0.579328 0.502095
1584 1 0.369983 0.565455 0.501739
1371 1 0.385508 0.571588 0.503344
1585 1 0.377721 0.581137 0.501934
1520 1 0.396977 0.579052 0.503253
4349 1 0.406848 0.565396 0.503518
1242 1 0.411808 0.582064 0.50308
1162 1 0.423056 0.57458 0.504331
1536 1 0.436027 0.568862 0.504854
1676 1 0.441224 0.58213 0.502428
1164 1 0.452183 0.570753 0.504487
1464 1 0.463396 0.579429 0.503454
1459 1 0.471465 0.571797 0.501411
1740 1 0.488495 0.570687 0.501293
1376 1 0.497618 0.584641 0.501046
1457 1 0.322998 0.599997 0.5004
1537 1 0.351352 0.590365 0.500776
2023 1 0.357651 0.601372 0.500696
1665 1 0.367324 0.591609 0.502525
1721 1 0.389117 0.591188 0.502557
1530 1 0.370579 0.608545 0.500082
1307 1 0.379129 0.595255 0.500826
1531 1 0.385649 0.608288 0.500208
1524 1 0.395725 0.602947 0.501412
1519 1 0.401672 0.591803 0.50325
1596 1 0.408045 0.603822 0.501565
1581 1 0.415625 0.594173 0.502332
4414 1 0.427568 0.587558 0.501718
4499 1 0.427782 0.606517 0.502426
4346 1 0.45232 0.587887 0.501813
1234 1 0.438016 0.59696 0.500698
1515 1 0.450356 0.600251 0.501994
1516 1 0.463392 0.602467 0.501017
1522 1 0.47192 0.591965 0.501235
4280 1 0.478038 0.60286 0.500699
1534 1 0.489709 0.596202 0.500446
1817 1 0.321115 0.625405 0.501854
1744 1 0.315041 0.614343 0.500359
1816 1 0.330368 0.611773 0.500362
1606 1 0.345169 0.61045 0.501783
4416 1 0.336358 0.62338 0.500037
1671 1 0.36109 0.616925 0.502534
1678 1 0.34866 0.623514 0.501595
1819 1 0.370368 0.624703 0.501391
1942 1 0.382555 0.620351 0.501107
1952 1 0.397383 0.615165 0.502058
1385 1 0.413022 0.626198 0.5026
4568 1 0.398781 0.627443 0.50221
1605 1 0.413652 0.613941 0.502552
4642 1 0.427619 0.618935 0.501738
4564 1 0.440513 0.612742 0.502973
1745 1 0.4533 0.611979 0.502858
1400 1 0.441266 0.626494 0.502852
4347 1 0.453147 0.627783 0.502195
1602 1 0.466203 0.616087 0.500524
4208 1 0.470837 0.630397 0.502231
1601 1 0.478377 0.618933 0.501356
4850 1 0.487435 0.62873 0.502475
1739 1 0.497737 0.622798 0.500665
1938 1 0.318002 0.640241 0.501662
1526 1 0.305978 0.642911 0.500021
1318 1 0.328637 0.648362 0.501669
1466 1 0.330579 0.636127 0.502811
1674 1 0.343677 0.635682 0.502084
1883 1 0.346916 0.645996 0.501729
1592 1 0.358523 0.633362 0.502767
2097 1 0.3613 0.650856 0.501812
1726 1 0.374245 0.638826 0.502481
2084 1 0.388902 0.634693 0.503312
4417 1 0.391351 0.650652 0.503348
2167 1 0.404235 0.642154 0.502729
1889 1 0.426954 0.632397 0.502259
4556 1 0.415762 0.641445 0.502486
4563 1 0.429286 0.644218 0.503278
1955 1 0.441289 0.63879 0.503145
4641 1 0.453889 0.647246 0.502162
2089 1 0.440613 0.651781 0.502241
4994 1 0.460909 0.636466 0.502098
4554 1 0.469102 0.64648 0.500993
4629 1 0.480528 0.639513 0.501014
1747 1 0.494207 0.647165 0.502191
1599 1 0.302485 0.655429 0.500946
1603 1 0.296873 0.666032 0.501384
1954 1 0.313602 0.672566 0.501781
1388 1 0.316574 0.654733 0.503767
1731 1 0.326596 0.666113 0.501065
2006 1 0.340034 0.655819 0.503163
1673 1 0.34325 0.668197 0.502547
1467 1 0.364594 0.666535 0.504154
1877 1 0.354806 0.659147 0.502517
4575 1 0.376062 0.652178 0.503722
4832 1 0.380084 0.666448 0.503026
2015 1 0.405667 0.653891 0.502356
1820 1 0.393517 0.662766 0.503387
4977 1 0.410904 0.667582 0.503339
2589 1 0.4191 0.655187 0.503029
4985 1 0.433603 0.661835 0.502608
2225 1 0.426228 0.672546 0.501001
1810 1 0.44224 0.668623 0.502289
1890 1 0.449576 0.661278 0.502679
4500 1 0.474189 0.659021 0.500579
1394 1 0.460979 0.656623 0.5036
4919 1 0.465722 0.671352 0.502718
2013 1 0.477952 0.671824 0.501255
4692 1 0.484138 0.65302 0.502162
4923 1 0.490954 0.664498 0.502189
1986 1 0.124967 0.69156 0.500659
1549 1 0.110475 0.686003 0.500019
1635 1 0.167988 0.6918 0.500102
1532 1 0.303143 0.679754 0.500369
2161 1 0.321257 0.683182 0.500841
2289 1 0.312111 0.691409 0.503123
1888 1 0.339301 0.680739 0.501833
4691 1 0.355668 0.676572 0.503688
2149 1 0.348584 0.68899 0.503153
2235 1 0.365964 0.682825 0.503833
1449 1 0.36105 0.695578 0.503335
4551 1 0.378723 0.679163 0.502797
1818 1 0.379544 0.692214 0.503769
1392 1 0.394816 0.674985 0.504251
4621 1 0.404997 0.69319 0.503002
1454 1 0.393771 0.688419 0.503087
1960 1 0.405918 0.679997 0.503993
1813 1 0.417572 0.683915 0.503546
5261 1 0.428157 0.689754 0.501762
4566 1 0.451472 0.676507 0.503416
1957 1 0.438534 0.679804 0.501864
4482 1 0.449169 0.690522 0.504108
4702 1 0.461205 0.68791 0.50405
4776 1 0.473419 0.682913 0.502141
2166 1 0.486802 0.680563 0.501491
4694 1 0.481268 0.694255 0.500759
4975 1 0.499772 0.674467 0.502457
4638 1 0.496131 0.691182 0.500778
1856 1 0.102061 0.697866 0.500133
2142 1 0.124938 0.71363 0.500221
1865 1 0.115626 0.701796 0.500253
1838 1 0.132535 0.70421 0.500268
2018 1 0.301343 0.709201 0.501546
1528 1 0.313347 0.709876 0.501185
1814 1 0.321734 0.702196 0.501547
2082 1 0.333351 0.696634 0.501553
2025 1 0.332902 0.715184 0.500632
1805 1 0.344254 0.702353 0.502702
2083 1 0.357211 0.708908 0.502371
1672 1 0.371831 0.704682 0.502405
2155 1 0.384214 0.708555 0.5032
1806 1 0.370456 0.716727 0.502751
1884 1 0.395068 0.701069 0.50324
2148 1 0.404952 0.707373 0.502258
2021 1 0.417784 0.714329 0.502856
4555 1 0.415733 0.699554 0.502603
4488 1 0.428852 0.706831 0.503637
4697 1 0.453692 0.70214 0.503326
4483 1 0.43783 0.697129 0.502505
4907 1 0.441761 0.711834 0.501213
5115 1 0.453571 0.715708 0.503216
2233 1 0.466579 0.711259 0.502215
1808 1 0.465178 0.699465 0.504085
4762 1 0.479225 0.706932 0.501749
2175 1 0.135529 0.720366 0.500861
1904 1 0.159525 0.71815 0.500436
1905 1 0.158492 0.732125 0.50043
1697 1 0.172743 0.729829 0.50027
4481 1 0.303067 0.722739 0.500422
1882 1 0.318211 0.720058 0.500385
4764 1 0.34753 0.717563 0.502053
2163 1 0.338059 0.733119 0.5001
2005 1 0.358505 0.722806 0.501167
1738 1 0.369237 0.73008 0.501083
2237 1 0.353008 0.73399 0.500049
1879 1 0.382374 0.722738 0.501779
2078 1 0.382607 0.733566 0.501279
1951 1 0.393054 0.718359 0.502416
5324 1 0.409157 0.73727 0.50114
1871 1 0.394421 0.731357 0.501202
1887 1 0.411099 0.724333 0.502505
2361 1 0.427399 0.721532 0.503272
4905 1 0.42283 0.733931 0.503543
2026 1 0.440264 0.723041 0.502143
5185 1 0.448048 0.73192 0.503517
4695 1 0.477947 0.723731 0.50033
4501 1 0.460843 0.724566 0.502265
5049 1 0.475692 0.736187 0.500358
2067 1 0.148305 0.739466 0.500566
2255 1 0.152459 0.755916 0.501751
1848 1 0.162305 0.746817 0.501354
5258 1 0.362971 0.741147 0.501306
4835 1 0.367716 0.753896 0.500254
2813 1 0.388747 0.746929 0.500552
1540 1 0.376161 0.743899 0.500065
2372 1 0.400147 0.746299 0.50031
2305 1 0.406164 0.759737 0.500959
2376 1 0.42557 0.747465 0.501455
2434 1 0.413485 0.74863 0.500933
2028 1 0.438394 0.740593 0.50245
4976 1 0.437297 0.753962 0.502249
4622 1 0.448733 0.745788 0.502257
1748 1 0.458995 0.750555 0.501324
4912 1 0.462957 0.739867 0.502544
5188 1 0.473147 0.751543 0.501921
1901 1 0.0944077 0.782399 0.500144
2226 1 0.125933 0.775325 0.500901
2081 1 0.140419 0.766832 0.500319
1623 1 0.149242 0.780941 0.500134
1836 1 0.155994 0.771905 0.500423
2002 1 0.16548 0.762022 0.500033
5113 1 0.401402 0.770646 0.500023
5255 1 0.417461 0.761799 0.500824
5186 1 0.42823 0.763519 0.50171
4552 1 0.426242 0.7776 0.501221
2443 1 0.414846 0.773951 0.500481
4908 1 0.437362 0.77269 0.501778
2096 1 0.458069 0.762913 0.500644
4484 1 0.469158 0.765705 0.500217
4495 1 0.461844 0.776516 0.500758
5099 1 0.00187013 0.804224 0.501143
4966 1 0.0131797 0.793372 0.501426
2172 1 0.0260015 0.796262 0.502452
2103 1 0.0358014 0.803297 0.502751
1830 1 0.0495805 0.801987 0.501262
2110 1 0.0621989 0.800831 0.500633
4826 1 0.0531623 0.785531 0.500999
2125 1 0.0765874 0.799722 0.50116
4881 1 0.0838938 0.787432 0.500123
1965 1 0.0669355 0.788579 0.500323
2117 1 0.089856 0.803883 0.50045
1911 1 0.103266 0.794015 0.501151
1924 1 0.139976 0.79507 0.500939
1970 1 0.148558 0.802977 0.500912
1626 1 0.155357 0.789911 0.500285
1637 1 0.181174 0.782708 0.500152
2279 1 0.264494 0.794113 0.501057
2029 1 0.403418 0.783451 0.500508
2518 1 0.415784 0.785905 0.500044
2450 1 0.429026 0.791325 0.501913
2047 1 0.0154255 0.821257 0.503529
5164 1 0.00321885 0.816998 0.50338
4900 1 0.0164086 0.806972 0.503682
1969 1 0.0433985 0.816607 0.502224
4970 1 0.0270568 0.811925 0.502462
2250 1 0.0277343 0.824561 0.502293
2326 1 0.058 0.814298 0.50091
2131 1 0.078909 0.823673 0.50122
2404 1 0.066882 0.825231 0.500346
2176 1 0.0713636 0.811339 0.500105
2177 1 0.0902197 0.816939 0.500249
1769 1 0.114744 0.81698 0.500424
1844 1 0.127224 0.816584 0.500057
1916 1 0.140548 0.820758 0.501195
2208 1 0.133526 0.806873 0.501953
1921 1 0.171792 0.823498 0.502401
2185 1 0.159425 0.825194 0.5013
1928 1 0.152962 0.81362 0.500401
1992 1 0.182673 0.818703 0.501172
1907 1 0.178837 0.805549 0.500097
2162 1 0.211237 0.822743 0.500176
1994 1 0.196959 0.822573 0.501005
2093 1 0.227929 0.81787 0.500953
2360 1 0.218598 0.808284 0.500464
2060 1 0.249678 0.818555 0.501499
2224 1 0.274263 0.818011 0.500721
2238 1 0.262623 0.823588 0.500065
2128 1 0.286947 0.823538 0.501535
2074 1 0.298193 0.814463 0.502443
2439 1 0.324179 0.809295 0.500788
2275 1 0.310678 0.807579 0.500954
2152 1 0.311222 0.81944 0.502679
2150 1 0.323328 0.823624 0.501814
5093 1 0.0171796 0.834283 0.503627
5097 1 0.00439972 0.831676 0.502844
5038 1 0.00740831 0.84665 0.503419
2104 1 0.0203381 0.845283 0.503991
4887 1 0.0412235 0.844646 0.501245
2261 1 0.0298547 0.836454 0.504658
5098 1 0.0401054 0.83025 0.50265
2410 1 0.0537939 0.846183 0.501294
1964 1 0.052108 0.828583 0.501331
2107 1 0.0627503 0.836505 0.500985
2260 1 0.0792648 0.837326 0.500285
2280 1 0.067525 0.847441 0.501379
2118 1 0.0923218 0.831969 0.502002
2612 1 0.0947005 0.846658 0.502322
1929 1 0.106567 0.838683 0.502912
2108 1 0.126388 0.828412 0.502116
1853 1 0.113434 0.82809 0.500468
2173 1 0.120895 0.838551 0.501749
2207 1 0.12994 0.847197 0.501932
1845 1 0.13531 0.835914 0.501243
2102 1 0.145114 0.844016 0.502383
2269 1 0.149422 0.830871 0.501056
2043 1 0.156969 0.83937 0.5018
2119 1 0.168542 0.837119 0.501398
2283 1 0.185588 0.832392 0.502194
2229 1 0.187995 0.844553 0.502104
2192 1 0.199169 0.839174 0.501699
4904 1 0.214501 0.845762 0.50047
1840 1 0.20971 0.835547 0.501162
2239 1 0.227516 0.844758 0.500503
2022 1 0.222963 0.832879 0.500163
2091 1 0.273496 0.844206 0.501578
2088 1 0.262875 0.838964 0.501607
4911 1 0.274622 0.832188 0.500873
4561 1 0.286439 0.83824 0.502644
2100 1 0.296258 0.83105 0.502355
2197 1 0.299629 0.847713 0.502821
2292 1 0.311374 0.836354 0.503181
2030 1 0.324539 0.840409 0.501211
2708 1 0.314969 0.847727 0.50266
5050 1 0.335057 0.833694 0.500186
4982 1 0.341873 0.84228 0.500649
2656 1 0.389486 0.832933 0.500087
2306 1 0.399214 0.847404 0.500427
5101 1 0.000795519 0.860136 0.503768
2184 1 0.0125332 0.859568 0.503796
2315 1 0.0321502 0.852484 0.504499
5180 1 0.0272028 0.864217 0.502576
2528 1 0.0378693 0.869349 0.500305
4964 1 0.0443514 0.860909 0.50212
2278 1 0.0725314 0.862238 0.501597
2246 1 0.0796265 0.850566 0.50292
2341 1 0.088491 0.863385 0.501361
2201 1 0.103431 0.854497 0.502337
2406 1 0.104741 0.868279 0.501924
2051 1 0.128754 0.858815 0.50192
2263 1 0.11656 0.851469 0.501853
2256 1 0.116208 0.863874 0.501039
2066 1 0.139815 0.854998 0.502122
1920 1 0.144016 0.867695 0.501588
2546 1 0.133272 0.869456 0.500579
2134 1 0.155244 0.866251 0.502561
2129 1 0.152881 0.853764 0.503202
2001 1 0.16773 0.866495 0.50057
1914 1 0.165127 0.85434 0.500545
2126 1 0.175754 0.850336 0.500991
2343 1 0.202243 0.851653 0.500951
2063 1 0.197605 0.868668 0.500155
2423 1 0.221563 0.856072 0.503441
2432 1 0.236819 0.857778 0.501562
2436 1 0.259816 0.851347 0.500118
2221 1 0.247994 0.847876 0.501187
4839 1 0.249338 0.861498 0.500345
4979 1 0.278967 0.860558 0.500958
2284 1 0.266085 0.860559 0.501728
2236 1 0.288102 0.854054 0.502927
4973 1 0.298616 0.862199 0.502329
2358 1 0.286691 0.86683 0.503381
2303 1 0.309494 0.864176 0.502138
1885 1 0.320493 0.859658 0.50179
2348 1 0.331239 0.8503 0.502168
2297 1 0.335254 0.865638 0.501953
2293 1 0.346147 0.856956 0.501241
4834 1 0.366941 0.868649 0.502335
2567 1 0.350628 0.869088 0.50272
5054 1 0.376121 0.86118 0.500256
2308 1 0.412372 0.850061 0.500188
2638 1 0.406995 0.864466 0.500606
15 1 0.00488506 0.888841 0.503498
5110 1 0.00896406 0.873371 0.501716
5179 1 0.022836 0.876786 0.501623
2679 1 0.0495521 0.870942 0.500906
2180 1 0.0504812 0.884785 0.50119
2672 1 0.0632156 0.875129 0.500973
5107 1 0.0780445 0.874677 0.500692
5037 1 0.0843217 0.886935 0.500492
2401 1 0.0684615 0.887322 0.500903
2602 1 0.0932955 0.878053 0.501557
2538 1 0.103228 0.886902 0.500735
2347 1 0.111198 0.878524 0.501424
2252 1 0.122999 0.874782 0.500719
2319 1 0.118027 0.888963 0.500537
2607 1 0.129964 0.882726 0.501903
2478 1 0.14213 0.881055 0.502076
2550 1 0.154752 0.877872 0.50157
2231 1 0.166872 0.881012 0.501883
2552 1 0.153824 0.89083 0.500174
1983 1 0.194264 0.883203 0.50081
2214 1 0.21039 0.87024 0.501737
1989 1 0.207766 0.884727 0.500622
2058 1 0.218132 0.885803 0.502146
2191 1 0.233095 0.886637 0.502279
2141 1 0.227294 0.873137 0.502258
2428 1 0.241351 0.872572 0.501356
2227 1 0.25382 0.872842 0.502234
2206 1 0.246606 0.883157 0.502364
2487 1 0.261304 0.883968 0.501889
5187 1 0.267391 0.873844 0.500812
2493 1 0.277513 0.874902 0.501985
2492 1 0.273437 0.887123 0.502527
2426 1 0.288709 0.880389 0.503105
2433 1 0.301089 0.875513 0.502151
2365 1 0.317096 0.875467 0.501231
2295 1 0.30816 0.885665 0.501469
2482 1 0.323762 0.888471 0.501682
2501 1 0.331307 0.878243 0.502364
2371 1 0.344992 0.883083 0.502633
2508 1 0.358732 0.879828 0.502462
2368 1 0.373214 0.881751 0.502001
2367 1 0.383984 0.887915 0.502288
2158 1 0.384767 0.870885 0.500845
2574 1 0.409494 0.887646 0.50156
5181 1 0.398598 0.887731 0.501539
2364 1 0.396903 0.874563 0.501011
5326 1 0.45555 0.874628 0.50004
2605 1 0.00772938 0.905945 0.50051
2183 1 0.0557897 0.897894 0.500182
2456 1 0.081936 0.897539 0.501085
2400 1 0.0685467 0.900557 0.501082
5318 1 0.0929762 0.896359 0.500198
2468 1 0.130277 0.896006 0.500914
2562 1 0.126149 0.908963 0.500142
2254 1 0.142634 0.893861 0.502673
2559 1 0.139607 0.906113 0.500955
2198 1 0.154498 0.906412 0.50116
2266 1 0.170476 0.89433 0.500804
2273 1 0.186198 0.89509 0.500475
2064 1 0.194293 0.905955 0.501216
2421 1 0.176066 0.906988 0.501279
2203 1 0.206935 0.910677 0.501447
2111 1 0.225332 0.897124 0.500608
2223 1 0.229302 0.908943 0.502263
2290 1 0.238158 0.900092 0.501904
2489 1 0.250326 0.895726 0.502047
2393 1 0.250466 0.90661 0.502863
2218 1 0.263453 0.896863 0.503436
2362 1 0.27694 0.902816 0.503019
2202 1 0.261274 0.911295 0.502469
2424 1 0.285774 0.893617 0.50379
2363 1 0.285548 0.912736 0.502932
2771 1 0.298285 0.89193 0.502831
2130 1 0.29496 0.903462 0.502748
4902 1 0.31358 0.896893 0.502787
2271 1 0.324266 0.902886 0.502016
2547 1 0.307087 0.907124 0.502716
4831 1 0.336322 0.892041 0.502339
2490 1 0.340455 0.905108 0.503873
2691 1 0.367954 0.892285 0.501623
2351 1 0.355565 0.895199 0.501007
2499 1 0.353914 0.90736 0.501673
2366 1 0.367783 0.906385 0.501801
4981 1 0.378375 0.899807 0.502303
2296 1 0.385506 0.911338 0.50211
2422 1 0.393702 0.89824 0.500359
121 1 0.407062 0.899278 0.500531
2302 1 0.4275 0.912653 0.500519
2441 1 0.421914 0.899678 0.501281
2790 1 0.414562 0.911351 0.500196
2578 1 0.445908 0.89837 0.500421
2647 1 0.453001 0.909153 0.501388
2730 1 0.437572 0.907032 0.500564
3012 1 0.475232 0.893941 0.500042
2652 1 0.462565 0.902857 0.501223
138 1 0.476312 0.907369 0.501626
2657 1 0.457684 0.891337 0.500028
5239 1 0.000592056 0.916812 0.501092
2739 1 0.0465186 0.922444 0.500209
2257 1 0.14772 0.917454 0.501121
2431 1 0.161953 0.917643 0.501052
2405 1 0.160977 0.929734 0.500379
1988 1 0.175821 0.926091 0.501135
2137 1 0.1887 0.917661 0.500098
2627 1 0.191619 0.931819 0.500191
2614 1 0.232026 0.925028 0.502543
2179 1 0.220102 0.92778 0.50104
2113 1 0.219209 0.914083 0.500749
2204 1 0.240307 0.914149 0.502197
2430 1 0.253326 0.922868 0.502451
2116 1 0.242319 0.932505 0.503397
2429 1 0.274474 0.918077 0.503631
2340 1 0.265616 0.92696 0.502933
2338 1 0.295761 0.918054 0.503627
2168 1 0.283923 0.92619 0.503298
41 1 0.298612 0.929529 0.503306
2619 1 0.307855 0.922396 0.503233
2545 1 0.320061 0.914162 0.503343
2703 1 0.318097 0.929445 0.503583
2268 1 0.328823 0.928888 0.503099
2298 1 0.338786 0.93214 0.502846
2781 1 0.334559 0.917207 0.502275
2576 1 0.348197 0.918499 0.503085
2502 1 0.353884 0.929942 0.503652
2164 1 0.36337 0.920932 0.50301
2491 1 0.366429 0.933392 0.503843
2234 1 0.375042 0.92086 0.501722
2486 1 0.389463 0.92557 0.502427
2797 1 0.404069 0.922782 0.501581
279 1 0.418037 0.929243 0.50108
2494 1 0.429916 0.929164 0.501012
2716 1 0.442497 0.920667 0.501043
5322 1 0.44039 0.933206 0.502038
2792 1 0.455528 0.91996 0.501043
3231 1 0.455774 0.931427 0.501428
3091 1 0.470881 0.918313 0.501318
209 1 0.469736 0.934299 0.501901
2955 1 0.496558 0.92956 0.501486
2721 1 0.481242 0.924449 0.5013
2316 1 0.0345508 0.94659 0.500024
2742 1 0.0467632 0.948139 0.500282
2470 1 0.155865 0.940807 0.500355
2344 1 0.205615 0.935539 0.50049
2196 1 0.208586 0.949752 0.500283
2272 1 0.23174 0.941321 0.502384
2463 1 0.220689 0.943602 0.500907
2569 1 0.255233 0.936141 0.501926
2503 1 0.259602 0.950324 0.502715
2480 1 0.246203 0.95016 0.502968
2345 1 0.280981 0.93711 0.502548
2265 1 0.269119 0.938686 0.503507
2194 1 0.273613 0.948206 0.50196
2784 1 0.29271 0.940202 0.502906
2472 1 0.285957 0.952066 0.501969
2613 1 0.30026 0.953099 0.501802
2565 1 0.308574 0.938459 0.503362
2507 1 0.312445 0.952028 0.502253
263 1 0.323331 0.942283 0.504108
2420 1 0.334413 0.944584 0.504447
2695 1 0.338592 0.956386 0.503491
2370 1 0.350347 0.955478 0.502852
2631 1 0.348516 0.944715 0.503467
2506 1 0.363136 0.944835 0.503987
2643 1 0.37879 0.936288 0.503061
2777 1 0.374246 0.951073 0.503305
2500 1 0.386778 0.947352 0.502259
2563 1 0.3973 0.93658 0.501718
2637 1 0.399409 0.953034 0.503308
59 1 0.415007 0.941035 0.502605
2513 1 0.43136 0.942532 0.502312
5533 1 0.42482 0.952848 0.504359
3030 1 0.449707 0.941759 0.502564
2809 1 0.439702 0.95083 0.50366
3090 1 0.451196 0.953637 0.504638
2945 1 0.461934 0.946848 0.503882
5531 1 0.476794 0.947833 0.503511
5400 1 0.490244 0.940176 0.501911
2515 1 0.49345 0.953785 0.503119
2864 1 0.051583 0.970538 0.500398
2209 1 0.101695 0.957437 0.500307
2171 1 0.117013 0.956563 0.500212
2186 1 0.121317 0.969932 0.500671
39 1 0.145125 0.976884 0.501114
2479 1 0.213805 0.963732 0.500007
2766 1 0.203956 0.97259 0.500018
2200 1 0.232379 0.957445 0.501108
2549 1 0.236075 0.9743 0.501905
2505 1 0.222468 0.971285 0.501514
2409 1 0.243749 0.962558 0.502669
2264 1 0.249383 0.976561 0.501347
2403 1 0.254798 0.965839 0.503358
2349 1 0.268676 0.959356 0.501847
2395 1 0.281125 0.961373 0.502798
2497 1 0.266798 0.97113 0.502608
2339 1 0.281762 0.975566 0.502293
40 1 0.291507 0.968459 0.502113
2692 1 0.303478 0.966941 0.501721
2645 1 0.326053 0.956696 0.504101
2496 1 0.316739 0.968859 0.502304
2573 1 0.346613 0.969809 0.503394
112 1 0.330406 0.968948 0.502708
2783 1 0.35809 0.966201 0.50342
2714 1 0.371234 0.965129 0.501466
2655 1 0.387547 0.959107 0.502862
2701 1 0.386799 0.972058 0.501507
2572 1 0.408776 0.977399 0.505311
2639 1 0.401142 0.966356 0.50453
5536 1 0.411763 0.957332 0.503995
2724 1 0.417753 0.967776 0.50494
5468 1 0.43365 0.963156 0.504903
2711 1 0.445678 0.966519 0.504113
3102 1 0.468715 0.961233 0.504143
2948 1 0.460074 0.970031 0.506177
2728 1 0.473785 0.971906 0.504539
3365 1 0.493355 0.972723 0.503995
275 1 0.482429 0.962842 0.502926
93 1 0.127335 0.995102 0.501688
2604 1 0.117386 0.982874 0.501503
2459 1 0.110456 0.994158 0.500839
2611 1 0.14173 0.993948 0.501892
2466 1 0.132205 0.979569 0.500707
2757 1 0.159094 0.997451 0.500249
2318 1 0.18572 0.993117 0.500778
2697 1 0.207237 0.987971 0.501509
2435 1 0.21608 0.981364 0.500929
2553 1 0.196838 0.982887 0.500856
2402 1 0.226706 0.988143 0.500851
2182 1 0.239373 0.987796 0.502408
2620 1 0.251805 0.993354 0.502892
2475 1 0.260626 0.982902 0.501938
2693 1 0.264626 0.997312 0.502395
2267 1 0.272534 0.984175 0.50238
2495 1 0.277185 0.999312 0.501795
2477 1 0.293239 0.998079 0.503203
2413 1 0.283347 0.987517 0.502042
2765 1 0.295401 0.981849 0.502731
2418 1 0.30541 0.992846 0.503456
195 1 0.310409 0.982531 0.502232
2640 1 0.318128 0.997315 0.503959
118 1 0.340893 0.982384 0.504994
2780 1 0.34426 0.995905 0.505022
2554 1 0.326626 0.984636 0.502739
197 1 0.358445 0.993912 0.50455
48 1 0.356608 0.980676 0.503486
2712 1 0.369311 0.979986 0.50151
2648 1 0.385626 0.985437 0.503574
2641 1 0.370794 0.992617 0.50439
2644 1 0.396554 0.995741 0.505545
114 1 0.398007 0.982681 0.505081
2588 1 0.409036 0.992814 0.506522
2791 1 0.425487 0.99424 0.50508
2810 1 0.426184 0.978278 0.505466
2873 1 0.456253 0.980291 0.506215
3235 1 0.437109 0.990824 0.504267
2874 1 0.450604 0.992003 0.504668
2722 1 0.441372 0.979908 0.505929
3160 1 0.474771 0.999591 0.503906
61 1 0.470988 0.98631 0.503456
2787 1 0.462838 0.998231 0.503613
406 1 0.485223 0.993619 0.503612
5391 1 0.498648 0.999256 0.504946
2802 1 0.483676 0.982228 0.503784
2654 1 0.498926 0.98519 0.504232
3089 1 0.640949 0.0213132 0.497712
3300 1 0.67197 0.00121122 0.498161
3315 1 0.683905 0.00894322 0.497897
3318 1 0.69431 0.016389 0.496989
3057 1 0.695595 0.000194536 0.495293
3605 1 0.714645 0.000599937 0.495753
3099 1 0.708366 0.0119672 0.49562
2908 1 0.736862 0.0132687 0.496688
3185 1 0.721598 0.0120832 0.496415
5586 1 0.727756 0.00177974 0.49714
3312 1 0.750253 0.0166041 0.498374
3058 1 0.75282 0.00116846 0.498916
3000 1 0.763648 0.00664617 0.499871
2925 1 0.79293 0.0137201 0.499278
5432 1 0.788126 0.000928737 0.499695
2979 1 0.851637 0.0131896 0.498895
5594 1 0.876818 0.00454325 0.499429
5590 1 0.890744 0.000224286 0.499805
2988 1 0.871885 0.0187503 0.499893
3055 1 0.932946 0.00388405 0.498949
5372 1 0.91672 0.00564227 0.499968
3069 1 0.925406 0.0175205 0.499909
3135 1 0.949974 0.00385528 0.497419
5514 1 0.936929 0.0203385 0.499615
3 1 0.949448 0.0158789 0.499918
2990 1 0.962599 0.0123998 0.497449
5599 1 0.976931 0.00912423 0.498386
355 1 0.972075 0.0209226 0.497954
144 1 0.98975 0.0034319 0.497959
229 1 0.98981 0.0198302 0.497937
3113 1 0.629761 0.0359534 0.499959
3145 1 0.660689 0.0290111 0.49837
3506 1 0.684103 0.0248155 0.498859
3442 1 0.693999 0.0336303 0.499848
3534 1 0.705599 0.0244604 0.497548
3121 1 0.717571 0.0226865 0.496797
3463 1 0.72249 0.0355912 0.4981
3247 1 0.732146 0.0256086 0.496736
2884 1 0.73733 0.0399378 0.498932
3201 1 0.74575 0.0308007 0.498275
3335 1 0.758455 0.0352929 0.499587
3189 1 0.796915 0.0285138 0.499647
3324 1 0.86116 0.0272128 0.499519
3143 1 0.85194 0.0386639 0.499985
3123 1 0.873667 0.0364054 0.499573
3065 1 0.883558 0.0283651 0.499888
2667 1 0.893239 0.0381994 0.499976
3067 1 0.897257 0.0266757 0.499977
5460 1 0.959795 0.0263254 0.499222
3385 1 0.638283 0.0440626 0.499949
3243 1 0.653958 0.0524568 0.499749
2902 1 0.666889 0.0462414 0.499961
3327 1 0.711919 0.0469021 0.499556
3248 1 0.726191 0.0484254 0.499899
3050 1 0.883049 0.0464065 0.498842
2867 1 0.873242 0.0602532 0.499596
3209 1 0.907219 0.0454704 0.499219
2854 1 0.895579 0.0530654 0.498784
3080 1 0.876686 0.0772945 0.49982
3340 1 0.983137 0.122347 0.49971
3651 1 0.669748 0.151079 0.499516
3473 1 0.785712 0.149475 0.499952
3010 1 0.927408 0.148167 0.499903
3275 1 0.999514 0.130622 0.499982
3509 1 0.649206 0.155653 0.499575
488 1 0.657413 0.164721 0.499151
3533 1 0.739258 0.172052 0.499588
3539 1 0.754223 0.171698 0.499791
3242 1 0.770114 0.157136 0.499585
3636 1 0.864816 0.160427 0.499773
3471 1 0.872318 0.169827 0.499716
3425 1 0.893848 0.158883 0.499942
2868 1 0.905598 0.162378 0.499758
3211 1 0.916112 0.1717 0.498387
3270 1 0.915195 0.155371 0.499403
3341 1 0.938738 0.17174 0.499472
3363 1 0.503654 0.191875 0.499829
3478 1 0.704655 0.182797 0.499038
3515 1 0.727085 0.179462 0.499926
3467 1 0.756833 0.194811 0.498697
3738 1 0.744484 0.1844 0.498707
3527 1 0.763232 0.183115 0.49934
3457 1 0.771722 0.19358 0.498108
3670 1 0.78125 0.178428 0.499252
3608 1 0.7869 0.193863 0.499777
3410 1 0.844277 0.17583 0.499478
3215 1 0.858366 0.176068 0.499682
3492 1 0.875295 0.193584 0.499882
3330 1 0.902944 0.176133 0.5
3399 1 0.926255 0.177398 0.498896
283 1 0.996638 0.18828 0.499259
155 1 0.988804 0.175829 0.498262
3216 1 0.981537 0.185536 0.499836
3309 1 0.506141 0.206667 0.498871
348 1 0.520199 0.208859 0.499753
3224 1 0.533448 0.214136 0.499333
3404 1 0.720968 0.196408 0.499363
3743 1 0.750334 0.21428 0.498566
3256 1 0.742826 0.199504 0.498836
3666 1 0.764511 0.2084 0.499008
3675 1 0.777527 0.206083 0.498837
492 1 0.922084 0.216189 0.499493
3205 1 0.958373 0.206752 0.499792
3422 1 0.974885 0.20155 0.49949
3150 1 0.998065 0.207494 0.49894
154 1 0.988282 0.196953 0.499503
3291 1 0.500482 0.223047 0.498467
3927 1 0.515729 0.220411 0.498979
3711 1 0.512605 0.233198 0.498418
3782 1 0.53859 0.225196 0.498471
3924 1 0.534806 0.238864 0.498945
1118 1 0.525223 0.229537 0.498729
1030 1 0.550372 0.232895 0.499702
3545 1 0.779779 0.222365 0.499572
3444 1 0.766614 0.222585 0.499124
619 1 0.52066 0.244928 0.497529
486 1 0.508535 0.251234 0.49657
3370 1 0.502917 0.24132 0.497056
1110 1 0.521967 0.257483 0.497999
3571 1 0.533425 0.251816 0.498742
3366 1 0.544457 0.257243 0.499292
3573 1 0.549323 0.245184 0.498682
3771 1 0.850132 0.244867 0.499581
622 1 0.506661 0.265438 0.497838
979 1 0.503092 0.278785 0.498105
1117 1 0.518385 0.269266 0.49889
3432 1 0.517612 0.282266 0.499058
3791 1 0.534692 0.280936 0.499842
1044 1 0.53146 0.269278 0.498161
1182 1 0.546453 0.2688 0.498831
3781 1 0.558601 0.262842 0.497793
693 1 0.508333 0.293329 0.498963
3867 1 0.545652 0.294539 0.498197
3819 1 0.607487 0.286064 0.499744
3815 1 0.744011 0.28999 0.499836
3891 1 0.762941 0.290713 0.499726
699 1 0.513136 0.313502 0.499452
1049 1 0.503891 0.30479 0.498632
478 1 0.500582 0.319459 0.499755
1039 1 0.530659 0.32099 0.499243
1249 1 0.61364 0.323009 0.498973
3933 1 0.640003 0.317774 0.499853
3586 1 0.656152 0.322841 0.498077
3807 1 0.667871 0.322754 0.497735
3758 1 0.678151 0.313937 0.499258
4005 1 0.699365 0.32331 0.498395
3881 1 0.715623 0.315373 0.499979
767 1 0.518656 0.327031 0.498808
3789 1 0.506793 0.335847 0.498906
3804 1 0.534672 0.334245 0.499665
3935 1 0.612085 0.337899 0.499186
3993 1 0.641826 0.335962 0.499126
4089 1 0.663275 0.334544 0.499463
3732 1 0.695237 0.332391 0.499724
3942 1 0.676355 0.333001 0.498653
4303 1 0.683793 0.340486 0.499874
1115 1 0.500592 0.380324 0.499406
1329 1 0.524135 0.372358 0.499795
1254 1 0.540775 0.374966 0.499974
628 1 0.528802 0.384168 0.499752
901 1 0.513002 0.402314 0.499164
3940 1 0.523763 0.409433 0.499142
4344 1 0.515825 0.421424 0.49923
1045 1 0.531286 0.419372 0.49913
1395 1 0.5379 0.433932 0.499868
4053 1 0.92421 0.420051 0.498804
4195 1 0.923074 0.432646 0.497794
3768 1 0.934606 0.43179 0.497134
4117 1 0.947407 0.43307 0.497065
4047 1 0.937034 0.420046 0.498739
1210 1 0.972302 0.420077 0.498385
1352 1 0.959758 0.427153 0.496714
1213 1 0.996081 0.427432 0.499277
1411 1 0.982325 0.428729 0.497785
1191 1 0.995679 0.414254 0.499858
970 1 0.524766 0.434832 0.499992
3904 1 0.89109 0.453923 0.497393
1278 1 0.905677 0.450391 0.4975
4391 1 0.910402 0.435943 0.498613
4194 1 0.924254 0.446214 0.497065
4127 1 0.936663 0.445679 0.496931
1200 1 0.948078 0.445251 0.496058
4036 1 0.958466 0.454962 0.495248
1693 1 0.972862 0.446398 0.495814
1407 1 0.958792 0.440894 0.496263
1486 1 0.972385 0.435143 0.495635
4130 1 0.98929 0.440704 0.497014
1618 1 0.98419 0.452248 0.497086
4210 1 0.567878 0.476579 0.49954
3864 1 0.56563 0.463011 0.499554
1348 1 0.874113 0.477793 0.499147
3972 1 0.872848 0.460384 0.499777
4333 1 0.883987 0.464825 0.498487
4471 1 0.888126 0.475776 0.498984
3990 1 0.899882 0.466452 0.497436
4382 1 0.912425 0.46219 0.498089
4392 1 0.911031 0.476413 0.498734
4129 1 0.926679 0.460791 0.496584
1423 1 0.920937 0.473694 0.494083
4267 1 0.943149 0.456849 0.495802
4264 1 0.938774 0.468343 0.494863
1345 1 0.97033 0.461279 0.495092
3982 1 0.958626 0.469302 0.4946
1265 1 0.981233 0.46829 0.496002
1473 1 0.994549 0.457534 0.497018
1406 1 0.99798 0.470961 0.49568
4421 1 0.577382 0.484199 0.499124
4133 1 0.587304 0.491085 0.49872
4152 1 0.687733 0.498351 0.499074
4216 1 0.70287 0.497023 0.499737
4311 1 0.71939 0.497111 0.499944
4319 1 0.853026 0.4971 0.499301
4265 1 0.920426 0.499956 0.497959
4260 1 0.926495 0.489866 0.495492
4259 1 0.932618 0.480222 0.494541
4387 1 0.914336 0.488505 0.498622
4256 1 0.941352 0.492097 0.494125
1684 1 0.949361 0.478385 0.494739
4058 1 0.955669 0.495947 0.493611
1055 1 0.959225 0.484817 0.494134
4330 1 0.970534 0.495094 0.493981
1821 1 0.971419 0.478333 0.494942
4478 1 0.997886 0.487819 0.493236
4615 1 0.984886 0.482032 0.494423
5532 1 0.509592 0.00726905 0.503251
3084 1 0.521264 0.0132585 0.504203
2875 1 0.508962 0.0214853 0.503601
2878 1 0.526337 0.000444349 0.503245
3022 1 0.541159 0.00342323 0.502705
3108 1 0.532985 0.0154888 0.504153
3040 1 0.549871 0.0114941 0.502972
3032 1 0.560447 0.00380644 0.502239
2872 1 0.56467 0.0168353 0.501526
3101 1 0.575569 0.00675494 0.501217
3098 1 0.576167 0.0196591 0.501772
2822 1 0.590442 0.00370422 0.501697
3109 1 0.590343 0.015664 0.501918
2976 1 0.605086 0.0133848 0.500854
2836 1 0.614545 0.00618466 0.500324
2847 1 0.617059 0.020834 0.50073
5293 1 0.624394 0.0108863 0.500321
3046 1 0.63942 0.0101083 0.500428
3406 1 0.652988 0.0179717 0.500097
3245 1 0.669615 0.0161865 0.500121
5561 1 0.657899 0.00508507 0.500311
5426 1 0.776427 0.011171 0.500483
3193 1 0.761269 0.0214589 0.500892
2934 1 0.818421 0.00991132 0.500609
3202 1 0.804579 0.0178032 0.5002
2917 1 0.828567 0.00254216 0.500278
2992 1 0.830924 0.0185279 0.501326
2922 1 0.840653 0.00784016 0.500536
2929 1 0.864241 0.00778405 0.500109
5363 1 0.888268 0.0138775 0.500814
3141 1 0.912829 0.0204755 0.500187
3061 1 0.902366 0.0115584 0.500306
52 1 0.51294 0.0354029 0.504642
3163 1 0.521888 0.027319 0.504447
3104 1 0.533876 0.0324281 0.505278
2960 1 0.52218 0.0434051 0.505729
3036 1 0.545154 0.023842 0.503299
3371 1 0.552354 0.0320604 0.502477
3024 1 0.558819 0.042862 0.503201
3043 1 0.565919 0.0297282 0.502722
2842 1 0.576179 0.0360695 0.502683
2830 1 0.58864 0.0427915 0.503004
2848 1 0.587811 0.0297015 0.503287
3383 1 0.602551 0.0381436 0.502341
2838 1 0.599808 0.0244143 0.501792
3114 1 0.615366 0.0354673 0.501604
2971 1 0.629734 0.0234106 0.501383
3449 1 0.64344 0.0325424 0.500104
3116 1 0.652881 0.0400595 0.500211
3259 1 0.673858 0.0322348 0.500602
3378 1 0.683229 0.0424645 0.501024
3436 1 0.707923 0.0363352 0.500031
3199 1 0.771347 0.025877 0.502006
3261 1 0.772745 0.0392261 0.501376
3257 1 0.790149 0.0405501 0.502094
3119 1 0.786246 0.0241016 0.501378
3198 1 0.806462 0.0346016 0.50111
3139 1 0.823273 0.0375524 0.501701
2734 1 0.817489 0.0267509 0.502168
3197 1 0.837596 0.0352906 0.501735
3077 1 0.843182 0.0245822 0.500901
2857 1 0.910083 0.032432 0.500383
9 1 0.928569 0.0308546 0.500524
5581 1 0.934361 0.041677 0.501675
2853 1 0.919987 0.0414826 0.501205
2389 1 0.942442 0.0312595 0.500082
5366 1 0.952613 0.03934 0.500666
3068 1 0.971801 0.0342358 0.500851
13 1 0.982319 0.0273299 0.500322
218 1 0.994036 0.0339155 0.501748
2592 1 0.983777 0.0416417 0.502473
2959 1 0.511618 0.048909 0.504062
2962 1 0.52334 0.0550954 0.503763
3034 1 0.533647 0.04768 0.504645
140 1 0.533322 0.0623556 0.502831
3180 1 0.545933 0.043583 0.503914
3033 1 0.549242 0.0576806 0.503398
3171 1 0.567628 0.0611971 0.50313
3168 1 0.5724 0.046732 0.504455
2966 1 0.581358 0.0582325 0.503835
3607 1 0.595766 0.0549104 0.502066
3179 1 0.608847 0.0609346 0.502304
3107 1 0.611799 0.0485018 0.501549
3373 1 0.627704 0.0485026 0.501031
3237 1 0.624137 0.0605732 0.500174
3188 1 0.641973 0.0565286 0.500099
2895 1 0.668051 0.0628224 0.500634
3313 1 0.679718 0.0544211 0.500088
3158 1 0.692564 0.0554243 0.500309
3302 1 0.702847 0.0613497 0.500757
3172 1 0.698469 0.0453958 0.500415
3173 1 0.718242 0.0568008 0.502345
3393 1 0.729372 0.0638763 0.502665
3450 1 0.739507 0.0548062 0.501693
3673 1 0.759674 0.0606923 0.50199
3117 1 0.748668 0.0469495 0.501145
3131 1 0.782543 0.0495694 0.501525
3741 1 0.761395 0.0487418 0.501035
3255 1 0.773552 0.0557694 0.502186
2969 1 0.80035 0.0468936 0.500368
5355 1 0.793862 0.0600499 0.502672
3045 1 0.813644 0.0452012 0.502089
3118 1 0.818158 0.0565811 0.502756
2987 1 0.805887 0.0592172 0.503154
3258 1 0.83269 0.0623862 0.501573
3334 1 0.843105 0.0516879 0.501791
3521 1 0.827933 0.0493765 0.502397
3124 1 0.866115 0.0466966 0.5004
3076 1 0.855328 0.0561029 0.500346
2936 1 0.885611 0.0620285 0.500314
3136 1 0.912536 0.0573525 0.501378
5508 1 0.925149 0.0529863 0.501543
5591 1 0.934472 0.0619791 0.501696
5524 1 0.944852 0.0523493 0.501301
3003 1 0.958005 0.0488351 0.501958
75 1 0.959235 0.0609384 0.502476
5588 1 0.970495 0.047555 0.503511
2865 1 0.973684 0.0619381 0.503326
2663 1 0.99932 0.0486223 0.502024
212 1 0.999064 0.0631623 0.502536
5596 1 0.984697 0.0549439 0.504249
3020 1 0.50629 0.0742633 0.502891
480 1 0.516574 0.085633 0.503113
3233 1 0.515829 0.0654311 0.5046
420 1 0.525868 0.0720861 0.501955
3228 1 0.53965 0.0806938 0.501332
3376 1 0.557456 0.0705988 0.502594
3096 1 0.545719 0.0701052 0.502569
3161 1 0.575712 0.0724103 0.502602
210 1 0.565697 0.0809824 0.502108
3368 1 0.596885 0.0681422 0.502525
555 1 0.588096 0.0761826 0.502185
3433 1 0.60747 0.0757936 0.500436
3249 1 0.597103 0.0848954 0.500821
3042 1 0.618329 0.0715014 0.502285
3094 1 0.609361 0.086234 0.501732
2904 1 0.634073 0.0656182 0.502002
3165 1 0.63229 0.0784517 0.502057
3093 1 0.642608 0.0749057 0.503112
3439 1 0.651392 0.0861316 0.503847
3105 1 0.652352 0.0691235 0.501994
3236 1 0.661242 0.0766169 0.504106
3443 1 0.675037 0.0783539 0.502031
3364 1 0.686402 0.0665376 0.501222
3225 1 0.68809 0.0811664 0.502346
3518 1 0.696888 0.0726393 0.501452
3434 1 0.712466 0.0688287 0.501426
3379 1 0.70288 0.0830131 0.502869
3320 1 0.7218 0.0807258 0.502463
3253 1 0.733564 0.080822 0.503392
3676 1 0.745977 0.0659766 0.502227
3317 1 0.75393 0.0754837 0.502222
3183 1 0.746387 0.0868033 0.503362
3186 1 0.770309 0.0711367 0.503151
3394 1 0.777668 0.0820234 0.502065
3530 1 0.783884 0.0669077 0.500802
3073 1 0.804334 0.0724309 0.502882
3196 1 0.79157 0.0758839 0.502656
3244 1 0.801355 0.0863175 0.50393
3482 1 0.818014 0.0691388 0.502981
3268 1 0.814629 0.0835269 0.502871
2863 1 0.846795 0.0684021 0.501758
3342 1 0.832766 0.0767665 0.501571
3336 1 0.851645 0.0812174 0.502106
3265 1 0.863132 0.0681126 0.501028
3066 1 0.862718 0.0838417 0.501444
2733 1 0.890977 0.0770572 0.501679
11 1 0.898014 0.0665762 0.501829
2924 1 0.899131 0.0864077 0.50388
5516 1 0.908168 0.0745579 0.502791
3134 1 0.920714 0.070282 0.501933
3052 1 0.922578 0.0808484 0.502364
3129 1 0.932709 0.0737458 0.501449
2862 1 0.947087 0.0663181 0.501457
2930 1 0.941757 0.0811875 0.501184
2935 1 0.955582 0.0781919 0.501813
2986 1 0.974186 0.085965 0.502293
561 1 0.969945 0.0743194 0.504792
2750 1 0.984299 0.0761601 0.50244
631 1 0.988689 0.0653574 0.503465
88 1 0.996443 0.0815295 0.502286
2804 1 0.502788 0.090305 0.503227
3174 1 0.505872 0.103376 0.503504
490 1 0.518509 0.0977572 0.502072
70 1 0.529392 0.0873027 0.50229
340 1 0.542617 0.0963216 0.500659
3167 1 0.531842 0.103851 0.50231
3170 1 0.555088 0.0877135 0.502567
485 1 0.556712 0.0996976 0.500971
909 1 0.578273 0.0879612 0.502289
3156 1 0.567174 0.10723 0.501843
3722 1 0.568225 0.0936055 0.50159
3017 1 0.578218 0.102613 0.503235
681 1 0.588709 0.0922621 0.500406
618 1 0.600021 0.100968 0.502221
2799 1 0.589635 0.10715 0.501583
2947 1 0.625175 0.0892979 0.501491
3239 1 0.616993 0.100978 0.501595
3176 1 0.62982 0.101273 0.503656
3504 1 0.640371 0.0908715 0.502563
3306 1 0.645745 0.10293 0.504081
3234 1 0.656934 0.0960109 0.503911
3092 1 0.66781 0.0900482 0.502353
3437 1 0.665016 0.104715 0.503359
3250 1 0.679959 0.0921748 0.502989
3445 1 0.692032 0.10551 0.50565
3326 1 0.69471 0.0921538 0.503187
3252 1 0.678304 0.104919 0.503343
3241 1 0.704604 0.101619 0.502759
3112 1 0.714122 0.0931625 0.502965
3325 1 0.729696 0.0949781 0.50225
3465 1 0.722806 0.106869 0.501197
3599 1 0.737856 0.107328 0.502532
3308 1 0.752142 0.098715 0.500742
3581 1 0.764392 0.0874664 0.501776
3595 1 0.774425 0.0976893 0.501814
3175 1 0.762307 0.106758 0.501992
3070 1 0.790179 0.091588 0.502843
3260 1 0.788457 0.107162 0.50209
3200 1 0.800853 0.100606 0.502553
3262 1 0.816129 0.0952532 0.503218
3184 1 0.826504 0.0886584 0.502412
3540 1 0.830399 0.100233 0.50168
3138 1 0.841899 0.0882972 0.503507
3142 1 0.846494 0.0981994 0.501853
3485 1 0.860324 0.0976352 0.50196
3127 1 0.886661 0.0917778 0.501312
3279 1 0.873811 0.107002 0.502477
3144 1 0.873873 0.0922197 0.501257
3137 1 0.886645 0.107588 0.503713
5587 1 0.903269 0.102546 0.504458
5580 1 0.911404 0.0894426 0.503305
3214 1 0.921111 0.101277 0.502326
3350 1 0.929605 0.0920805 0.502298
2858 1 0.936478 0.107969 0.501705
281 1 0.942614 0.0926608 0.501492
3204 1 0.947773 0.102662 0.501522
3322 1 0.968945 0.0968928 0.501876
2 1 0.957976 0.0905693 0.502124
5597 1 0.957802 0.10576 0.500519
2735 1 0.996615 0.0939045 0.501794
5522 1 0.982177 0.106466 0.501353
3355 1 0.984951 0.0912076 0.50398
78 1 0.997599 0.10598 0.501558
3162 1 0.509051 0.120136 0.504139
3164 1 0.518588 0.112021 0.5034
344 1 0.522275 0.129642 0.504055
3011 1 0.530641 0.117929 0.50263
2943 1 0.546376 0.112073 0.501744
475 1 0.557815 0.116777 0.502246
549 1 0.546012 0.128016 0.503017
1048 1 0.560459 0.128446 0.502735
3361 1 0.575443 0.116834 0.502045
2801 1 0.574078 0.128687 0.503309
3015 1 0.587395 0.11974 0.501775
418 1 0.600046 0.119299 0.501599
3293 1 0.611575 0.116257 0.502386
3502 1 0.614243 0.128184 0.502526
3085 1 0.628513 0.125622 0.503255
3435 1 0.628588 0.113475 0.503522
3511 1 0.643778 0.114356 0.503772
839 1 0.640379 0.12757 0.502255
3438 1 0.657418 0.115566 0.50384
3535 1 0.67061 0.116717 0.504097
3575 1 0.66742 0.129731 0.502513
3505 1 0.681529 0.122804 0.503449
3374 1 0.691324 0.116514 0.502292
3311 1 0.708035 0.115182 0.502729
3238 1 0.70488 0.128305 0.501985
3454 1 0.718087 0.124824 0.501701
3677 1 0.731542 0.120253 0.502402
3387 1 0.749671 0.113347 0.501723
3447 1 0.745039 0.127381 0.503468
3048 1 0.76337 0.119677 0.502779
3396 1 0.777481 0.112686 0.502551
3381 1 0.770186 0.129009 0.502863
3811 1 0.784503 0.126473 0.501869
3356 1 0.793809 0.118465 0.502998
3480 1 0.804833 0.127387 0.501885
3391 1 0.806662 0.114107 0.503443
3267 1 0.819231 0.11224 0.504063
3765 1 0.817287 0.124602 0.505313
3132 1 0.831147 0.114882 0.502395
3276 1 0.840661 0.123277 0.502694
3532 1 0.843978 0.10902 0.502052
3122 1 0.860523 0.109914 0.502607
3415 1 0.864658 0.129505 0.502881
3337 1 0.851682 0.120067 0.503542
3401 1 0.87079 0.11931 0.502881
3333 1 0.88483 0.123181 0.502958
3125 1 0.910831 0.111944 0.503821
3002 1 0.905183 0.129835 0.501345
3271 1 0.896327 0.118415 0.502464
5446 1 0.926738 0.113811 0.500428
3004 1 0.91558 0.12327 0.501892
3194 1 0.937187 0.123377 0.500991
2937 1 0.9496 0.117578 0.501802
2940 1 0.950258 0.129297 0.502576
71 1 0.961471 0.119262 0.50188
3079 1 0.971667 0.124605 0.500594
3008 1 0.969906 0.111456 0.500093
5452 1 0.994627 0.119136 0.500492
3082 1 0.508221 0.133868 0.504667
3159 1 0.51207 0.146095 0.505305
3229 1 0.524334 0.142625 0.503857
3081 1 0.53312 0.133105 0.503616
207 1 0.535497 0.149542 0.503655
3299 1 0.555943 0.141866 0.504454
3151 1 0.544149 0.141015 0.504655
3221 1 0.569105 0.142156 0.502946
489 1 0.586545 0.135177 0.502486
3301 1 0.585207 0.147719 0.503176
3321 1 0.599937 0.131942 0.502713
3641 1 0.5987 0.144618 0.50207
3507 1 0.61187 0.142388 0.502606
3513 1 0.626178 0.138258 0.503046
3018 1 0.625813 0.151539 0.502785
976 1 0.641735 0.142187 0.501693
3583 1 0.652393 0.131476 0.500451
3431 1 0.672816 0.139503 0.501458
3522 1 0.658819 0.143593 0.501111
3095 1 0.694058 0.134971 0.503207
3667 1 0.683283 0.133617 0.501126
3585 1 0.685674 0.150168 0.501124
3251 1 0.69999 0.145093 0.501352
3382 1 0.712014 0.138985 0.502465
3601 1 0.725918 0.13614 0.50167
3584 1 0.738344 0.140824 0.5037
3389 1 0.724841 0.149529 0.501896
3323 1 0.750549 0.144974 0.50307
3397 1 0.756007 0.132052 0.503671
3616 1 0.766387 0.14228 0.501268
3744 1 0.77872 0.139621 0.500013
3668 1 0.792613 0.137389 0.501874
3604 1 0.798282 0.151042 0.502073
3606 1 0.806286 0.139295 0.503999
3210 1 0.820714 0.143228 0.503275
3486 1 0.830083 0.132607 0.504145
3332 1 0.842508 0.139569 0.503807
3460 1 0.834147 0.147286 0.502743
3213 1 0.850482 0.15113 0.501212
3182 1 0.861912 0.145486 0.501096
3392 1 0.852735 0.132811 0.503724
3269 1 0.877341 0.134407 0.501602
3489 1 0.886576 0.14629 0.501014
3487 1 0.871289 0.148326 0.50163
5598 1 0.900485 0.147081 0.500361
3115 1 0.893703 0.132276 0.500629
3074 1 0.913284 0.141533 0.500559
3212 1 0.926651 0.133951 0.500464
2983 1 0.938777 0.138129 0.501536
3078 1 0.94587 0.148406 0.501449
2928 1 0.957365 0.143074 0.501615
3286 1 0.964233 0.133294 0.50133
3217 1 0.975516 0.139667 0.501472
3006 1 0.98745 0.13444 0.500351
2671 1 0.998979 0.144171 0.500316
3007 1 0.987889 0.148606 0.501788
2951 1 0.507874 0.157815 0.503968
413 1 0.516092 0.1696 0.502837
3223 1 0.52424 0.158656 0.503152
626 1 0.536234 0.161986 0.502788
280 1 0.548068 0.155888 0.503997
3851 1 0.562202 0.155207 0.50298
3501 1 0.554007 0.166846 0.503796
559 1 0.574081 0.155121 0.502517
3305 1 0.584357 0.161846 0.503045
766 1 0.56943 0.169694 0.503041
3451 1 0.598087 0.157323 0.503254
3303 1 0.606504 0.16939 0.503511
419 1 0.595027 0.172267 0.503702
3602 1 0.611425 0.154698 0.503556
3859 1 0.621866 0.162807 0.502843
3717 1 0.634322 0.172813 0.502815
3853 1 0.636387 0.158089 0.501395
902 1 0.645251 0.173108 0.502221
3574 1 0.670171 0.16321 0.500104
3246 1 0.684237 0.161544 0.501225
3655 1 0.69853 0.160649 0.500117
3579 1 0.697864 0.172581 0.501311
3468 1 0.713383 0.155435 0.501482
3737 1 0.712446 0.171659 0.500757
3525 1 0.735429 0.156095 0.501627
3405 1 0.723655 0.165297 0.500936
3464 1 0.759242 0.157526 0.501689
3461 1 0.746561 0.161833 0.5002
3398 1 0.780725 0.162571 0.501622
3528 1 0.769978 0.169481 0.500081
3400 1 0.796007 0.167027 0.502507
3749 1 0.806403 0.170968 0.502277
3557 1 0.810047 0.156817 0.503209
3329 1 0.822587 0.157182 0.502686
3126 1 0.817246 0.170841 0.502167
3314 1 0.837612 0.160889 0.501641
3479 1 0.828374 0.173295 0.502856
3419 1 0.853196 0.165129 0.500827
3347 1 0.886226 0.169276 0.500929
3128 1 0.881649 0.157066 0.500326
3414 1 0.927272 0.164852 0.500001
3633 1 0.937404 0.157285 0.501214
3133 1 0.94908 0.164368 0.500204
3343 1 0.954685 0.155805 0.503771
3353 1 0.962167 0.168821 0.502463
85 1 0.966938 0.152515 0.503936
5530 1 0.977353 0.168426 0.500919
3206 1 0.977379 0.156997 0.503302
2661 1 0.999444 0.168485 0.500495
2869 1 0.989415 0.161129 0.501724
2941 1 0.520004 0.182763 0.501923
2779 1 0.516386 0.193887 0.502599
350 1 0.504395 0.178529 0.502715
193 1 0.531859 0.175481 0.503652
692 1 0.53196 0.187091 0.501868
830 1 0.542792 0.190839 0.50213
560 1 0.546244 0.17628 0.503873
1036 1 0.554687 0.19085 0.501607
3519 1 0.577246 0.194707 0.501509
404 1 0.566011 0.181884 0.502434
3298 1 0.582707 0.180633 0.503092
3227 1 0.603804 0.182538 0.502675
3453 1 0.591677 0.189896 0.501744
974 1 0.613487 0.193118 0.503446
3925 1 0.626438 0.188039 0.503417
3650 1 0.619715 0.176461 0.503845
3226 1 0.640059 0.185975 0.502932
3510 1 0.652486 0.185609 0.503476
3854 1 0.659485 0.177897 0.501636
3516 1 0.672522 0.180543 0.501184
3166 1 0.667464 0.194243 0.502473
3647 1 0.683403 0.17488 0.502636
3883 1 0.692798 0.186291 0.502195
3386 1 0.68325 0.193716 0.502609
3459 1 0.716508 0.183877 0.500211
3537 1 0.73176 0.191046 0.501139
3612 1 0.793991 0.183459 0.500102
3192 1 0.809104 0.18495 0.502477
3536 1 0.821364 0.184604 0.502834
3349 1 0.838927 0.185632 0.501079
3494 1 0.831835 0.195001 0.500382
3273 1 0.852519 0.188081 0.500872
3565 1 0.864598 0.18528 0.500035
3555 1 0.87533 0.180821 0.500371
3470 1 0.888201 0.181989 0.500566
3338 1 0.899036 0.193396 0.500639
3352 1 0.911076 0.186258 0.500026
3705 1 0.921158 0.188843 0.501764
3254 1 0.933355 0.192987 0.501559
3635 1 0.941697 0.183799 0.501231
3146 1 0.952653 0.190722 0.501457
353 1 0.954208 0.179225 0.501032
3203 1 0.968236 0.180221 0.501647
3222 1 0.52886 0.19917 0.500934
3441 1 0.554896 0.203404 0.501863
3671 1 0.543797 0.208139 0.500232
624 1 0.566575 0.20863 0.501135
3232 1 0.578475 0.212913 0.501917
3508 1 0.599504 0.203346 0.502076
1105 1 0.58703 0.204067 0.501601
3727 1 0.600154 0.2159 0.50227
3452 1 0.620272 0.216872 0.501807
1180 1 0.6116 0.207239 0.502032
3644 1 0.627047 0.204595 0.502406
769 1 0.642763 0.21098 0.501349
3380 1 0.639218 0.199301 0.503858
768 1 0.655119 0.200036 0.502004
3713 1 0.664949 0.210445 0.502843
1113 1 0.675245 0.20411 0.503029
3730 1 0.679341 0.216209 0.502054
3296 1 0.687979 0.207033 0.504165
3674 1 0.691233 0.217268 0.501533
3716 1 0.698189 0.198889 0.500949
3884 1 0.709984 0.200037 0.5006
3377 1 0.7161 0.216092 0.5016
4031 1 0.703568 0.212055 0.501823
3372 1 0.726328 0.206891 0.500699
3627 1 0.73448 0.214727 0.501059
3772 1 0.788503 0.209925 0.501195
3266 1 0.799019 0.199049 0.502107
3552 1 0.799249 0.216019 0.501885
3685 1 0.811462 0.197928 0.501504
3413 1 0.821903 0.199757 0.501495
3409 1 0.811682 0.212619 0.501982
3975 1 0.843025 0.198912 0.501026
3390 1 0.827866 0.209639 0.501234
3407 1 0.840282 0.215276 0.502242
3556 1 0.863447 0.196793 0.501401
3346 1 0.853245 0.204534 0.501727
3910 1 0.862882 0.211232 0.502473
3481 1 0.875521 0.206364 0.50162
3466 1 0.887422 0.195677 0.501518
3140 1 0.891528 0.211083 0.501532
3283 1 0.907095 0.208964 0.500589
3549 1 0.919731 0.200124 0.501545
3195 1 0.932201 0.207262 0.500519
3282 1 0.947409 0.217214 0.501058
3287 1 0.944762 0.203602 0.500144
3423 1 0.970842 0.215287 0.500463
3429 1 0.964149 0.196256 0.501022
3488 1 0.985952 0.210414 0.500383
3295 1 0.563698 0.22202 0.501598
3784 1 0.561885 0.23426 0.500246
3921 1 0.551588 0.220106 0.500563
3642 1 0.574513 0.226829 0.501842
3723 1 0.580364 0.237364 0.501008
3590 1 0.586975 0.221431 0.502511
3725 1 0.605538 0.230265 0.501571
3715 1 0.593581 0.231294 0.500136
3785 1 0.61753 0.228721 0.503122
3645 1 0.63249 0.218068 0.500877
977 1 0.650337 0.237449 0.502923
3367 1 0.642318 0.228311 0.501399
1114 1 0.630511 0.231039 0.503367
3572 1 0.670093 0.222853 0.502207
3582 1 0.654199 0.219104 0.501548
3523 1 0.662059 0.233799 0.501875
3596 1 0.68185 0.230823 0.50266
3384 1 0.693133 0.229773 0.50185
3462 1 0.705555 0.224115 0.50244
3339 1 0.714212 0.23362 0.50246
3739 1 0.722768 0.225419 0.503032
3718 1 0.72859 0.236814 0.501778
3745 1 0.75827 0.235144 0.501225
3622 1 0.744179 0.228194 0.500236
3543 1 0.773142 0.234869 0.500626
3388 1 0.790455 0.229502 0.502521
3625 1 0.799555 0.238721 0.502151
3553 1 0.820961 0.221509 0.502035
3614 1 0.819683 0.234593 0.502265
3611 1 0.807827 0.229232 0.502752
3541 1 0.836233 0.238017 0.501649
3802 1 0.844674 0.228952 0.500773
3615 1 0.831288 0.22394 0.502131
3554 1 0.851709 0.217622 0.501237
3703 1 0.861985 0.225298 0.501591
3219 1 0.855577 0.23376 0.501395
3354 1 0.871111 0.233776 0.502085
3837 1 0.877978 0.221149 0.502672
3693 1 0.888471 0.235013 0.502617
3147 1 0.912178 0.223675 0.50178
3420 1 0.900607 0.226709 0.501396
3290 1 0.915597 0.237056 0.503276
3603 1 0.934757 0.222372 0.502585
3357 1 0.924035 0.227866 0.502006
73 1 0.938777 0.236659 0.504623
422 1 0.949257 0.231894 0.501673
3566 1 0.972134 0.23391 0.501609
3071 1 0.958704 0.222488 0.500587
497 1 0.999778 0.229824 0.501839
3706 1 0.988151 0.235886 0.50071
3351 1 0.993134 0.219003 0.502325
3345 1 0.981313 0.225234 0.501374
1257 1 0.558827 0.25231 0.500038
3577 1 0.570864 0.247914 0.501884
3580 1 0.583421 0.248484 0.501622
3809 1 0.586338 0.260045 0.500595
3576 1 0.597966 0.254918 0.503036
1255 1 0.598935 0.241359 0.501264
3512 1 0.623746 0.242732 0.502045
3440 1 0.61026 0.245594 0.501456
1181 1 0.621083 0.255433 0.502054
1190 1 0.647383 0.254971 0.501652
3469 1 0.635816 0.257202 0.502054
3600 1 0.63644 0.245759 0.502856
3672 1 0.65829 0.24685 0.500813
3663 1 0.673239 0.253853 0.503794
3790 1 0.662428 0.257962 0.501368
3652 1 0.676228 0.24273 0.502415
3514 1 0.689243 0.244603 0.502819
3720 1 0.684844 0.260663 0.503346
3474 1 0.703499 0.241929 0.502967
1184 1 0.710967 0.252684 0.503889
3458 1 0.698814 0.257804 0.503099
3679 1 0.731416 0.249746 0.502452
3520 1 0.719665 0.242762 0.505178
3660 1 0.721982 0.259814 0.503516
3531 1 0.746463 0.255508 0.502126
3411 1 0.743111 0.244495 0.500211
3618 1 0.761264 0.248425 0.500235
3879 1 0.774897 0.247826 0.501825
3747 1 0.769223 0.260454 0.50142
3748 1 0.78335 0.239641 0.501615
3695 1 0.791704 0.250302 0.501013
3402 1 0.802258 0.256582 0.502292
4251 1 0.784063 0.25877 0.501406
4048 1 0.810727 0.247507 0.503385
3475 1 0.818838 0.258751 0.502373
3903 1 0.825267 0.247282 0.501074
3892 1 0.839092 0.250213 0.502272
3902 1 0.830094 0.257336 0.502195
3551 1 0.865071 0.2442 0.50234
3278 1 0.866393 0.257683 0.503064
3403 1 0.853858 0.256624 0.501762
3830 1 0.878428 0.24693 0.502599
3613 1 0.904583 0.240904 0.502549
775 1 0.892298 0.252246 0.504268
3484 1 0.905857 0.254038 0.503372
912 1 0.918249 0.25296 0.504938
3348 1 0.927304 0.240281 0.504001
3272 1 0.931111 0.253899 0.505038
3767 1 0.94618 0.248909 0.504649
848 1 0.960473 0.241105 0.501966
3424 1 0.976723 0.247373 0.501106
843 1 0.959965 0.255872 0.502509
635 1 0.993944 0.246785 0.501945
634 1 0.985112 0.257475 0.502944
3786 1 0.563404 0.275522 0.500317
3665 1 0.581249 0.274577 0.500597
978 1 0.570893 0.262051 0.500909
1185 1 0.605702 0.263683 0.501025
3833 1 0.593795 0.269412 0.500741
3939 1 0.593346 0.281035 0.501085
3643 1 0.607867 0.276153 0.501807
3812 1 0.619245 0.281352 0.501144
4215 1 0.618592 0.269001 0.501762
1176 1 0.630154 0.269315 0.501939
3662 1 0.635934 0.281565 0.501248
3653 1 0.642373 0.268106 0.501392
4011 1 0.654579 0.269251 0.501799
3869 1 0.67265 0.269896 0.50184
3813 1 0.662687 0.281466 0.501013
3375 1 0.685823 0.275981 0.502877
3589 1 0.69989 0.269576 0.502894
3598 1 0.712173 0.266312 0.503144
3734 1 0.712974 0.27941 0.501976
3742 1 0.699776 0.281221 0.502914
3817 1 0.724637 0.272652 0.50193
3587 1 0.733741 0.264161 0.502352
3316 1 0.739158 0.279659 0.501848
3493 1 0.757913 0.263735 0.501603
3688 1 0.748719 0.270886 0.502094
3687 1 0.753705 0.28141 0.500776
3814 1 0.765727 0.275036 0.500629
3408 1 0.777586 0.270262 0.501042
3770 1 0.793864 0.268436 0.50169
3761 1 0.80569 0.270104 0.502907
3472 1 0.818045 0.270947 0.50255
3760 1 0.83181 0.2709 0.503031
3620 1 0.841563 0.263861 0.501719
3686 1 0.839833 0.277721 0.502931
3542 1 0.826207 0.28139 0.502397
3754 1 0.851801 0.271702 0.502839
3491 1 0.86501 0.270953 0.503015
3558 1 0.879192 0.261605 0.505001
3264 1 0.87785 0.274582 0.504682
3477 1 0.892075 0.263925 0.504209
3416 1 0.905649 0.26557 0.504039
3544 1 0.892801 0.279349 0.504878
3285 1 0.918607 0.26471 0.503137
708 1 0.928478 0.27175 0.505044
3344 1 0.915354 0.277705 0.504062
3697 1 0.94518 0.261426 0.503736
3562 1 0.940473 0.272859 0.503819
3427 1 0.950505 0.276881 0.504455
217 1 0.959803 0.26789 0.504312
3634 1 0.971153 0.2612 0.503789
3841 1 0.968213 0.274892 0.503954
919 1 0.982042 0.271374 0.503857
3284 1 0.995054 0.265422 0.505735
568 1 0.994134 0.282253 0.505862
1047 1 0.519591 0.297377 0.500142
1041 1 0.533109 0.29639 0.500311
3795 1 0.559127 0.291299 0.500694
1050 1 0.549591 0.283329 0.500902
3656 1 0.572546 0.298464 0.501213
3728 1 0.584937 0.291231 0.500551
905 1 0.574677 0.285124 0.500558
1187 1 0.594156 0.294753 0.502398
3669 1 0.629831 0.292471 0.502346
3880 1 0.609116 0.303156 0.50017
3958 1 0.619372 0.295767 0.500206
3646 1 0.650691 0.284786 0.501392
3733 1 0.643005 0.298625 0.501327
3719 1 0.655158 0.297107 0.502294
3648 1 0.66919 0.296745 0.501744
4008 1 0.682868 0.299713 0.502172
3621 1 0.692287 0.289783 0.504235
3538 1 0.678073 0.286781 0.501606
3448 1 0.695225 0.30155 0.501269
3691 1 0.706866 0.293383 0.501743
3680 1 0.726535 0.28564 0.501785
3751 1 0.718864 0.301274 0.50088
3700 1 0.731428 0.296918 0.50059
4101 1 0.753075 0.303048 0.500864
3578 1 0.774294 0.286065 0.502045
3828 1 0.778017 0.29999 0.502138
3974 1 0.767262 0.302216 0.501744
4029 1 0.798831 0.282839 0.503786
3756 1 0.785948 0.283561 0.501783
3597 1 0.789924 0.297764 0.50369
3777 1 0.804189 0.299184 0.502251
3956 1 0.812193 0.284227 0.503838
3821 1 0.818125 0.296473 0.502311
3752 1 0.839916 0.292071 0.503456
3689 1 0.828306 0.294261 0.503504
3610 1 0.865644 0.285524 0.504843
3631 1 0.850212 0.299445 0.503752
3681 1 0.851412 0.284854 0.503904
3973 1 0.867061 0.297919 0.504271
984 1 0.87999 0.287095 0.50381
3559 1 0.888827 0.297796 0.503406
3547 1 0.904067 0.28451 0.504615
3617 1 0.900844 0.295872 0.504103
3704 1 0.929065 0.286691 0.504049
3776 1 0.915373 0.292197 0.505036
3483 1 0.941493 0.285703 0.505253
987 1 0.936324 0.301101 0.505452
3779 1 0.95141 0.292096 0.502973
3846 1 0.961207 0.286007 0.504498
1056 1 0.967129 0.296654 0.504869
429 1 0.977837 0.286266 0.505661
3430 1 0.98039 0.302783 0.505514
3839 1 0.989966 0.294497 0.505817
3797 1 0.525117 0.30931 0.501011
968 1 0.540857 0.308193 0.500178
3793 1 0.563665 0.308285 0.501405
3529 1 0.555447 0.316162 0.500656
3788 1 0.544188 0.324334 0.500057
698 1 0.552091 0.305016 0.500952
3931 1 0.582564 0.30661 0.500001
3860 1 0.5661 0.322871 0.500712
3588 1 0.574328 0.314378 0.502513
3872 1 0.596375 0.306523 0.501732
3517 1 0.588717 0.319108 0.50043
1183 1 0.602922 0.316619 0.50003
3455 1 0.626614 0.321964 0.500605
4004 1 0.621313 0.309803 0.500171
1112 1 0.633763 0.306943 0.500643
3736 1 0.649752 0.309928 0.500025
3890 1 0.66378 0.310399 0.500578
3546 1 0.682825 0.324718 0.500814
3593 1 0.691502 0.313838 0.50079
3866 1 0.705019 0.309296 0.500987
3657 1 0.727479 0.311197 0.501504
3969 1 0.73497 0.320156 0.500697
3965 1 0.751175 0.319129 0.500081
3889 1 0.741547 0.309146 0.500005
3456 1 0.76203 0.315094 0.502326
3967 1 0.776886 0.317053 0.503665
3980 1 0.787666 0.310865 0.503424
3895 1 0.800466 0.310424 0.502508
3684 1 0.795788 0.324322 0.505274
3832 1 0.807859 0.324684 0.503543
3899 1 0.81447 0.311266 0.503439
3750 1 0.824116 0.320651 0.503511
3905 1 0.828215 0.307724 0.502896
3759 1 0.839414 0.308485 0.504265
4125 1 0.841608 0.322694 0.504452
3908 1 0.853083 0.312334 0.504209
3731 1 0.865035 0.31225 0.504063
3609 1 0.855184 0.325346 0.505067
774 1 0.877184 0.304719 0.503887
3696 1 0.8725 0.325896 0.504248
3912 1 0.882628 0.314479 0.504604
3561 1 0.893856 0.310047 0.505355
3985 1 0.903008 0.323853 0.504602
3417 1 0.909068 0.308087 0.504846
3981 1 0.919577 0.321096 0.504553
3916 1 0.922513 0.304657 0.504426
499 1 0.93002 0.317557 0.504703
3548 1 0.941645 0.313382 0.505014
3774 1 0.952127 0.320522 0.504545
3626 1 0.953355 0.305785 0.505026
3280 1 0.966442 0.321945 0.504368
3490 1 0.966644 0.308288 0.505176
566 1 0.976663 0.317544 0.507167
4059 1 0.988392 0.312575 0.507168
4183 1 0.994706 0.324502 0.506792
3998 1 0.521985 0.340441 0.500345
3810 1 0.543837 0.340255 0.501162
3721 1 0.555019 0.329964 0.501037
1326 1 0.556193 0.343837 0.502141
3878 1 0.566056 0.336239 0.501232
3661 1 0.577958 0.326398 0.501181
3954 1 0.577912 0.339239 0.502283
3783 1 0.600865 0.33038 0.50093
3855 1 0.590188 0.334029 0.50151
3994 1 0.600689 0.345272 0.501839
3524 1 0.626615 0.334326 0.500831
3894 1 0.671148 0.345426 0.500414
4205 1 0.654241 0.345227 0.501467
3818 1 0.710787 0.326474 0.500345
4014 1 0.713759 0.337434 0.501328
3658 1 0.69855 0.343904 0.500312
3901 1 0.723634 0.327729 0.501808
3619 1 0.724961 0.344231 0.500499
3961 1 0.733773 0.336771 0.501958
4035 1 0.738827 0.347517 0.501459
3678 1 0.745383 0.331863 0.503605
4307 1 0.752414 0.341394 0.503719
3900 1 0.761007 0.332974 0.503194
4038 1 0.77651 0.33879 0.50419
3977 1 0.765897 0.347373 0.503802
4328 1 0.783419 0.328178 0.50427
3826 1 0.789806 0.340918 0.504307
4169 1 0.804282 0.337037 0.504216
3764 1 0.820768 0.332679 0.505021
3694 1 0.825773 0.346251 0.503958
1122 1 0.834565 0.335818 0.504189
3769 1 0.847629 0.339188 0.504991
3987 1 0.862293 0.341246 0.503916
3701 1 0.885325 0.326703 0.506005
3412 1 0.87817 0.340246 0.504546
4034 1 0.897752 0.337257 0.504812
3496 1 0.914974 0.335902 0.504293
3628 1 0.929013 0.333784 0.504327
3699 1 0.923944 0.346264 0.503511
4050 1 0.941393 0.331001 0.503659
3825 1 0.952108 0.337037 0.504974
3550 1 0.939336 0.347572 0.504044
3780 1 0.964648 0.334099 0.505387
3426 1 0.977068 0.34042 0.504483
1065 1 0.982045 0.329167 0.506159
3778 1 0.994849 0.338599 0.508643
967 1 0.50737 0.35314 0.50013
1097 1 0.520863 0.361454 0.501316
906 1 0.508285 0.367195 0.501105
3874 1 0.530923 0.349357 0.50116
1325 1 0.540863 0.354418 0.5016
3714 1 0.533519 0.364733 0.501449
770 1 0.550627 0.368729 0.50099
3941 1 0.552855 0.355019 0.502272
3659 1 0.563696 0.366333 0.501239
4132 1 0.575675 0.36529 0.501608
910 1 0.565331 0.351869 0.501587
4204 1 0.577636 0.35227 0.501469
3992 1 0.589105 0.350076 0.501815
1313 1 0.591686 0.363863 0.501715
3862 1 0.606976 0.359045 0.501261
3592 1 0.623539 0.363539 0.502636
3787 1 0.619887 0.349454 0.501739
4010 1 0.637045 0.360898 0.501237
3871 1 0.650636 0.368434 0.500338
3446 1 0.635921 0.348825 0.501357
4074 1 0.662336 0.355262 0.502262
3682 1 0.673708 0.368872 0.503971
3964 1 0.688008 0.35098 0.501904
3729 1 0.677068 0.35641 0.501047
3943 1 0.689151 0.36464 0.501936
3801 1 0.711403 0.34897 0.500415
4002 1 0.701686 0.358033 0.501596
3683 1 0.712648 0.366286 0.502277
3746 1 0.722197 0.357032 0.501734
3822 1 0.733947 0.360994 0.500604
3664 1 0.75058 0.357257 0.502856
4040 1 0.755611 0.369014 0.503404
3823 1 0.742684 0.369414 0.503095
3829 1 0.780387 0.356101 0.504136
3893 1 0.767792 0.361752 0.504067
3953 1 0.796233 0.352461 0.503981
3955 1 0.789842 0.362869 0.504009
1198 1 0.811154 0.348278 0.504318
3762 1 0.806922 0.363193 0.505051
3963 1 0.821098 0.359149 0.505896
3835 1 0.833224 0.359405 0.505286
4049 1 0.838475 0.347862 0.505415
4108 1 0.844795 0.360536 0.504206
3690 1 0.854047 0.35095 0.505341
3827 1 0.865719 0.365198 0.503394
3763 1 0.886981 0.350661 0.504886
3476 1 0.870711 0.354558 0.503598
3753 1 0.880309 0.363338 0.504691
1262 1 0.896466 0.359386 0.504494
4054 1 0.906151 0.348083 0.503845
3834 1 0.906214 0.368943 0.504135
3911 1 0.926513 0.362175 0.503623
3907 1 0.915698 0.355638 0.504566
847 1 0.94105 0.363355 0.502715
772 1 0.953556 0.355713 0.504939
1343 1 0.954306 0.368504 0.504212
781 1 0.965195 0.350688 0.504258
3906 1 0.969235 0.366261 0.504563
1054 1 0.977891 0.35847 0.504822
983 1 0.987861 0.349008 0.506519
571 1 0.992777 0.36302 0.50539
3591 1 0.511717 0.382934 0.501067
4071 1 0.541654 0.390411 0.500503
3996 1 0.558298 0.37956 0.500738
1046 1 0.556565 0.390431 0.501526
3938 1 0.571721 0.381112 0.502622
3740 1 0.584141 0.37598 0.50185
1244 1 0.598334 0.375112 0.503243
1161 1 0.60104 0.387586 0.501826
4134 1 0.588486 0.387917 0.501436
3863 1 0.612452 0.374032 0.502898
1040 1 0.614195 0.38628 0.502767
3870 1 0.625685 0.378775 0.502675
1189 1 0.64733 0.381249 0.502388
4032 1 0.637132 0.374535 0.501483
3735 1 0.636108 0.387156 0.50268
4083 1 0.659567 0.384039 0.503559
3796 1 0.662122 0.37035 0.502851
4209 1 0.671781 0.385917 0.503302
3946 1 0.686086 0.376785 0.504884
4356 1 0.693045 0.389696 0.50326
4000 1 0.700175 0.3717 0.502741
4009 1 0.709404 0.383701 0.502943
4296 1 0.722849 0.373633 0.502549
4026 1 0.729177 0.382392 0.503198
4158 1 0.738178 0.390644 0.504056
4373 1 0.747457 0.380351 0.503339
4177 1 0.756766 0.391173 0.504833
4094 1 0.763756 0.378164 0.505242
4167 1 0.778094 0.372354 0.504532
3873 1 0.772948 0.386677 0.505832
3959 1 0.788859 0.382566 0.504374
3885 1 0.795504 0.372456 0.504986
4237 1 0.803281 0.382857 0.50624
4255 1 0.812868 0.373914 0.506703
4192 1 0.820482 0.384306 0.507759
3971 1 0.828254 0.369847 0.504789
3630 1 0.84101 0.372662 0.506362
4104 1 0.832221 0.38631 0.507162
3757 1 0.844217 0.387066 0.5058
4045 1 0.856629 0.370688 0.506177
849 1 0.857326 0.386885 0.504287
4043 1 0.868219 0.378011 0.504534
3838 1 0.882475 0.378676 0.504009
3707 1 0.874414 0.388758 0.503088
1121 1 0.89335 0.370165 0.50434
3692 1 0.899041 0.382249 0.504188
570 1 0.911301 0.383748 0.502096
3847 1 0.91886 0.371227 0.504058
3986 1 0.922914 0.388794 0.502421
3917 1 0.931986 0.377956 0.502098
842 1 0.947917 0.381232 0.502813
3989 1 0.963776 0.37914 0.502674
981 1 0.976262 0.383486 0.503925
841 1 0.983675 0.371257 0.505504
4052 1 0.99108 0.381526 0.503801
1178 1 0.501783 0.395383 0.500746
834 1 0.519463 0.392449 0.501235
1248 1 0.505687 0.412592 0.500577
3594 1 0.540597 0.405921 0.500163
1440 1 0.530673 0.398794 0.501041
1109 1 0.55647 0.40573 0.50178
899 1 0.582265 0.404815 0.501471
900 1 0.578331 0.392695 0.502904
1245 1 0.566039 0.397009 0.501582
3654 1 0.570005 0.409766 0.501156
3991 1 0.594934 0.402383 0.502415
1320 1 0.62271 0.394859 0.502169
4061 1 0.610876 0.399532 0.502182
1116 1 0.620093 0.408676 0.501645
4073 1 0.633725 0.399721 0.5022
3861 1 0.644714 0.406584 0.504579
3526 1 0.648943 0.395372 0.503116
4286 1 0.664639 0.39721 0.503477
3951 1 0.659636 0.409783 0.5034
4018 1 0.672485 0.411401 0.504208
3726 1 0.680827 0.401025 0.50401
4095 1 0.705969 0.395206 0.504528
4030 1 0.695664 0.405093 0.504827
4092 1 0.71432 0.406204 0.50485
4088 1 0.721923 0.392113 0.503723
4649 1 0.730061 0.401104 0.503624
3886 1 0.744465 0.402013 0.5046
4512 1 0.758942 0.40215 0.504971
4121 1 0.77249 0.401235 0.504108
4037 1 0.796128 0.394436 0.504215
3962 1 0.784011 0.39627 0.504271
4157 1 0.797129 0.406375 0.505909
3876 1 0.783184 0.409878 0.5058
4316 1 0.807958 0.394948 0.508118
3970 1 0.81013 0.407168 0.506387
4223 1 0.822748 0.394237 0.508229
4236 1 0.822743 0.406171 0.505895
4056 1 0.835377 0.399831 0.506621
4057 1 0.847066 0.40353 0.504103
4042 1 0.864972 0.397422 0.504133
4454 1 0.889575 0.392165 0.502689
3979 1 0.871144 0.412761 0.503992
3624 1 0.879026 0.404003 0.502798
4122 1 0.891878 0.406471 0.501729
4198 1 0.90335 0.400075 0.501509
3978 1 0.913977 0.410493 0.501546
4123 1 0.916473 0.397989 0.502108
1123 1 0.928147 0.405262 0.500637
4111 1 0.943604 0.405886 0.501555
3710 1 0.937025 0.393198 0.501685
1337 1 0.95058 0.394788 0.501929
1349 1 0.959765 0.407165 0.50066
4191 1 0.974189 0.407822 0.501256
4263 1 0.961377 0.392591 0.503121
3914 1 0.972021 0.395617 0.502238
1005 1 0.986702 0.394676 0.504164
1272 1 0.986371 0.404995 0.500595
3856 1 0.503736 0.42631 0.501031
4202 1 0.5439 0.416182 0.501458
4271 1 0.54771 0.426261 0.5002
1175 1 0.559406 0.417726 0.500465
1321 1 0.557798 0.431596 0.500464
1120 1 0.585204 0.431714 0.502054
4426 1 0.571943 0.423256 0.500396
4425 1 0.608214 0.414772 0.501913
980 1 0.58761 0.416998 0.500639
1103 1 0.597554 0.42753 0.502687
1327 1 0.609843 0.430765 0.502463
4142 1 0.623649 0.42004 0.503365
4412 1 0.620088 0.432437 0.502861
3865 1 0.633984 0.414286 0.502605
3800 1 0.633463 0.428679 0.502201
3944 1 0.64573 0.420713 0.503264
4149 1 0.656033 0.42561 0.502097
4148 1 0.668219 0.422711 0.502123
4020 1 0.685095 0.417373 0.504487
4017 1 0.68719 0.434624 0.50329
4298 1 0.695953 0.423793 0.503846
4309 1 0.710437 0.417176 0.503837
3649 1 0.709376 0.431464 0.504365
3897 1 0.729393 0.413606 0.503663
1398 1 0.720453 0.422255 0.505496
4021 1 0.732797 0.425532 0.504672
3805 1 0.742192 0.413486 0.502794
4033 1 0.745197 0.425451 0.503319
4013 1 0.754154 0.416615 0.503989
3831 1 0.753976 0.434712 0.503693
3950 1 0.768833 0.416414 0.504262
3877 1 0.763506 0.429047 0.503359
3836 1 0.781996 0.42327 0.50488
3896 1 0.773037 0.433408 0.50591
4153 1 0.795233 0.4234 0.504958
3820 1 0.789262 0.433986 0.504857
4041 1 0.814796 0.417656 0.505522
4245 1 0.80685 0.426676 0.505961
3806 1 0.822989 0.426582 0.504448
4456 1 0.832591 0.41529 0.506937
4128 1 0.84393 0.422512 0.505132
4247 1 0.832665 0.434005 0.504764
3755 1 0.856194 0.413076 0.504295
4044 1 0.858474 0.425989 0.504645
4180 1 0.887053 0.418836 0.503984
4174 1 0.872554 0.42397 0.503662
3957 1 0.882788 0.433541 0.503223
3882 1 0.911193 0.424709 0.50093
3952 1 0.89995 0.416109 0.502251
3988 1 0.89696 0.42862 0.501463
1339 1 0.952868 0.417906 0.500051
1415 1 0.985592 0.417029 0.500441
1246 1 0.511056 0.437017 0.500262
4212 1 0.500105 0.444256 0.501223
1323 1 0.516916 0.449318 0.500856
1378 1 0.529992 0.444886 0.50068
3923 1 0.538938 0.455533 0.50047
1604 1 0.549181 0.444622 0.501004
4497 1 0.560546 0.445499 0.500285
4348 1 0.554047 0.456263 0.501899
1104 1 0.571488 0.451726 0.501962
908 1 0.571529 0.435658 0.501199
4422 1 0.583218 0.447242 0.501771
1399 1 0.596523 0.440671 0.503128
1171 1 0.597686 0.453321 0.502791
3928 1 0.622947 0.445416 0.501967
3858 1 0.609296 0.447151 0.501913
3948 1 0.646142 0.435574 0.501548
4006 1 0.634379 0.443019 0.502157
4066 1 0.644691 0.451651 0.502034
3929 1 0.671438 0.451383 0.501647
4431 1 0.657016 0.441508 0.501805
4448 1 0.66948 0.437539 0.501338
4217 1 0.684864 0.44716 0.500851
4376 1 0.700407 0.438484 0.503164
4246 1 0.712824 0.447642 0.50443
4097 1 0.697005 0.451671 0.502001
3808 1 0.723222 0.434958 0.504006
4012 1 0.734885 0.445984 0.503638
4524 1 0.750866 0.45642 0.502339
4025 1 0.739219 0.434797 0.502769
3792 1 0.747779 0.444016 0.503282
4241 1 0.7738 0.456448 0.503386
4600 1 0.762236 0.455138 0.503076
4109 1 0.764442 0.443026 0.503845
3966 1 0.780455 0.445848 0.505235
3875 1 0.802742 0.438124 0.503817
4096 1 0.794002 0.447048 0.504665
4190 1 0.81413 0.436803 0.506036
4147 1 0.820736 0.4457 0.504365
4171 1 0.810042 0.45226 0.50382
4165 1 0.838421 0.445504 0.505528
4243 1 0.852217 0.437126 0.503679
4258 1 0.849139 0.451895 0.502534
4046 1 0.861948 0.450895 0.501891
4184 1 0.86505 0.439167 0.503987
4164 1 0.878623 0.447855 0.5004
1331 1 0.89512 0.440819 0.500516
3712 1 0.503105 0.457644 0.502362
1470 1 0.511229 0.469549 0.502999
1111 1 0.526459 0.462723 0.500697
3995 1 0.532882 0.472751 0.500884
4283 1 0.55635 0.470409 0.501022
4063 1 0.544716 0.465662 0.50042
4352 1 0.581265 0.473807 0.500168
1317 1 0.580238 0.461181 0.500469
4201 1 0.605891 0.465379 0.50105
1379 1 0.592698 0.464617 0.500486
3857 1 0.617059 0.47299 0.501657
4131 1 0.619125 0.458045 0.50201
4155 1 0.630831 0.470217 0.502326
4003 1 0.643998 0.465776 0.502502
4081 1 0.631829 0.457166 0.500834
4211 1 0.658167 0.473019 0.500741
4144 1 0.656244 0.458959 0.502465
3934 1 0.667639 0.465708 0.501209
4166 1 0.689046 0.475598 0.500276
4099 1 0.675406 0.475352 0.500418
3926 1 0.680896 0.460319 0.500314
3816 1 0.694433 0.463361 0.500835
4451 1 0.704216 0.473103 0.502093
4168 1 0.707036 0.459691 0.503888
4651 1 0.716565 0.471522 0.503125
4154 1 0.722425 0.457776 0.503467
4252 1 0.737671 0.457405 0.502449
4317 1 0.729042 0.470277 0.502775
4105 1 0.759578 0.469688 0.502508
4308 1 0.746404 0.468871 0.503097
3888 1 0.772265 0.4694 0.503579
4599 1 0.784718 0.469816 0.504193
4817 1 0.800901 0.462798 0.504841
4329 1 0.786577 0.457846 0.505583
3824 1 0.82204 0.462308 0.505123
3887 1 0.812135 0.467087 0.506099
4304 1 0.837809 0.472976 0.501277
4107 1 0.834021 0.459833 0.504818
4327 1 0.826154 0.476011 0.503964
4262 1 0.860482 0.468171 0.502148
4238 1 0.849892 0.464898 0.503737
4715 1 0.52084 0.479887 0.50273
1461 1 0.510426 0.48779 0.501453
3930 1 0.542733 0.478594 0.500634
1389 1 0.531066 0.485418 0.502367
4231 1 0.523383 0.493798 0.503978
4019 1 0.546466 0.492333 0.502257
4007 1 0.554703 0.483027 0.500244
4067 1 0.566485 0.490476 0.500153
1330 1 0.607014 0.480898 0.501315
3937 1 0.59315 0.478261 0.500959
4273 1 0.60076 0.488876 0.500667
4509 1 0.613884 0.490776 0.50025
4163 1 0.62527 0.482141 0.50218
4079 1 0.65012 0.490379 0.500896
4140 1 0.64334 0.480054 0.501133
4853 1 0.634623 0.489175 0.501108
4489 1 0.641521 0.499904 0.50043
3794 1 0.664567 0.487069 0.500867
4076 1 0.680417 0.488265 0.500607
4015 1 0.693976 0.487892 0.501251
3949 1 0.70915 0.485473 0.501132
4301 1 0.731773 0.491132 0.502742
4297 1 0.723251 0.484216 0.502326
4313 1 0.736348 0.47971 0.50298
4176 1 0.756149 0.493695 0.504211
4295 1 0.752471 0.48073 0.503873
4530 1 0.743896 0.490783 0.503574
4374 1 0.776402 0.495029 0.504527
4312 1 0.767592 0.484259 0.502971
4331 1 0.780851 0.482165 0.502293
4526 1 0.790168 0.498611 0.503467
1544 1 0.792053 0.483857 0.502888
4172 1 0.800902 0.479746 0.505457
4310 1 0.8077 0.497654 0.504697
4110 1 0.822351 0.489287 0.502039
4173 1 0.812451 0.480868 0.504615
4039 1 0.832575 0.497438 0.501004
4250 1 0.84037 0.48617 0.500937
1268 1 0.867725 0.494554 0.500087
4188 1 0.850623 0.480607 0.500894
4266 1 0.862911 0.481538 0.501819
4178 1 0.880009 0.487871 0.501527
4249 1 0.892054 0.493316 0.500423
4473 1 0.907067 0.498546 0.500036
1547 1 0.901886 0.48429 0.500299
1609 1 0.58587 0.510784 0.498963
4203 1 0.601379 0.519715 0.497695
4135 1 0.596453 0.503604 0.497903
4779 1 0.609787 0.503729 0.499938
4278 1 0.618417 0.515425 0.497441
4156 1 0.632758 0.510563 0.49998
4291 1 0.645505 0.520622 0.499698
4075 1 0.651132 0.508165 0.499746
4226 1 0.657285 0.519098 0.498837
4436 1 0.668995 0.513041 0.498839
4069 1 0.661422 0.500106 0.499149
4001 1 0.682564 0.516156 0.498918
4229 1 0.700442 0.518841 0.498566
4357 1 0.712863 0.518172 0.499582
4159 1 0.722721 0.512191 0.499668
4112 1 0.843692 0.503742 0.498095
3968 1 0.847476 0.517843 0.49732
4115 1 0.885699 0.520749 0.498021
1408 1 0.90041 0.516635 0.499024
1477 1 0.894587 0.50609 0.499431
4124 1 0.913767 0.510712 0.498825
1542 1 0.92374 0.517269 0.497879
1413 1 0.931203 0.504852 0.497175
4120 1 0.947883 0.507458 0.495916
1338 1 0.937542 0.519246 0.497191
4386 1 0.959119 0.520378 0.496153
1346 1 0.963718 0.506581 0.4946
1335 1 0.975767 0.512919 0.494268
1896 1 0.985192 0.50154 0.493539
1404 1 0.992568 0.512876 0.493625
1755 1 0.997882 0.501013 0.493308
4065 1 0.56349 0.522139 0.4999
3999 1 0.566254 0.535099 0.4999
4433 1 0.579026 0.523582 0.499903
4275 1 0.579186 0.539008 0.498808
4143 1 0.589832 0.529142 0.498757
4435 1 0.591094 0.541996 0.499345
1258 1 0.613923 0.528521 0.498554
4350 1 0.631211 0.524426 0.498521
3868 1 0.642619 0.536767 0.499761
3936 1 0.671421 0.526698 0.499664
4150 1 0.689519 0.525961 0.499609
4445 1 0.722926 0.536427 0.499719
4196 1 0.83553 0.537544 0.49997
4452 1 0.849093 0.533089 0.49954
4113 1 0.860556 0.525931 0.498541
4093 1 0.857669 0.540069 0.498639
4521 1 0.872043 0.536894 0.498567
4126 1 0.908622 0.538507 0.499645
4546 1 0.912935 0.525857 0.498972
4390 1 0.898853 0.530081 0.497902
4598 1 0.925416 0.528283 0.497744
4690 1 0.948744 0.526866 0.49757
4253 1 0.93668 0.534794 0.498073
4617 1 0.947122 0.540952 0.497824
4336 1 0.960396 0.534987 0.496498
1261 1 0.970921 0.526738 0.494658
4334 1 0.983217 0.537303 0.494366
4550 1 0.998685 0.525731 0.494346
4477 1 0.995803 0.537385 0.493255
1353 1 0.98453 0.52367 0.49352
4571 1 0.562488 0.560975 0.49898
4070 1 0.567361 0.548632 0.499065
4647 1 0.584561 0.564607 0.499219
4569 1 0.617465 0.543803 0.499769
4293 1 0.708061 0.544601 0.499551
4181 1 0.844071 0.54673 0.499319
4340 1 0.855981 0.55223 0.49894
3898 1 0.867544 0.548922 0.499429
4461 1 0.857285 0.564777 0.499585
4404 1 0.870728 0.562381 0.498962
4405 1 0.909035 0.553809 0.499428
4469 1 0.923469 0.544128 0.498287
4807 1 0.934216 0.55259 0.497444
4339 1 0.919712 0.559765 0.498467
4325 1 0.946895 0.557765 0.497229
1891 1 0.958899 0.547789 0.495675
4547 1 0.960072 0.560337 0.495205
4747 1 0.971128 0.560493 0.493322
4685 1 0.971147 0.544344 0.494979
5033 1 0.98366 0.553445 0.493724
4539 1 0.995433 0.549771 0.493598
1613 1 0.988933 0.564185 0.494022
4384 1 0.847685 0.581001 0.499968
4594 1 0.86006 0.57779 0.49928
1541 1 0.885548 0.585065 0.498924
4608 1 0.884532 0.572519 0.498721
4896 1 0.873169 0.578269 0.499794
4397 1 0.896046 0.577812 0.498071
4315 1 0.905165 0.566042 0.498677
4538 1 0.913047 0.574004 0.497958
4269 1 0.925841 0.575114 0.497422
4118 1 0.935635 0.566316 0.496585
4332 1 0.949226 0.572105 0.497856
4185 1 0.940369 0.581017 0.49619
4257 1 0.961861 0.576031 0.494189
1350 1 0.977482 0.572975 0.494138
4395 1 0.970911 0.585283 0.4952
1403 1 0.996586 0.574904 0.491983
4465 1 0.984329 0.583029 0.494209
4460 1 0.860545 0.590407 0.499925
1475 1 0.864828 0.604187 0.499847
4114 1 0.88907 0.59638 0.498274
4321 1 0.873337 0.591639 0.498873
4653 1 0.901729 0.590401 0.498566
4877 1 0.904779 0.60511 0.497952
4890 1 0.915831 0.600391 0.497359
4806 1 0.914989 0.587187 0.498041
4527 1 0.927358 0.601113 0.495007
4684 1 0.928381 0.589054 0.496172
4601 1 0.95238 0.587084 0.495467
4406 1 0.943558 0.597524 0.495314
4519 1 0.95543 0.59998 0.494706
4596 1 0.966684 0.597686 0.493146
4388 1 0.979246 0.596547 0.493798
4755 1 0.994965 0.59832 0.494045
4720 1 0.803729 0.624816 0.499536
4662 1 0.829514 0.623652 0.499673
4603 1 0.857742 0.615244 0.499605
1474 1 0.879449 0.62634 0.499703
4821 1 0.889238 0.617182 0.4983
4965 1 0.8987 0.620783 0.49947
4816 1 0.913181 0.61551 0.497399
1826 1 0.926719 0.61277 0.495451
4609 1 0.928233 0.623506 0.495203
4449 1 0.917266 0.628519 0.495381
4758 1 0.939804 0.611187 0.493675
4610 1 0.951796 0.612887 0.493429
4611 1 0.94216 0.627293 0.493641
4686 1 0.966809 0.612417 0.492524
4522 1 0.957453 0.624831 0.492868
4677 1 0.974598 0.624645 0.491741
4475 1 0.995707 0.612356 0.493895
4543 1 0.980022 0.610222 0.492093
4737 1 0.988053 0.624032 0.49171
4233 1 0.81837 0.64964 0.499508
5162 1 0.814643 0.634532 0.499427
1476 1 0.805316 0.646211 0.49911
4721 1 0.831217 0.637974 0.499521
4659 1 0.845718 0.643572 0.499948
4457 1 0.862359 0.644759 0.497773
4590 1 0.854206 0.637016 0.498176
4676 1 0.879469 0.640695 0.499168
4744 1 0.889851 0.631534 0.498671
4525 1 0.869798 0.63142 0.497484
4800 1 0.893689 0.647083 0.49759
4810 1 0.905 0.633308 0.497174
4588 1 0.906064 0.646502 0.495569
4884 1 0.919203 0.642231 0.494854
4322 1 0.93085 0.636703 0.494459
4818 1 0.941263 0.648631 0.493013
4591 1 0.947137 0.638787 0.49496
4396 1 0.954202 0.651825 0.493723
4455 1 0.961785 0.637345 0.49266
2122 1 0.968746 0.647754 0.492573
4463 1 0.99371 0.639561 0.492349
4520 1 0.980786 0.639118 0.492202
1754 1 0.985577 0.651641 0.492481
1393 1 0.526783 0.670671 0.499978
4843 1 0.540965 0.670978 0.499797
4774 1 0.555306 0.671546 0.498684
4487 1 0.573932 0.664085 0.499411
4723 1 0.586475 0.665634 0.499699
4657 1 0.84764 0.656195 0.498617
4811 1 0.866966 0.665822 0.499855
4668 1 0.858041 0.65615 0.498767
4675 1 0.873898 0.652434 0.498324
4516 1 0.884138 0.65871 0.499417
1402 1 0.883055 0.672412 0.499522
1974 1 0.894471 0.671235 0.498322
4751 1 0.897224 0.659294 0.498498
5441 1 0.90747 0.662593 0.496093
4894 1 0.927074 0.653935 0.493516
4742 1 0.916385 0.655436 0.496408
4757 1 0.930985 0.665954 0.494956
4799 1 0.920398 0.672211 0.497178
4683 1 0.944929 0.661811 0.493355
4753 1 0.953532 0.670987 0.495087
1832 1 0.975119 0.65809 0.49398
2124 1 0.963125 0.663914 0.492586
1979 1 0.973077 0.67328 0.49417
1634 1 0.997063 0.669147 0.49338
4535 1 0.996604 0.65688 0.494042
2052 1 0.984247 0.666239 0.494035
4639 1 0.512904 0.678992 0.499748
1679 1 0.510715 0.690803 0.499289
1468 1 0.525463 0.685578 0.499269
4625 1 0.542485 0.684323 0.499643
4915 1 0.555509 0.68475 0.496679
4701 1 0.545288 0.695509 0.498584
4648 1 0.571435 0.690613 0.496905
4494 1 0.568585 0.676748 0.497773
4623 1 0.581122 0.678641 0.499994
4948 1 0.908731 0.676905 0.498067
4663 1 0.91033 0.689573 0.495896
4883 1 0.922924 0.684301 0.494773
4750 1 0.934672 0.695208 0.495631
4681 1 0.935424 0.678211 0.494717
1961 1 0.951256 0.68578 0.495292
4540 1 0.965203 0.681432 0.492684
2046 1 0.974292 0.6901 0.493746
1971 1 0.985654 0.680687 0.493346
4537 1 0.990061 0.692928 0.494612
4913 1 0.505153 0.704421 0.499009
2086 1 0.520151 0.702344 0.497462
4833 1 0.514728 0.714343 0.498091
4700 1 0.539676 0.707386 0.49807
4277 1 0.532244 0.697515 0.497288
4837 1 0.556917 0.696416 0.497993
4492 1 0.55137 0.706994 0.496794
4709 1 0.567666 0.704081 0.496403
4696 1 0.579848 0.71534 0.497269
4553 1 0.581864 0.701216 0.497735
4984 1 0.59783 0.710849 0.497503
5122 1 0.594974 0.700008 0.498771
4362 1 0.610249 0.699785 0.499679
4930 1 0.61155 0.713409 0.498839
5267 1 0.624529 0.714082 0.499286
5080 1 0.849464 0.714516 0.499351
4660 1 0.904915 0.697923 0.498501
4988 1 0.891662 0.716217 0.49993
4876 1 0.919225 0.699788 0.496335
5010 1 0.914078 0.71146 0.497706
1893 1 0.929179 0.70667 0.497083
4531 1 0.941981 0.713853 0.497336
4466 1 0.947739 0.700255 0.497385
4400 1 0.954806 0.713824 0.496138
1966 1 0.959553 0.697232 0.496024
5233 1 0.96808 0.707703 0.495452
1975 1 0.998824 0.702677 0.494881
1963 1 0.982683 0.705023 0.493119
4961 1 0.999028 0.714162 0.493411
4736 1 0.982377 0.716942 0.494499
4628 1 0.503113 0.717944 0.499437
5073 1 0.515844 0.727939 0.497336
4630 1 0.50345 0.732445 0.498738
4496 1 0.526781 0.717595 0.497398
4999 1 0.541344 0.720613 0.496459
4844 1 0.539782 0.733727 0.497382
2099 1 0.527777 0.730042 0.496461
4706 1 0.553262 0.732448 0.49595
5043 1 0.555068 0.719025 0.496603
5134 1 0.564681 0.734305 0.494441
4854 1 0.567973 0.71939 0.496573
4772 1 0.577778 0.728246 0.496377
4784 1 0.58611 0.735908 0.495723
5194 1 0.59064 0.722242 0.498877
4922 1 0.597661 0.733917 0.497783
4773 1 0.603934 0.723423 0.498688
4719 1 0.619971 0.728521 0.497882
4626 1 0.611333 0.73581 0.49819
5131 1 0.636555 0.734302 0.498755
4578 1 0.635 0.72181 0.497709
4989 1 0.688027 0.736532 0.499051
5193 1 0.705178 0.73658 0.499359
5554 1 0.730361 0.738852 0.499389
5505 1 0.839028 0.722441 0.499459
4852 1 0.861198 0.726819 0.499989
4794 1 0.904018 0.722413 0.498447
4462 1 0.92799 0.720194 0.49865
4749 1 0.927738 0.734264 0.49941
4873 1 0.941821 0.727962 0.498111
4743 1 0.955283 0.727111 0.497276
4752 1 0.967584 0.731206 0.497328
4830 1 0.967693 0.721207 0.495723
2035 1 0.980583 0.729656 0.49499
4822 1 0.997858 0.72598 0.493914
5196 1 0.504534 0.755887 0.49735
4765 1 0.515969 0.760355 0.497036
2719 1 0.513482 0.740641 0.49779
5057 1 0.523837 0.74601 0.496309
5046 1 0.528834 0.756204 0.494763
4767 1 0.536043 0.745718 0.495616
4708 1 0.55519 0.758954 0.494431
5259 1 0.547168 0.746383 0.495448
5062 1 0.561249 0.746307 0.494655
5277 1 0.575201 0.743761 0.493916
5051 1 0.568384 0.757814 0.494229
5546 1 0.581999 0.759847 0.493755
4997 1 0.587822 0.748198 0.494285
4718 1 0.599184 0.747478 0.495999
5191 1 0.624927 0.740783 0.497271
4847 1 0.625001 0.754882 0.496689
4924 1 0.611199 0.748103 0.49558
4978 1 0.65124 0.754308 0.49828
5195 1 0.636181 0.750004 0.498468
5275 1 0.6615 0.76015 0.498892
5478 1 0.673455 0.76041 0.497297
5136 1 0.656996 0.741363 0.499644
5269 1 0.679949 0.746846 0.499523
5063 1 0.686117 0.756808 0.498319
5138 1 0.706936 0.749158 0.499538
5495 1 0.716989 0.754225 0.498749
5336 1 0.700146 0.758036 0.498635
4944 1 0.728323 0.75288 0.499535
5272 1 0.748977 0.739686 0.499554
5287 1 0.75799 0.754284 0.499941
4517 1 0.952313 0.73945 0.498844
4665 1 0.964305 0.744081 0.499526
4536 1 0.974938 0.744045 0.497321
4814 1 0.972654 0.756306 0.499971
2054 1 0.99872 0.753178 0.495824
4760 1 0.989339 0.73952 0.495738
4879 1 0.985699 0.751153 0.497113
4983 1 0.516096 0.777891 0.494845
5337 1 0.505508 0.771615 0.496505
5121 1 0.541148 0.761634 0.495794
4927 1 0.54006 0.778515 0.495039
2447 1 0.525801 0.768762 0.495586
5394 1 0.554773 0.773726 0.496004
4761 1 0.564885 0.780518 0.495464
5333 1 0.57576 0.781541 0.495378
1958 1 0.569817 0.769389 0.493851
5404 1 0.5861 0.771647 0.495986
4995 1 0.599911 0.762761 0.49543
5059 1 0.597977 0.776278 0.493929
5048 1 0.607378 0.781482 0.496249
2889 1 0.622941 0.780011 0.495131
5079 1 0.614216 0.767298 0.495273
5058 1 0.631273 0.766571 0.496726
5328 1 0.634241 0.777341 0.494417
4980 1 0.64192 0.76474 0.496767
2893 1 0.645836 0.779287 0.495801
4846 1 0.654527 0.767954 0.496987
5540 1 0.668407 0.777628 0.494914
5125 1 0.678262 0.771514 0.496264
5496 1 0.6925 0.768249 0.496431
5274 1 0.687798 0.780635 0.496023
5280 1 0.703375 0.776914 0.497506
2965 1 0.712456 0.76532 0.496993
4874 1 0.714459 0.780069 0.495816
5285 1 0.728018 0.766535 0.498512
5210 1 0.728728 0.781071 0.496744
5576 1 0.742399 0.775725 0.49967
5214 1 0.742537 0.761869 0.499404
4825 1 0.969434 0.77858 0.49989
4880 1 0.964636 0.764385 0.499892
4670 1 0.992184 0.774115 0.499081
2101 1 0.990334 0.762474 0.497809
5409 1 0.500788 0.787003 0.496557
5252 1 0.512945 0.790074 0.494733
2380 1 0.501249 0.799226 0.494505
4627 1 0.528208 0.786789 0.495141
5399 1 0.538465 0.798609 0.493529
4987 1 0.524766 0.800877 0.494956
2520 1 0.547219 0.788041 0.493382
4920 1 0.558636 0.792479 0.494632
4413 1 0.551258 0.803902 0.493625
5123 1 0.583584 0.797603 0.496856
5047 1 0.57126 0.79774 0.495337
5132 1 0.596046 0.802825 0.497232
5133 1 0.590994 0.786974 0.495922
5065 1 0.60611 0.793321 0.496686
5066 1 0.620314 0.791558 0.494017
5421 1 0.63045 0.802964 0.494426
5119 1 0.634337 0.790606 0.492754
5477 1 0.644923 0.794754 0.493721
5266 1 0.658019 0.797243 0.493949
5473 1 0.657001 0.784795 0.492939
3028 1 0.668254 0.78896 0.494254
2855 1 0.673162 0.799274 0.493954
5492 1 0.681166 0.790011 0.494878
5572 1 0.685054 0.802211 0.493054
5544 1 0.695143 0.791269 0.493626
5367 1 0.707526 0.791402 0.494769
2909 1 0.698523 0.803008 0.493921
5344 1 0.72039 0.794349 0.495467
5418 1 0.733822 0.790868 0.498047
5550 1 0.741693 0.800338 0.497733
5213 1 0.780193 0.797765 0.498826
5086 1 0.764199 0.795478 0.499915
2449 1 0.501891 0.81582 0.494264
4840 1 0.511841 0.806521 0.495266
5253 1 0.512893 0.821531 0.495142
5325 1 0.5345 0.814238 0.494597
5340 1 0.524981 0.819929 0.495634
2841 1 0.560386 0.819306 0.492785
4559 1 0.547299 0.820272 0.493116
5064 1 0.565327 0.809688 0.495329
2820 1 0.582745 0.810693 0.49629
5488 1 0.58278 0.824933 0.493403
5045 1 0.592407 0.816329 0.496997
5128 1 0.607377 0.807201 0.496373
5398 1 0.605575 0.819331 0.495367
5271 1 0.619359 0.808698 0.493953
5345 1 0.618409 0.825038 0.494206
5126 1 0.628225 0.817314 0.494219
2963 1 0.640674 0.808592 0.494448
2881 1 0.642618 0.821372 0.49344
2839 1 0.651948 0.807219 0.494667
2823 1 0.668848 0.809152 0.493325
2832 1 0.655548 0.823092 0.493406
2994 1 0.670212 0.823698 0.493696
2964 1 0.6835 0.813775 0.494535
2897 1 0.697405 0.81761 0.495838
2808 1 0.713252 0.806178 0.495676
5501 1 0.710403 0.81843 0.496252
5223 1 0.727371 0.806634 0.497227
2815 1 0.723794 0.819355 0.497457
5486 1 0.739539 0.817042 0.497344
5142 1 0.75433 0.811955 0.498868
5383 1 0.748434 0.826036 0.498538
5375 1 0.770775 0.807491 0.499539
5361 1 0.764797 0.818733 0.499898
2440 1 0.50516 0.834868 0.49583
4769 1 0.521205 0.836833 0.494455
4707 1 0.538399 0.829151 0.492729
5042 1 0.531909 0.842276 0.492646
5549 1 0.545453 0.839578 0.491359
2586 1 0.554727 0.830813 0.49311
2442 1 0.560856 0.842755 0.490142
5207 1 0.571365 0.827753 0.492526
5410 1 0.575224 0.84053 0.491922
2898 1 0.591124 0.839147 0.49423
2890 1 0.597149 0.83049 0.493941
5560 1 0.623518 0.83994 0.494009
3021 1 0.609005 0.837558 0.493572
5497 1 0.63101 0.82934 0.49338
2892 1 0.637915 0.840526 0.494165
5557 1 0.648121 0.833441 0.49376
2829 1 0.650012 0.847217 0.494254
2825 1 0.664216 0.834324 0.493135
5481 1 0.684844 0.829055 0.494987
3038 1 0.691692 0.842112 0.496925
5402 1 0.675899 0.839614 0.494356
5295 1 0.698757 0.8313 0.496483
5296 1 0.710969 0.830374 0.498609
2833 1 0.703645 0.846497 0.498099
2993 1 0.715559 0.84494 0.498679
5289 1 0.735461 0.831085 0.499381
5469 1 0.503379 0.851336 0.494965
2517 1 0.512876 0.867219 0.494519
2165 1 0.517867 0.852278 0.494175
5202 1 0.531356 0.855531 0.494474
5204 1 0.542633 0.851034 0.492748
4562 1 0.541891 0.865702 0.493979
5538 1 0.526418 0.866693 0.495288
3169 1 0.554559 0.854259 0.492308
5201 1 0.572164 0.855524 0.491452
2579 1 0.586162 0.86293 0.493536
5331 1 0.585319 0.848963 0.492481
2516 1 0.56633 0.865627 0.492683
2812 1 0.597367 0.848562 0.492979
5547 1 0.600606 0.85958 0.493969
2446 1 0.621792 0.852312 0.49472
2954 1 0.610787 0.848649 0.493543
5566 1 0.614857 0.861558 0.493057
5484 1 0.628117 0.863601 0.494031
5569 1 0.634437 0.853201 0.493688
2834 1 0.638428 0.86792 0.49468
5559 1 0.650239 0.860777 0.494381
2844 1 0.666945 0.850625 0.493879
3331 1 0.663438 0.863122 0.494957
2828 1 0.682545 0.850271 0.496067
4797 1 0.692451 0.859713 0.497109
5511 1 0.678635 0.860921 0.495473
5442 1 0.704023 0.859444 0.497655
5512 1 0.715269 0.85925 0.498629
5016 1 0.735669 0.866401 0.499463
2859 1 0.727103 0.854307 0.499711
5020 1 0.810936 0.865816 0.499712
5376 1 0.827668 0.863416 0.499956
4956 1 0.860178 0.848885 0.499067
5406 1 0.508298 0.880232 0.496569
2437 1 0.52283 0.879205 0.495921
5401 1 0.522716 0.891273 0.49444
5479 1 0.533998 0.875978 0.494065
2448 1 0.535129 0.889703 0.494334
5332 1 0.554519 0.870447 0.493698
2587 1 0.546079 0.879249 0.49483
3026 1 0.562815 0.881628 0.495021
2953 1 0.548697 0.891169 0.496252
2299 1 0.57785 0.874649 0.494058
5264 1 0.571692 0.889677 0.497293
5542 1 0.594764 0.8718 0.494828
5471 1 0.601358 0.883964 0.495484
5556 1 0.587157 0.888164 0.496653
5270 1 0.609466 0.873172 0.494159
5339 1 0.614135 0.887708 0.49644
2958 1 0.624725 0.87532 0.494352
5407 1 0.627664 0.889183 0.497275
2851 1 0.636182 0.879261 0.495968
2985 1 0.650982 0.87343 0.495591
5562 1 0.64854 0.883782 0.49792
2837 1 0.66351 0.87911 0.496774
2977 1 0.688341 0.873775 0.497308
5571 1 0.674732 0.873227 0.496838
2860 1 0.689655 0.886286 0.496437
3031 1 0.677503 0.885042 0.497174
5286 1 0.699511 0.871139 0.497219
5091 1 0.710667 0.871983 0.49975
5491 1 0.7002 0.88366 0.498476
5303 1 0.714432 0.884732 0.49969
4865 1 0.722722 0.869872 0.499191
5273 1 0.732002 0.880084 0.498608
5515 1 0.745961 0.888279 0.499033
2856 1 0.759375 0.887911 0.499323
5087 1 0.852034 0.872681 0.499997
5568 1 0.516316 0.908507 0.49695
2805 1 0.511916 0.895577 0.497092
2727 1 0.502512 0.905608 0.499254
5395 1 0.536859 0.909702 0.496723
2887 1 0.527648 0.901622 0.497238
2583 1 0.54565 0.902153 0.495768
2819 1 0.553668 0.90952 0.496985
5548 1 0.562174 0.899062 0.497085
2882 1 0.57072 0.908212 0.499419
5558 1 0.578932 0.899883 0.497439
5476 1 0.589194 0.909081 0.498256
2888 1 0.601585 0.910956 0.497994
2961 1 0.5964 0.897133 0.498193
2816 1 0.607118 0.897859 0.497291
3027 1 0.619996 0.896862 0.498168
2814 1 0.614421 0.90861 0.498829
2891 1 0.624852 0.909248 0.49897
5574 1 0.641791 0.891677 0.498628
5503 1 0.634349 0.903129 0.498188
5425 1 0.665548 0.892925 0.495942
3037 1 0.655079 0.900624 0.497862
5573 1 0.672113 0.905689 0.497428
2991 1 0.659576 0.912377 0.4979
3047 1 0.679037 0.896423 0.49619
5284 1 0.694267 0.901219 0.49797
5445 1 0.713602 0.904475 0.498431
4950 1 0.706189 0.893892 0.498414
5467 1 0.701508 0.910748 0.497923
5423 1 0.73614 0.895341 0.499682
2900 1 0.723981 0.895848 0.498345
5504 1 0.728866 0.908264 0.497912
2840 1 0.74515 0.906258 0.497445
5018 1 0.756843 0.900573 0.499822
2866 1 0.76512 0.910703 0.498159
5371 1 0.774315 0.904592 0.497864
5370 1 0.787906 0.90402 0.499958
5513 1 0.834694 0.904832 0.499714
5378 1 0.885054 0.912089 0.499794
2659 1 0.501861 0.920393 0.499678
3097 1 0.509412 0.933734 0.499325
2514 1 0.512995 0.918693 0.499513
2590 1 0.522375 0.930506 0.498225
5184 1 0.527459 0.917604 0.497118
2580 1 0.539865 0.920956 0.497548
5182 1 0.535671 0.932264 0.498362
5461 1 0.552697 0.922016 0.497277
5543 1 0.56454 0.919893 0.499244
136 1 0.547642 0.933879 0.499542
5470 1 0.579237 0.919664 0.499264
2886 1 0.60794 0.926184 0.499561
5475 1 0.594024 0.921493 0.49901
2957 1 0.59649 0.934021 0.498811
2818 1 0.618392 0.919819 0.498667
3025 1 0.648578 0.921878 0.499626
2972 1 0.643347 0.932191 0.499125
5539 1 0.634516 0.921832 0.499117
5584 1 0.658365 0.926639 0.49863
2901 1 0.669529 0.920546 0.497651
5413 1 0.685903 0.91556 0.49613
3023 1 0.681869 0.931485 0.497096
3130 1 0.694158 0.92538 0.496967
5498 1 0.706499 0.92022 0.497674
5565 1 0.705922 0.934025 0.49772
2996 1 0.718447 0.929716 0.496924
5502 1 0.718764 0.91627 0.498253
2850 1 0.729584 0.92234 0.497214
5278 1 0.731818 0.933999 0.498117
5415 1 0.753129 0.91743 0.497365
5427 1 0.739178 0.915121 0.498621
5563 1 0.744862 0.931597 0.498007
2849 1 0.760365 0.930276 0.499009
5362 1 0.781935 0.916408 0.498215
5575 1 0.769793 0.921644 0.497773
2880 1 0.77768 0.930609 0.49743
5241 1 0.79498 0.916507 0.499441
2914 1 0.813931 0.920601 0.499696
5319 1 0.899854 0.916928 0.499239
5458 1 0.999254 0.928538 0.499751
2803 1 0.543407 0.94673 0.499426
2658 1 0.559176 0.946426 0.499369
134 1 0.571962 0.94582 0.499981
5392 1 0.606108 0.949973 0.496573
5346 1 0.587234 0.944535 0.499283
2827 1 0.629041 0.936422 0.497643
2660 1 0.617697 0.943688 0.49653
2956 1 0.627116 0.952675 0.496711
5545 1 0.651491 0.939255 0.497676
2911 1 0.640228 0.946556 0.497778
5567 1 0.668808 0.955687 0.495309
3207 1 0.660304 0.947955 0.496612
3056 1 0.668693 0.937378 0.497722
2982 1 0.693961 0.940057 0.49632
5507 1 0.680964 0.944778 0.495856
2903 1 0.708238 0.949758 0.4964
5341 1 0.71726 0.942207 0.496941
2921 1 0.696003 0.955069 0.495847
5519 1 0.722526 0.955199 0.49591
3041 1 0.73196 0.945427 0.497751
2995 1 0.748921 0.946562 0.497937
5350 1 0.779637 0.945765 0.498083
2989 1 0.76262 0.941534 0.497683
5354 1 0.79513 0.95083 0.498017
5228 1 0.805845 0.935993 0.499741
5282 1 0.821269 0.945582 0.499954
5520 1 0.860497 0.93637 0.499574
5436 1 0.863957 0.948625 0.499499
5141 1 0.877468 0.944091 0.499393
3060 1 0.888616 0.940356 0.49927
5384 1 0.917226 0.938979 0.499213
2737 1 0.929275 0.945874 0.499448
2451 1 0.991 0.939781 0.49943
5249 1 0.996983 0.951907 0.499916
3044 1 0.552396 0.956954 0.499624
2980 1 0.565562 0.961675 0.499463
2974 1 0.578457 0.970662 0.498323
2726 1 0.577861 0.957752 0.499839
3088 1 0.591357 0.974624 0.498759
5494 1 0.589574 0.95843 0.498203
2883 1 0.602717 0.963858 0.497791
3181 1 0.628086 0.970438 0.498096
2821 1 0.614976 0.97477 0.499754
2831 1 0.617976 0.960575 0.497668
67 1 0.640865 0.978091 0.49755
3178 1 0.650895 0.971052 0.496751
5482 1 0.636477 0.96318 0.496323
5577 1 0.64862 0.957509 0.49714
3111 1 0.673269 0.967808 0.495019
2968 1 0.66058 0.963987 0.497205
2905 1 0.665906 0.977041 0.496618
3369 1 0.678739 0.97803 0.496378
2984 1 0.682767 0.958858 0.494755
2978 1 0.690895 0.969273 0.495023
2916 1 0.716373 0.977274 0.494729
3190 1 0.710659 0.964519 0.494384
3319 1 0.702823 0.974806 0.494463
2920 1 0.7262 0.967752 0.494918
3049 1 0.739897 0.975253 0.497776
2907 1 0.753117 0.957986 0.497141
5490 1 0.740051 0.961305 0.498275
5578 1 0.754479 0.969057 0.497658
5506 1 0.767353 0.975059 0.495996
5430 1 0.772312 0.960264 0.497656
5500 1 0.803545 0.962572 0.499201
5294 1 0.795703 0.974833 0.499381
5279 1 0.787508 0.96317 0.496979
2931 1 0.81745 0.958584 0.499761
5158 1 0.829715 0.956768 0.499566
5526 1 0.883969 0.974211 0.49933
5240 1 0.878806 0.957275 0.499529
5509 1 0.870266 0.965792 0.499795
5379 1 0.904199 0.97444 0.499648
2932 1 0.905966 0.960436 0.499343
2923 1 0.893469 0.964563 0.498933
2861 1 0.917177 0.971529 0.49956
215 1 0.928384 0.964958 0.499836
2747 1 0.954642 0.958099 0.499498
5579 1 0.946781 0.968615 0.49796
5169 1 0.938283 0.976136 0.498005
2926 1 0.962391 0.969447 0.498661
2999 1 0.97594 0.967367 0.499407
5250 1 0.990814 0.967109 0.497882
2998 1 0.578447 0.982985 0.499626
3029 1 0.593639 0.98952 0.499196
5466 1 0.60378 0.980781 0.498697
5570 1 0.600567 0.997875 0.499473
2906 1 0.626059 0.984234 0.499146
3240 1 0.613373 0.99165 0.499495
2915 1 0.645105 0.996835 0.498842
3106 1 0.669883 0.98858 0.498707
2918 1 0.655343 0.988757 0.497789
3328 1 0.69456 0.984349 0.493918
2973 1 0.683787 0.991223 0.495813
3103 1 0.708529 0.987879 0.494571
2919 1 0.721131 0.989191 0.495759
2970 1 0.730862 0.98288 0.496285
3191 1 0.740573 0.996619 0.49778
2975 1 0.75152 0.985572 0.497368
5431 1 0.764622 0.988753 0.499482
5229 1 0.781833 0.97903 0.498412
5417 1 0.773422 0.998542 0.499346
3001 1 0.841636 0.995713 0.499973
5353 1 0.854886 0.997479 0.499399
5456 1 0.872603 0.979216 0.499348
5288 1 0.881509 0.99078 0.499744
3120 1 0.904429 0.99611 0.499398
5437 1 0.896631 0.98417 0.499828
3051 1 0.923287 0.996132 0.499882
5167 1 0.926746 0.981188 0.498359
2662 1 0.955392 0.985603 0.49719
5305 1 0.938939 0.991218 0.498195
2732 1 0.969821 0.982707 0.497125
5381 1 0.96516 0.996995 0.496165
3072 1 0.998197 0.980112 0.497318
5529 1 0.984394 0.978991 0.496359
3005 1 0.991074 0.990228 0.498864
3009 1 0.978981 0.99482 0.497703
4411 1 0.514275 0.515385 0.503001
4139 1 0.508939 0.501308 0.501833
4415 1 0.524981 0.505116 0.504473
4432 1 0.530778 0.516514 0.502575
4342 1 0.542869 0.510608 0.502176
4080 1 0.536766 0.500503 0.502776
1538 1 0.55905 0.50006 0.50222
4354 1 0.553487 0.515578 0.502859
1239 1 0.576216 0.501067 0.500044
4206 1 0.567713 0.509912 0.501193
4778 1 0.62463 0.500017 0.500466
4427 1 0.676249 0.502109 0.500299
4434 1 0.692128 0.509707 0.50071
3947 1 0.70841 0.506426 0.500266
4141 1 0.734531 0.504853 0.500319
4442 1 0.732946 0.51791 0.500437
4170 1 0.749931 0.502778 0.50319
4146 1 0.745833 0.513945 0.501941
4106 1 0.75887 0.513826 0.503364
4320 1 0.767366 0.501828 0.50354
1471 1 0.778022 0.509127 0.503548
4534 1 0.770959 0.520974 0.50356
4403 1 0.791219 0.509846 0.505348
4102 1 0.80151 0.509948 0.503337
4306 1 0.812701 0.518745 0.502424
4116 1 0.81637 0.506111 0.501757
4458 1 0.830154 0.513636 0.501022
3945 1 0.86372 0.508518 0.501326
3976 1 0.882042 0.503591 0.500757
4199 1 0.874411 0.520485 0.500394
1165 1 0.504353 0.521748 0.501917
4565 1 0.511469 0.535694 0.502442
1675 1 0.522478 0.526573 0.502016
1812 1 0.531424 0.536466 0.502876
4138 1 0.540108 0.526902 0.502733
1174 1 0.542081 0.542201 0.501543
4087 1 0.552554 0.539256 0.500314
4921 1 0.552703 0.527043 0.501653
4851 1 0.602364 0.536549 0.500476
4288 1 0.625334 0.534591 0.500335
4082 1 0.658315 0.530943 0.5009
4506 1 0.677879 0.538424 0.501176
4091 1 0.695458 0.538309 0.500126
4232 1 0.70711 0.530771 0.500182
4219 1 0.735768 0.534972 0.500619
4355 1 0.721582 0.526292 0.50162
4028 1 0.744604 0.528567 0.501088
4240 1 0.757699 0.527267 0.502338
4186 1 0.752041 0.541732 0.502124
3960 1 0.776378 0.532223 0.502858
4377 1 0.76562 0.542606 0.502361
4584 1 0.786803 0.522912 0.504358
4731 1 0.800028 0.523839 0.504479
4514 1 0.790037 0.535559 0.504156
4324 1 0.801022 0.538518 0.503004
4254 1 0.81305 0.53039 0.503261
4380 1 0.8246 0.538426 0.503639
4235 1 0.828855 0.526713 0.501219
4664 1 0.885693 0.53591 0.500248
1308 1 0.503197 0.545728 0.501932
1456 1 0.517862 0.546565 0.503135
1377 1 0.511077 0.558484 0.502014
4423 1 0.530368 0.551508 0.502255
4341 1 0.541271 0.556467 0.500967
4567 1 0.522785 0.562459 0.500719
4282 1 0.555534 0.551279 0.500591
4062 1 0.552191 0.564032 0.500088
4646 1 0.578096 0.553177 0.500179
4289 1 0.607045 0.554121 0.500463
4507 1 0.590917 0.553769 0.50147
4078 1 0.613454 0.565037 0.501331
4928 1 0.622863 0.5565 0.501944
4714 1 0.630993 0.547244 0.501249
4430 1 0.643346 0.553562 0.502098
4227 1 0.653636 0.54385 0.50108
4503 1 0.667433 0.544339 0.501311
4437 1 0.658399 0.556144 0.502922
4077 1 0.670205 0.559832 0.503345
4375 1 0.689722 0.548247 0.501489
4508 1 0.692009 0.565036 0.503139
4151 1 0.67893 0.55363 0.501492
4221 1 0.699628 0.556186 0.500546
4513 1 0.712262 0.561542 0.501281
4576 1 0.721672 0.54867 0.50096
4023 1 0.732641 0.555543 0.50291
3932 1 0.723982 0.562345 0.502078
3798 1 0.74051 0.547245 0.501468
4428 1 0.758632 0.555343 0.502245
4323 1 0.746137 0.560562 0.501515
4602 1 0.771622 0.553893 0.503646
4179 1 0.784139 0.54771 0.503904
4936 1 0.797354 0.553592 0.503373
4385 1 0.783306 0.558893 0.50391
4368 1 0.813552 0.546255 0.502925
4464 1 0.820939 0.559122 0.501413
4580 1 0.808625 0.560331 0.503341
4523 1 0.833304 0.555078 0.500666
4248 1 0.880357 0.549423 0.501072
1615 1 0.896563 0.544135 0.501003
4326 1 0.891897 0.559388 0.500112
1742 1 0.502194 0.569804 0.50139
4640 1 0.517237 0.57251 0.500699
1235 1 0.516262 0.584932 0.501915
1382 1 0.536849 0.571477 0.501235
2027 1 0.541661 0.58658 0.500729
1607 1 0.527757 0.579677 0.502322
4645 1 0.548037 0.576484 0.500577
4573 1 0.561942 0.574697 0.500831
1680 1 0.573474 0.579492 0.50002
4429 1 0.586898 0.578026 0.500184
4419 1 0.573652 0.567506 0.500496
1256 1 0.597966 0.567223 0.501128
4635 1 0.599084 0.583669 0.502877
5056 1 0.609513 0.575286 0.502543
4284 1 0.624373 0.569316 0.502781
4572 1 0.619972 0.579938 0.502659
4361 1 0.636689 0.565478 0.504403
4855 1 0.634696 0.578186 0.504224
4711 1 0.648983 0.570648 0.503014
4214 1 0.644649 0.583915 0.505915
4086 1 0.65965 0.567185 0.504407
4285 1 0.669972 0.57343 0.505604
4502 1 0.658954 0.582924 0.5054
4098 1 0.68078 0.568844 0.503627
3803 1 0.685672 0.580449 0.504219
4290 1 0.675535 0.584002 0.5043
4532 1 0.695804 0.575671 0.502027
4024 1 0.705008 0.58688 0.501803
4383 1 0.707577 0.573065 0.503474
4090 1 0.719298 0.574822 0.503231
4022 1 0.729519 0.580018 0.503558
4137 1 0.736324 0.567523 0.502924
4453 1 0.753903 0.570091 0.503323
4733 1 0.743629 0.577436 0.502312
4669 1 0.756036 0.583044 0.502692
4407 1 0.766951 0.578518 0.502017
4582 1 0.780229 0.570185 0.50346
4318 1 0.765574 0.565843 0.503181
4666 1 0.776743 0.58595 0.503625
4597 1 0.790069 0.580306 0.503407
4314 1 0.793697 0.567009 0.503058
4103 1 0.814898 0.574616 0.502732
4381 1 0.804627 0.578338 0.504044
4605 1 0.819176 0.585108 0.501925
4533 1 0.8313 0.572345 0.501269
4529 1 0.843772 0.567168 0.501008
4593 1 0.83567 0.583984 0.501571
4783 1 0.50338 0.608197 0.500531
1328 1 0.506078 0.593565 0.501418
4636 1 0.520216 0.598032 0.502362
1677 1 0.533827 0.606399 0.5023
4643 1 0.532953 0.5926 0.502307
1533 1 0.553981 0.588848 0.501994
4498 1 0.560197 0.602518 0.50295
4490 1 0.546531 0.599319 0.502528
4631 1 0.56955 0.591875 0.502059
4424 1 0.583962 0.592571 0.501248
4220 1 0.586449 0.607991 0.50244
5212 1 0.597383 0.596641 0.502557
5071 1 0.609145 0.603208 0.504314
4637 1 0.613167 0.590216 0.503409
4785 1 0.621396 0.605013 0.504504
4713 1 0.629139 0.592351 0.504517
4161 1 0.640012 0.594981 0.505949
4360 1 0.634543 0.606368 0.505627
4510 1 0.649717 0.607365 0.506369
4358 1 0.653851 0.594852 0.506912
4084 1 0.669103 0.595984 0.506248
4443 1 0.665549 0.607172 0.506479
4218 1 0.682126 0.595629 0.504742
4371 1 0.683795 0.606768 0.505628
4299 1 0.692395 0.592241 0.503241
4791 1 0.695569 0.605866 0.503974
4363 1 0.705497 0.597835 0.503334
4162 1 0.718056 0.587671 0.502191
4860 1 0.732104 0.593677 0.502943
4722 1 0.728232 0.606054 0.502418
4515 1 0.718077 0.600477 0.50174
4447 1 0.743257 0.590261 0.503135
4667 1 0.754363 0.597159 0.502174
4100 1 0.741783 0.607112 0.502732
4656 1 0.777717 0.597542 0.502923
4234 1 0.764959 0.595092 0.503832
4244 1 0.794576 0.593829 0.503611
4439 1 0.802023 0.60802 0.501592
4798 1 0.78618 0.608005 0.502827
4589 1 0.806931 0.593518 0.501748
4654 1 0.818173 0.600306 0.501316
4604 1 0.83313 0.607183 0.500978
4813 1 0.830098 0.595256 0.50206
4189 1 0.845153 0.595443 0.501231
4200 1 0.850966 0.605634 0.500663
4187 1 0.877314 0.608129 0.500178
4679 1 0.893879 0.606931 0.501455
4279 1 0.513804 0.625532 0.502372
4493 1 0.51731 0.609965 0.502249
1749 1 0.542544 0.616318 0.50189
1455 1 0.528824 0.621623 0.502074
4351 1 0.54006 0.629054 0.5021
4281 1 0.557242 0.613791 0.502443
4703 1 0.552919 0.626108 0.502138
4420 1 0.571988 0.608864 0.503304
4072 1 0.566987 0.622678 0.501773
4716 1 0.580986 0.618613 0.502825
4359 1 0.592846 0.624816 0.502263
4574 1 0.600162 0.613718 0.503286
5067 1 0.60476 0.62859 0.50276
5130 1 0.61355 0.61634 0.505264
4717 1 0.627501 0.618572 0.506153
5146 1 0.619195 0.628892 0.505594
4786 1 0.641805 0.618508 0.507182
4367 1 0.650455 0.627925 0.507548
4300 1 0.635891 0.629071 0.50755
4704 1 0.657321 0.616933 0.506036
5000 1 0.664047 0.625401 0.506784
4372 1 0.69228 0.619878 0.50424
5069 1 0.676664 0.621082 0.504967
4859 1 0.709345 0.609838 0.502056
4294 1 0.706778 0.622122 0.501434
4225 1 0.719731 0.62974 0.501302
4292 1 0.718465 0.617706 0.503551
4239 1 0.731938 0.619044 0.502608
4379 1 0.746148 0.622151 0.502742
4655 1 0.758405 0.624334 0.502337
4592 1 0.759248 0.611953 0.503107
4579 1 0.770496 0.608758 0.504137
4581 1 0.777416 0.62108 0.501827
4440 1 0.791308 0.619117 0.502635
4261 1 0.817558 0.614737 0.501598
4402 1 0.84329 0.617615 0.500109
1405 1 0.842652 0.630276 0.500065
4528 1 0.859217 0.627946 0.500196
4678 1 0.870291 0.61859 0.500516
4558 1 0.503201 0.636474 0.502312
4705 1 0.511195 0.649074 0.501503
4343 1 0.519401 0.636812 0.502183
4777 1 0.532531 0.64278 0.500994
4780 1 0.552786 0.637889 0.502177
4633 1 0.543756 0.647334 0.500789
4068 1 0.558341 0.650323 0.500551
4632 1 0.567747 0.636602 0.503276
1610 1 0.57778 0.631853 0.501328
4369 1 0.573994 0.648432 0.501383
4869 1 0.589023 0.640424 0.501563
4710 1 0.603167 0.641738 0.502617
4917 1 0.616443 0.640946 0.504376
5221 1 0.63082 0.642415 0.505395
4789 1 0.64619 0.641472 0.507211
4305 1 0.66198 0.636135 0.505847
4287 1 0.662057 0.649142 0.505633
4583 1 0.673736 0.648364 0.504272
5005 1 0.686884 0.633421 0.503126
5205 1 0.675148 0.635422 0.504087
4577 1 0.687945 0.645958 0.5037
4365 1 0.700745 0.634651 0.502573
5227 1 0.712353 0.641056 0.502624
4931 1 0.700947 0.651692 0.503898
4511 1 0.732841 0.633054 0.503006
4438 1 0.728062 0.64496 0.502819
5147 1 0.741361 0.648469 0.502756
5004 1 0.757906 0.640678 0.502559
4378 1 0.746709 0.635627 0.502131
4175 1 0.75386 0.651866 0.50309
4863 1 0.770939 0.631796 0.501423
4658 1 0.77856 0.647042 0.502953
4872 1 0.78349 0.63297 0.501838
4085 1 0.795737 0.634735 0.501255
4652 1 0.790654 0.650318 0.501928
4661 1 0.834056 0.650282 0.500189
4485 1 0.502824 0.657787 0.501256
4925 1 0.51295 0.665146 0.500821
4418 1 0.523017 0.653665 0.501664
4926 1 0.535584 0.658106 0.500369
4914 1 0.547168 0.658543 0.500508
4845 1 0.562531 0.661189 0.500727
4504 1 0.586579 0.653806 0.501479
5052 1 0.600207 0.65413 0.502075
5072 1 0.603503 0.666566 0.501937
4770 1 0.610799 0.657844 0.503364
4986 1 0.623417 0.65285 0.504295
4370 1 0.619666 0.666614 0.50314
4782 1 0.642442 0.65321 0.504574
4934 1 0.632291 0.663049 0.503502
4848 1 0.648114 0.666093 0.502705
4016 1 0.655206 0.656054 0.504791
4213 1 0.660597 0.670143 0.504071
5127 1 0.666757 0.660221 0.503775
4793 1 0.673418 0.668612 0.503871
4857 1 0.682239 0.659774 0.503715
5208 1 0.695692 0.665871 0.502594
5283 1 0.709198 0.66383 0.503137
4992 1 0.717967 0.65432 0.504862
4712 1 0.719229 0.668096 0.503598
5424 1 0.733046 0.65779 0.502144
5078 1 0.735989 0.671486 0.503596
5008 1 0.749576 0.663839 0.503633
4230 1 0.765164 0.652327 0.503817
4938 1 0.776206 0.671394 0.502118
5225 1 0.765093 0.664107 0.503603
4726 1 0.777154 0.658969 0.501329
4585 1 0.799943 0.659531 0.501831
4222 1 0.785932 0.664992 0.502036
4727 1 0.804855 0.672918 0.501848
4587 1 0.811447 0.661032 0.5008
4819 1 0.825802 0.662952 0.500575
4505 1 0.840024 0.670514 0.500745
4815 1 0.85458 0.671786 0.500824
4916 1 0.594639 0.676506 0.501207
4775 1 0.603228 0.686425 0.500836
4781 1 0.591234 0.689052 0.5005
4364 1 0.609825 0.676715 0.501553
5265 1 0.62457 0.679094 0.502331
4990 1 0.615356 0.687334 0.502603
5215 1 0.623795 0.695322 0.500053
4228 1 0.633896 0.688461 0.500611
4771 1 0.648056 0.692881 0.501551
4366 1 0.63981 0.677118 0.502845
5135 1 0.652176 0.68094 0.501859
4441 1 0.66465 0.685034 0.501659
5198 1 0.686884 0.67553 0.504322
5216 1 0.677487 0.682995 0.503405
5153 1 0.693407 0.684404 0.5015
5343 1 0.704987 0.688654 0.504524
4862 1 0.703414 0.674956 0.50279
5408 1 0.714288 0.679567 0.502805
5499 1 0.718376 0.691315 0.502477
4728 1 0.727342 0.679697 0.503165
5152 1 0.733982 0.689354 0.502167
4998 1 0.758057 0.674956 0.503323
5007 1 0.74673 0.678534 0.503188
5006 1 0.74651 0.692876 0.503463
4993 1 0.774473 0.684074 0.501197
5429 1 0.761326 0.686373 0.501697
4027 1 0.788995 0.676862 0.501661
4991 1 0.796902 0.686419 0.502104
4586 1 0.785396 0.691297 0.502723
5075 1 0.817257 0.675291 0.501796
5145 1 0.809228 0.68566 0.503982
4650 1 0.820202 0.693983 0.501306
4933 1 0.833041 0.695217 0.501178
5211 1 0.830671 0.682474 0.501436
4446 1 0.8477 0.683507 0.500793
4450 1 0.858466 0.688132 0.501549
4242 1 0.868797 0.678084 0.501455
4394 1 0.87012 0.691769 0.502591
4953 1 0.882426 0.688407 0.50147
4730 1 0.895792 0.684417 0.500694
4644 1 0.652167 0.704606 0.501665
4224 1 0.644752 0.715642 0.500069
4918 1 0.638236 0.702966 0.500262
5219 1 0.662055 0.697075 0.503406
5129 1 0.666286 0.707357 0.501782
5118 1 0.66004 0.717331 0.500218
5139 1 0.685801 0.696559 0.503055
4940 1 0.674153 0.69724 0.501433
4725 1 0.67996 0.709302 0.501821
5120 1 0.693012 0.714072 0.501685
4795 1 0.696543 0.700821 0.502507
5197 1 0.710253 0.703332 0.501833
5480 1 0.735804 0.701247 0.501724
5090 1 0.724194 0.703098 0.502342
5281 1 0.734939 0.715869 0.502531
5411 1 0.721577 0.714377 0.500816
5061 1 0.746786 0.708619 0.502673
5347 1 0.759372 0.697967 0.502169
5068 1 0.761901 0.711178 0.501228
4787 1 0.772395 0.698297 0.502152
5414 1 0.77575 0.711571 0.501811
4790 1 0.80332 0.714671 0.502055
4735 1 0.80278 0.698629 0.502295
5552 1 0.787781 0.703731 0.502771
4739 1 0.813076 0.705196 0.502266
4856 1 0.844986 0.695874 0.501057
5487 1 0.838617 0.706509 0.501016
4302 1 0.827242 0.70933 0.501971
4861 1 0.863172 0.70235 0.502412
4595 1 0.862738 0.714912 0.500603
4804 1 0.851518 0.704623 0.501731
5076 1 0.878132 0.702316 0.501609
4674 1 0.8767 0.714079 0.501049
4459 1 0.893164 0.700491 0.500623
4809 1 0.902572 0.709919 0.50004
4624 1 0.649108 0.730476 0.500509
4996 1 0.6629 0.729744 0.50074
5150 1 0.673733 0.736248 0.500144
5192 1 0.674303 0.72275 0.501708
4929 1 0.686562 0.725242 0.500109
5200 1 0.705888 0.718134 0.500912
5276 1 0.717055 0.727211 0.500286
5351 1 0.698598 0.727786 0.501594
5553 1 0.728925 0.725591 0.500968
5483 1 0.742707 0.730132 0.502918
5349 1 0.754601 0.724813 0.502679
5268 1 0.780272 0.723047 0.501659
5342 1 0.765926 0.728071 0.500363
5124 1 0.77477 0.736358 0.502135
5156 1 0.802984 0.729484 0.502204
4160 1 0.79105 0.735032 0.502107
5348 1 0.792054 0.718765 0.502279
5074 1 0.814831 0.717528 0.502063
5159 1 0.817686 0.729708 0.502922
5220 1 0.828594 0.723831 0.502316
4941 1 0.837237 0.735543 0.50096
4788 1 0.865329 0.73774 0.501605
4937 1 0.851091 0.728608 0.501665
4939 1 0.889268 0.730614 0.500928
5157 1 0.875315 0.727477 0.501144
5298 1 0.903452 0.732545 0.502412
4885 1 0.914368 0.737717 0.501187
4672 1 0.916 0.725794 0.500315
5082 1 0.64593 0.743195 0.50047
5338 1 0.667079 0.746486 0.50117
5203 1 0.694044 0.745323 0.500563
5420 1 0.716719 0.739733 0.500214
5077 1 0.760419 0.739671 0.501889
5149 1 0.740985 0.748966 0.500018
5335 1 0.768547 0.748505 0.500836
4805 1 0.780408 0.760621 0.501186
5137 1 0.781923 0.747445 0.502447
5001 1 0.796594 0.749166 0.502734
4732 1 0.805415 0.740848 0.503489
5009 1 0.824682 0.739787 0.502341
5199 1 0.815699 0.747591 0.503963
5217 1 0.809738 0.759064 0.503471
5359 1 0.823958 0.757197 0.503038
4871 1 0.846339 0.758636 0.503485
5151 1 0.833171 0.749891 0.502143
5485 1 0.858769 0.748776 0.502675
5070 1 0.848841 0.74212 0.50048
5380 1 0.88659 0.742467 0.503002
5014 1 0.873703 0.756675 0.502401
5017 1 0.884614 0.755972 0.503112
5012 1 0.875497 0.744663 0.503809
5088 1 0.89711 0.748854 0.503044
4875 1 0.912676 0.750246 0.503997
4444 1 0.909166 0.760776 0.503697
4801 1 0.931844 0.748284 0.500923
4864 1 0.923172 0.756634 0.504385
5173 1 0.942468 0.742142 0.500663
4945 1 0.955494 0.752623 0.500547
4935 1 0.944248 0.758788 0.501099
5155 1 0.753812 0.76876 0.500836
5416 1 0.764337 0.781382 0.500733
5365 1 0.777106 0.773518 0.502934
5206 1 0.767339 0.763735 0.500943
5302 1 0.792994 0.761017 0.502456
5209 1 0.791984 0.773859 0.503096
4858 1 0.822628 0.770037 0.502765
5060 1 0.80498 0.774454 0.501905
2845 1 0.816939 0.782056 0.502073
5493 1 0.842647 0.776707 0.503113
4932 1 0.836669 0.766018 0.501749
4724 1 0.86548 0.77577 0.504291
4812 1 0.853114 0.770436 0.501144
5143 1 0.863358 0.761833 0.504597
5024 1 0.886749 0.772971 0.504581
5015 1 0.875881 0.768265 0.502779
4849 1 0.894832 0.761501 0.503323
4792 1 0.903804 0.771833 0.504599
4882 1 0.920554 0.770403 0.504539
4827 1 0.932374 0.763362 0.503279
4796 1 0.939236 0.773333 0.503503
5019 1 0.95263 0.772241 0.502199
5174 1 0.979809 0.768943 0.500686
5510 1 0.752485 0.796993 0.500642
5419 1 0.75097 0.785112 0.500253
5002 1 0.778025 0.787326 0.501981
5364 1 0.793537 0.786813 0.50093
5422 1 0.803629 0.804244 0.5009
4943 1 0.790853 0.803332 0.500282
5140 1 0.806287 0.790516 0.501422
4671 1 0.818309 0.795317 0.501421
5021 1 0.843992 0.791744 0.502686
4867 1 0.833881 0.80024 0.501323
5439 1 0.831294 0.783656 0.504022
5177 1 0.8663 0.794589 0.503652
5301 1 0.853795 0.800392 0.502577
5218 1 0.857727 0.784854 0.501784
5299 1 0.888567 0.787635 0.504626
5235 1 0.877903 0.784186 0.503319
4802 1 0.878646 0.799257 0.503227
4947 1 0.895693 0.797045 0.505156
4745 1 0.910176 0.798714 0.504656
1968 1 0.903738 0.785459 0.505142
4958 1 0.931648 0.78501 0.50414
4955 1 0.915122 0.783546 0.504847
5003 1 0.926671 0.795576 0.504386
5311 1 0.952474 0.801537 0.501976
4738 1 0.940763 0.800737 0.502846
4820 1 0.94398 0.785593 0.504241
4734 1 0.958199 0.787255 0.501347
4954 1 0.968018 0.803953 0.503936
4963 1 0.972537 0.789741 0.500698
2453 1 0.999851 0.787321 0.500311
2312 1 0.98418 0.782781 0.501517
4967 1 0.990666 0.796077 0.503022
5356 1 0.78147 0.812294 0.500058
5231 1 0.796859 0.814998 0.501255
5292 1 0.786892 0.825894 0.501433
5517 1 0.814751 0.809194 0.501253
5222 1 0.80959 0.820665 0.501795
5023 1 0.84564 0.824355 0.501352
4951 1 0.844038 0.81014 0.502126
4803 1 0.827651 0.811889 0.501103
5314 1 0.834437 0.824214 0.500899
5011 1 0.86415 0.807187 0.503336
5144 1 0.856098 0.817798 0.500198
4946 1 0.867838 0.821186 0.502763
4748 1 0.889424 0.823038 0.503432
5013 1 0.877746 0.812367 0.50279
4868 1 0.88872 0.808 0.503355
5246 1 0.902883 0.82518 0.503985
5160 1 0.902419 0.812369 0.505357
4878 1 0.916559 0.810188 0.504359
5108 1 0.931467 0.81029 0.503326
5388 1 0.919468 0.821803 0.50393
5039 1 0.93561 0.825111 0.503975
4960 1 0.9455 0.816188 0.503736
2666 1 0.960912 0.81617 0.504898
4969 1 0.975958 0.818868 0.504863
4886 1 0.98979 0.817892 0.50387
5035 1 0.981394 0.807133 0.50503
5360 1 0.737099 0.845863 0.50178
5291 1 0.724991 0.836076 0.500217
5084 1 0.747288 0.839872 0.500284
2933 1 0.763507 0.835204 0.502276
5089 1 0.778255 0.83842 0.501578
5555 1 0.774134 0.826404 0.500245
5081 1 0.790954 0.841698 0.501689
5412 1 0.798136 0.82867 0.501216
5083 1 0.807621 0.834829 0.501727
4729 1 0.821725 0.827807 0.501075
5238 1 0.824521 0.838369 0.500619
5096 1 0.837614 0.835226 0.501433
5242 1 0.851098 0.837658 0.500824
5029 1 0.862535 0.833298 0.500843
4952 1 0.871862 0.841582 0.501267
4870 1 0.877642 0.82793 0.502879
5036 1 0.883779 0.838447 0.503138
5387 1 0.896631 0.839579 0.504187
5092 1 0.912044 0.833212 0.505018
2032 1 0.907771 0.844645 0.505266
5030 1 0.924735 0.835413 0.505677
5165 1 0.921396 0.847095 0.505533
5034 1 0.93454 0.846616 0.506858
5095 1 0.952027 0.827546 0.503442
86 1 0.942299 0.836636 0.505516
4824 1 0.956048 0.842869 0.505145
2033 1 0.968006 0.842772 0.504022
2039 1 0.965645 0.829855 0.504981
4899 1 0.977896 0.831105 0.505848
5170 1 0.996455 0.844228 0.504156
2038 1 0.979845 0.844607 0.504125
5031 1 0.990653 0.831394 0.504523
5438 1 0.75431 0.862831 0.500924
4866 1 0.757041 0.849279 0.501605
5148 1 0.742367 0.857366 0.501334
4888 1 0.770351 0.850415 0.501134
5369 1 0.769371 0.863341 0.500893
4740 1 0.782225 0.852281 0.50122
5022 1 0.782893 0.866979 0.50138
5450 1 0.793601 0.855675 0.501549
2311 1 0.799732 0.867712 0.501806
5234 1 0.820748 0.851889 0.501323
5300 1 0.8054 0.8503 0.501116
5172 1 0.839086 0.865657 0.50059
4518 1 0.834899 0.849557 0.500628
5307 1 0.847673 0.850509 0.500239
5306 1 0.85388 0.860522 0.500618
5308 1 0.868745 0.856859 0.502244
5166 1 0.883682 0.851906 0.502175
5247 1 0.879352 0.865569 0.501599
5304 1 0.890467 0.866972 0.502968
5163 1 0.896118 0.853317 0.503499
84 1 0.90559 0.857459 0.505449
5389 1 0.930135 0.86182 0.50524
5175 1 0.917112 0.858718 0.504857
5028 1 0.920263 0.86936 0.506566
4892 1 0.942736 0.864044 0.506323
2049 1 0.948208 0.851546 0.505889
2523 1 0.954365 0.869046 0.505765
5103 1 0.958321 0.855561 0.505182
2673 1 0.972972 0.855814 0.504087
5040 1 0.967068 0.867064 0.504278
5244 1 0.987522 0.85588 0.502878
2133 1 0.979637 0.86896 0.504554
5085 1 0.760008 0.877781 0.500966
5352 1 0.745525 0.874076 0.500178
4949 1 0.774009 0.879078 0.50177
5377 1 0.793685 0.878214 0.501294
5448 1 0.78559 0.891097 0.500503
5444 1 0.819627 0.875411 0.500296
5243 1 0.807139 0.883547 0.500504
5230 1 0.823972 0.887692 0.500233
5232 1 0.843628 0.882099 0.500303
5382 1 0.830516 0.877707 0.500924
2242 1 0.860034 0.884764 0.501262
5237 1 0.864642 0.869908 0.501408
2452 1 0.872107 0.886025 0.501452
4895 1 0.884636 0.881811 0.501116
5026 1 0.90668 0.870954 0.50412
4893 1 0.899917 0.880305 0.504328
5449 1 0.912709 0.884692 0.504938
5313 1 0.925326 0.881063 0.505864
2596 1 0.939232 0.876863 0.506056
2601 1 0.9517 0.88243 0.506292
2527 1 0.964238 0.883067 0.504665
2749 1 0.995141 0.872343 0.502955
2313 1 0.979125 0.881212 0.50377
2178 1 0.992023 0.887818 0.503467
2899 1 0.646776 0.909295 0.500152
4942 1 0.771456 0.89254 0.500442
5102 1 0.800577 0.895117 0.500233
5236 1 0.813464 0.89682 0.501714
5025 1 0.805589 0.908758 0.500783
5385 1 0.821759 0.90734 0.502345
5357 1 0.834271 0.891798 0.500893
5100 1 0.859094 0.901179 0.50231
5316 1 0.848592 0.895403 0.501391
5454 1 0.850191 0.90923 0.501693
5368 1 0.884021 0.898451 0.500166
5312 1 0.872344 0.897677 0.500043
5527 1 0.872001 0.913019 0.500803
2598 1 0.895218 0.891373 0.501301
5457 1 0.89758 0.905164 0.502645
2522 1 0.905182 0.89403 0.505791
2524 1 0.932141 0.906965 0.503329
5447 1 0.917591 0.896897 0.505185
5176 1 0.915057 0.911724 0.504154
5168 1 0.929307 0.893432 0.504599
2382 1 0.94316 0.892641 0.505236
5032 1 0.946169 0.906057 0.504723
5374 1 0.956408 0.895176 0.504684
5106 1 0.977624 0.908333 0.503716
5245 1 0.964141 0.905537 0.505385
2457 1 0.969819 0.89493 0.50422
5105 1 0.981426 0.894525 0.503611
149 1 0.993102 0.900666 0.501907
2967 1 0.559204 0.93352 0.500135
2950 1 0.584385 0.93131 0.500623
2826 1 0.572812 0.931337 0.500406
5489 1 0.802166 0.926466 0.50052
5583 1 0.78818 0.926626 0.500042
5593 1 0.825407 0.919051 0.50046
5297 1 0.818858 0.93231 0.501691
5317 1 0.840065 0.918556 0.501925
5309 1 0.8466 0.93205 0.500452
5373 1 0.857828 0.920696 0.500972
5435 1 0.874776 0.929985 0.50029
5455 1 0.887716 0.927568 0.500251
5440 1 0.912128 0.921788 0.50126
2665 1 0.901535 0.93265 0.500553
5390 1 0.929734 0.920327 0.502637
5453 1 0.92467 0.929991 0.501669
2525 1 0.943345 0.920991 0.503482
2743 1 0.936641 0.933243 0.501836
5459 1 0.953686 0.913517 0.50409
5451 1 0.952315 0.93375 0.503308
2597 1 0.964659 0.931439 0.503094
5104 1 0.962019 0.920026 0.503749
5094 1 0.976401 0.920673 0.502524
2531 1 0.988342 0.915357 0.501399
2599 1 0.986317 0.926967 0.501272
3019 1 0.503521 0.944421 0.501026
5537 1 0.509086 0.956243 0.504107
3014 1 0.517823 0.943766 0.500309
2817 1 0.531692 0.943854 0.50095
5434 1 0.792568 0.93886 0.500291
5226 1 0.805864 0.949029 0.500897
5428 1 0.836902 0.946821 0.501316
2927 1 0.831548 0.935761 0.501432
5224 1 0.85017 0.945977 0.501485
5433 1 0.903135 0.945959 0.500024
2843 1 0.891843 0.953484 0.500358
2670 1 0.920485 0.953469 0.500309
5315 1 0.944404 0.945598 0.500669
2744 1 0.969439 0.952863 0.500777
4968 1 0.976246 0.938132 0.500447
5310 1 0.961427 0.943783 0.50161
5358 1 0.982272 0.95195 0.500192
2879 1 0.518146 0.968887 0.504464
2885 1 0.50498 0.971804 0.505901
2807 1 0.523194 0.956738 0.502658
3307 1 0.530135 0.974959 0.503613
3016 1 0.536488 0.959287 0.500746
2835 1 0.55657 0.971636 0.500284
2913 1 0.544004 0.968394 0.503085
3177 1 0.567413 0.976165 0.500051
2846 1 0.814346 0.97053 0.500177
5154 1 0.844218 0.969441 0.500924
5582 1 0.828857 0.969274 0.501195
3059 1 0.836344 0.977921 0.50044
3063 1 0.841632 0.957528 0.500477
2731 1 0.85938 0.973017 0.500544
2912 1 0.855103 0.960262 0.500886
3064 1 0.937514 0.95852 0.500427
3152 1 0.511916 0.98313 0.505753
3304 1 0.510772 0.996288 0.505289
208 1 0.535172 0.9896 0.503109
3087 1 0.522667 0.986731 0.504261
3013 1 0.544944 0.980938 0.502889
3395 1 0.557274 0.986114 0.501293
2896 1 0.549335 0.995217 0.501684
2806 1 0.568383 0.992667 0.500761
2952 1 0.58228 0.995945 0.500626
2852 1 0.631071 0.997184 0.500461
5564 1 0.781008 0.990161 0.500383
5161 1 0.795328 0.98819 0.501393
3062 1 0.804578 0.999978 0.500462
2981 1 0.815934 0.994435 0.500144
3187 1 0.807637 0.982781 0.501084
5290 1 0.819975 0.982455 0.500858
3274 1 0.830648 0.989822 0.500993
3053 1 0.848886 0.984903 0.500646
2910 1 0.859805 0.985012 0.501336
3263 1 0.869026 0.993736 0.5004
5027 1 0.912625 0.988304 0.500652
ITEM: TIMESTEP
400000
ITEM: NUMBER OF ATOMS
5600
ITEM: BOX BOUNDS pp pp pp
-3.6434999999999995e+01 3.6434999999999995e+01
-3.6061297813583998e+01 3.6061297813583998e+01
-6.2460000000000008e+01 6.2460000000000008e+01
ITEM: ATOMS id type xs ys zs
2755 1 0.0024951 0.0118648 0.498157
14 1 0.0171765 0.00608837 0.498595
141 1 0.0337012 0.00412673 0.500498
2675 1 0.0610365 0.000216564 0.497987
2384 1 0.0536711 0.0107102 0.499648
12 1 0.0848906 0.00576578 0.498802
2669 1 0.19421 0.017274 0.50002
233 1 0.103801 0.043478 0.499596
147 1 0.12829 0.0403105 0.498258
2385 1 0.115414 0.0403096 0.498036
2174 1 0.122597 0.0276132 0.49881
21 1 0.140511 0.0366068 0.4994
76 1 0.135943 0.0263087 0.499017
2317 1 0.152679 0.0376853 0.498727
158 1 0.163809 0.0296827 0.499068
2705 1 0.171834 0.0424435 0.497107
89 1 0.153095 0.0235933 0.498882
90 1 0.185668 0.0379715 0.497696
2473 1 0.194279 0.0282402 0.498883
2388 1 0.180176 0.0268598 0.49897
2543 1 0.211017 0.0320484 0.49888
245 1 0.198782 0.0439421 0.498739
2415 1 0.234542 0.036536 0.50022
2251 1 0.224761 0.0258389 0.499713
2571 1 0.450601 0.0308995 0.500218
2469 1 0.0388427 0.0555012 0.499886
179 1 0.101616 0.0610008 0.500309
2688 1 0.0896474 0.0626235 0.500421
2474 1 0.113353 0.053023 0.498102
2763 1 0.127154 0.0521485 0.497572
2674 1 0.144272 0.0477239 0.498024
2323 1 0.139363 0.0609792 0.497113
2455 1 0.152478 0.0607742 0.497774
2540 1 0.15878 0.0496162 0.498232
2609 1 0.164376 0.0644463 0.495987
250 1 0.191814 0.0524824 0.496217
2618 1 0.173183 0.0556513 0.497046
2106 1 0.207117 0.0582178 0.496754
2061 1 0.211481 0.0447657 0.496795
2333 1 0.224829 0.0416296 0.498906
2537 1 0.220882 0.0577928 0.496334
185 1 0.233551 0.0527684 0.496677
2760 1 0.242879 0.0447285 0.49867
113 1 0.244874 0.0590267 0.495809
331 1 0.254639 0.0549237 0.49846
174 1 0.278375 0.0548949 0.499544
87 1 0.03857 0.0784284 0.49919
228 1 0.0226718 0.0848335 0.498873
572 1 0.0319633 0.0688932 0.499569
146 1 0.0592063 0.0812572 0.499185
5525 1 0.0492371 0.0702958 0.500009
24 1 0.0832697 0.07641 0.499448
2610 1 0.121669 0.0824814 0.49633
163 1 0.110635 0.0701909 0.49731
2397 1 0.124991 0.0654029 0.497272
26 1 0.133489 0.0750186 0.496706
247 1 0.148073 0.0745315 0.496716
182 1 0.158689 0.0772378 0.496245
2623 1 0.172274 0.0784658 0.496562
42 1 0.190802 0.0662063 0.496865
2676 1 0.178088 0.0674025 0.496538
2700 1 0.184979 0.0784984 0.496436
173 1 0.196634 0.0831302 0.495986
35 1 0.207112 0.0706782 0.496614
110 1 0.212023 0.0835495 0.496329
2314 1 0.219593 0.0707109 0.496196
171 1 0.228046 0.0833728 0.49562
246 1 0.233186 0.0680807 0.496043
2544 1 0.243206 0.0785124 0.495697
2535 1 0.253228 0.0702486 0.496907
122 1 0.264059 0.0752348 0.49879
2636 1 0.263441 0.0865836 0.496139
2686 1 0.276982 0.080119 0.498885
2555 1 0.27535 0.067735 0.499055
2632 1 0.286889 0.0644948 0.499322
160 1 0.0219319 0.10067 0.49934
145 1 0.0393635 0.10358 0.497919
227 1 0.0343087 0.0920737 0.499252
428 1 0.0479324 0.088408 0.498433
3148 1 0.0609359 0.0987491 0.497184
3568 1 0.0504275 0.104908 0.496993
221 1 0.0677547 0.0886751 0.498256
358 1 0.0793778 0.0895428 0.49947
33 1 0.0715148 0.101785 0.498107
29 1 0.0835349 0.104086 0.497619
2548 1 0.092983 0.0909253 0.499465
2678 1 0.0945827 0.105838 0.498702
175 1 0.108308 0.0878051 0.497331
162 1 0.107809 0.103593 0.498903
2467 1 0.119418 0.0970936 0.496619
2324 1 0.138665 0.0871696 0.496507
36 1 0.130341 0.0939327 0.495787
2754 1 0.145659 0.099394 0.495419
2617 1 0.13567 0.10862 0.496566
2392 1 0.155884 0.0890814 0.495799
19 1 0.168659 0.0906027 0.495551
2761 1 0.160331 0.103164 0.496134
2542 1 0.173522 0.106112 0.496635
2325 1 0.180705 0.0932405 0.496109
2751 1 0.193399 0.0985662 0.496792
43 1 0.184413 0.10678 0.496772
180 1 0.208803 0.1013 0.496368
382 1 0.221618 0.0950947 0.494973
30 1 0.235465 0.0979382 0.493281
2321 1 0.250717 0.0876976 0.493995
34 1 0.254691 0.102741 0.493764
105 1 0.277314 0.0927667 0.498112
2687 1 0.26664 0.10166 0.495014
2417 1 0.290055 0.103639 0.499033
170 1 0.301983 0.102995 0.498802
453 1 0.332073 0.0977215 0.500312
306 1 0.34487 0.108582 0.499732
357 1 0.0215903 0.126065 0.498977
2740 1 0.010726 0.114235 0.500304
5 1 0.0101651 0.126495 0.499587
143 1 0.0387234 0.118412 0.497603
148 1 0.0268762 0.113246 0.498994
94 1 0.0531605 0.118896 0.496392
362 1 0.0658069 0.114325 0.496494
151 1 0.0473534 0.128556 0.497253
82 1 0.0806847 0.130944 0.498946
701 1 0.0784512 0.115815 0.497696
234 1 0.0668339 0.125502 0.49683
2696 1 0.101444 0.117557 0.500109
2682 1 0.0890648 0.122144 0.498245
2764 1 0.113303 0.117005 0.498115
106 1 0.1268 0.121851 0.496626
2694 1 0.123199 0.108461 0.497146
2616 1 0.116763 0.130145 0.497891
37 1 0.150345 0.112631 0.495696
238 1 0.138914 0.121032 0.49622
379 1 0.150967 0.126259 0.495909
241 1 0.162279 0.118967 0.49582
252 1 0.176617 0.119116 0.49686
38 1 0.189553 0.120869 0.497396
711 1 0.21685 0.108278 0.494512
25 1 0.201902 0.113424 0.495759
168 1 0.200347 0.128226 0.495296
505 1 0.212309 0.122296 0.494922
502 1 0.230599 0.109432 0.493113
2622 1 0.236893 0.12262 0.492477
2759 1 0.225883 0.119874 0.492386
107 1 0.243764 0.110014 0.493806
2685 1 0.255965 0.11495 0.494715
104 1 0.249719 0.125537 0.494393
295 1 0.277174 0.108539 0.495458
254 1 0.266609 0.118151 0.493771
300 1 0.277133 0.120846 0.496987
2628 1 0.293122 0.116248 0.498088
445 1 0.288368 0.128679 0.496772
2767 1 0.300133 0.129262 0.497376
45 1 0.318589 0.111355 0.498659
786 1 0.307024 0.114881 0.497059
311 1 0.326271 0.122102 0.498617
244 1 0.312966 0.12528 0.49681
325 1 0.336856 0.119596 0.498367
459 1 0.331282 0.110618 0.500918
377 1 0.365487 0.120415 0.500022
243 1 0.349446 0.121149 0.499501
385 1 0.378587 0.12265 0.500366
3054 1 0.0212095 0.137648 0.498151
3564 1 0.0135529 0.150516 0.498893
3208 1 0.0107337 0.138563 0.499372
771 1 0.0333905 0.131366 0.497041
351 1 0.0285842 0.145919 0.497034
214 1 0.0414448 0.140848 0.497366
493 1 0.0537384 0.144579 0.497088
637 1 0.0588539 0.134261 0.495734
3281 1 0.0685308 0.143152 0.49685
91 1 0.0842481 0.14688 0.497721
2758 1 0.0929243 0.139146 0.499327
98 1 0.101318 0.129459 0.498679
2752 1 0.105238 0.143112 0.498421
27 1 0.117167 0.145188 0.497082
2702 1 0.12789 0.134013 0.497239
2748 1 0.129229 0.148204 0.497612
503 1 0.140413 0.135136 0.497279
240 1 0.141331 0.148476 0.496751
231 1 0.153572 0.139808 0.495899
32 1 0.168578 0.132635 0.49621
299 1 0.165756 0.146124 0.497208
108 1 0.19296 0.138698 0.494963
74 1 0.182062 0.132191 0.495899
2753 1 0.177956 0.146587 0.49641
578 1 0.188377 0.149908 0.49696
510 1 0.208589 0.140144 0.495186
381 1 0.201268 0.150116 0.496075
172 1 0.220889 0.132527 0.493367
361 1 0.236155 0.137986 0.492804
302 1 0.226828 0.149491 0.493741
312 1 0.240367 0.149659 0.494362
236 1 0.250251 0.140013 0.495356
519 1 0.264847 0.132557 0.495538
371 1 0.277093 0.133465 0.496631
305 1 0.263071 0.144402 0.497859
504 1 0.27833 0.144484 0.497947
440 1 0.29359 0.139864 0.497165
251 1 0.289648 0.150843 0.498625
375 1 0.304656 0.152333 0.49722
368 1 0.307129 0.139265 0.496987
308 1 0.319073 0.136771 0.497336
540 1 0.332044 0.133804 0.497912
588 1 0.34451 0.135657 0.498539
531 1 0.342715 0.148638 0.497044
448 1 0.327128 0.147077 0.497173
378 1 0.359466 0.133034 0.499088
186 1 0.358503 0.147041 0.498234
655 1 0.371745 0.143737 0.498852
196 1 0.372476 0.133399 0.499368
2642 1 0.384239 0.137708 0.498639
589 1 0.390751 0.148282 0.49796
430 1 0.0126901 0.167211 0.498774
5600 1 0.0404773 0.154216 0.497332
284 1 0.0247375 0.161098 0.497391
356 1 0.0355957 0.168369 0.497322
354 1 0.0491126 0.165128 0.497358
3637 1 0.0580015 0.155801 0.498054
352 1 0.0630602 0.169549 0.498316
426 1 0.0708922 0.156925 0.497015
641 1 0.0756073 0.167182 0.497264
3500 1 0.0860809 0.159406 0.496422
166 1 0.101168 0.164675 0.497926
424 1 0.096023 0.151566 0.498099
296 1 0.109347 0.173681 0.497047
235 1 0.088215 0.170179 0.495801
213 1 0.11282 0.157381 0.497708
2772 1 0.126701 0.160236 0.497061
2690 1 0.122261 0.171259 0.496341
225 1 0.140274 0.160385 0.496344
3359 1 0.144173 0.173472 0.49838
28 1 0.167716 0.158714 0.497039
639 1 0.152657 0.154503 0.497383
20 1 0.156534 0.167475 0.49777
22 1 0.18012 0.160452 0.4982
783 1 0.172653 0.171051 0.499515
303 1 0.194804 0.161133 0.497095
433 1 0.214889 0.152891 0.495105
585 1 0.207591 0.164854 0.49614
773 1 0.235719 0.163118 0.495877
583 1 0.223042 0.167536 0.494721
291 1 0.253172 0.156184 0.496865
95 1 0.259752 0.171626 0.496605
315 1 0.24745 0.168634 0.49578
374 1 0.266018 0.155752 0.498182
394 1 0.2772 0.157472 0.49757
177 1 0.271702 0.170572 0.497833
523 1 0.284069 0.167185 0.49863
2774 1 0.29625 0.161165 0.497265
249 1 0.293493 0.173052 0.497857
536 1 0.317214 0.153132 0.496132
2626 1 0.308791 0.164239 0.496798
595 1 0.323771 0.163625 0.497335
313 1 0.336092 0.158618 0.495848
439 1 0.344428 0.169721 0.496812
337 1 0.353233 0.160309 0.496258
268 1 0.36792 0.15863 0.496741
533 1 0.360611 0.173337 0.495649
256 1 0.37406 0.170176 0.496133
49 1 0.379129 0.15488 0.497025
253 1 0.386339 0.165816 0.497383
400 1 0.404902 0.170157 0.499378
670 1 0.397585 0.159696 0.498748
458 1 0.407236 0.151862 0.499385
3154 1 0.478045 0.169386 0.500352
702 1 0.00607441 0.180104 0.498162
777 1 0.0212138 0.190355 0.498303
3220 1 0.0240488 0.178313 0.497585
2870 1 0.0344237 0.194105 0.497055
92 1 0.0393033 0.182717 0.497873
223 1 0.0479952 0.192136 0.498248
224 1 0.0619439 0.185449 0.497449
289 1 0.0516093 0.17797 0.498333
993 1 0.0846328 0.180531 0.498351
2541 1 0.0722397 0.17877 0.499466
491 1 0.0743561 0.190199 0.498913
3289 1 0.0973207 0.179587 0.496171
717 1 0.0991929 0.195334 0.497531
496 1 0.0867043 0.192688 0.498301
165 1 0.110576 0.186921 0.496583
309 1 0.121529 0.185988 0.497205
1196 1 0.134229 0.190767 0.499352
778 1 0.131903 0.177312 0.498531
360 1 0.147762 0.188298 0.499792
438 1 0.188725 0.173663 0.49706
157 1 0.184491 0.184634 0.499672
525 1 0.20112 0.177862 0.498054
657 1 0.200691 0.189721 0.49853
513 1 0.212538 0.176645 0.497037
574 1 0.21298 0.192259 0.498224
435 1 0.233127 0.176833 0.495553
373 1 0.224193 0.186497 0.497852
293 1 0.248204 0.182309 0.494356
665 1 0.260956 0.182586 0.494531
366 1 0.239516 0.190278 0.495603
434 1 0.271804 0.187592 0.496569
509 1 0.28231 0.181641 0.497835
463 1 0.296533 0.193027 0.497742
369 1 0.302308 0.179267 0.497352
659 1 0.316082 0.177496 0.497375
322 1 0.311931 0.192307 0.496317
370 1 0.331829 0.181706 0.496228
388 1 0.347603 0.185633 0.495925
437 1 0.360398 0.19026 0.49487
734 1 0.371863 0.185557 0.495718
414 1 0.382651 0.180395 0.495703
517 1 0.387976 0.19177 0.496189
264 1 0.395334 0.178214 0.49645
3155 1 0.40135 0.190039 0.496627
397 1 0.411834 0.184073 0.497096
273 1 0.425414 0.186911 0.498162
133 1 0.437342 0.185134 0.499771
466 1 0.449737 0.184895 0.49863
324 1 0.461435 0.181723 0.498671
187 1 0.472685 0.183346 0.498588
396 1 0.483538 0.182096 0.49899
342 1 0.492947 0.18966 0.499556
3638 1 0.00746039 0.197961 0.497265
3075 1 0.0134371 0.207792 0.500032
222 1 0.025432 0.206856 0.497656
216 1 0.0374908 0.208408 0.497938
563 1 0.0614066 0.214957 0.499595
425 1 0.0511901 0.205898 0.497075
852 1 0.0617385 0.201158 0.497469
636 1 0.045782 0.217128 0.499495
3567 1 0.0734756 0.202013 0.499288
507 1 0.0786888 0.212742 0.499955
643 1 0.104217 0.205872 0.498502
1061 1 0.0884183 0.206258 0.499972
427 1 0.0974518 0.216562 0.499889
3702 1 0.114936 0.199742 0.498013
633 1 0.111753 0.215083 0.498582
567 1 0.126704 0.202313 0.498297
575 1 0.124339 0.215373 0.499762
286 1 0.135298 0.210455 0.49984
97 1 0.141664 0.199589 0.499194
707 1 0.149967 0.21257 0.498996
290 1 0.159864 0.200805 0.49898
432 1 0.1654 0.216219 0.499416
599 1 0.187879 0.199132 0.498827
512 1 0.177057 0.20872 0.499831
288 1 0.189705 0.213622 0.499613
719 1 0.206615 0.204907 0.497728
443 1 0.219173 0.207926 0.498638
446 1 0.229806 0.196979 0.4968
736 1 0.235199 0.214338 0.49687
534 1 0.254967 0.195105 0.495294
436 1 0.244865 0.205338 0.496418
269 1 0.260978 0.207265 0.497479
516 1 0.252548 0.215277 0.495437
807 1 0.271721 0.198984 0.497568
518 1 0.27366 0.212397 0.497876
741 1 0.283635 0.199932 0.498149
524 1 0.298665 0.206712 0.497407
651 1 0.285536 0.214442 0.495914
591 1 0.312481 0.205839 0.495686
390 1 0.337499 0.195291 0.49701
664 1 0.326874 0.201958 0.495044
403 1 0.342025 0.20816 0.495422
393 1 0.331662 0.214378 0.493128
455 1 0.353033 0.202081 0.49623
606 1 0.364295 0.203965 0.494869
558 1 0.364592 0.215136 0.493673
617 1 0.375082 0.197364 0.495762
613 1 0.383895 0.207816 0.49675
501 1 0.397794 0.202228 0.497036
265 1 0.40768 0.214399 0.495887
470 1 0.394238 0.215008 0.496596
47 1 0.433887 0.198881 0.497707
546 1 0.415791 0.198702 0.496167
447 1 0.426686 0.213913 0.495823
476 1 0.445963 0.197619 0.498786
5541 1 0.454076 0.207651 0.496297
465 1 0.439121 0.210056 0.496382
398 1 0.477015 0.199458 0.496764
399 1 0.463052 0.197923 0.497624
461 1 0.46507 0.213658 0.494977
416 1 0.477678 0.21181 0.496463
278 1 0.494637 0.212837 0.499363
412 1 0.488595 0.201706 0.497772
911 1 0.00501924 0.218351 0.50039
913 1 0.0182646 0.218899 0.499692
3499 1 0.0300025 0.223556 0.499784
999 1 0.102303 0.227415 0.500585
161 1 0.0871075 0.223615 0.499965
159 1 0.128474 0.227864 0.500869
733 1 0.115092 0.227317 0.498861
451 1 0.157785 0.230144 0.499491
297 1 0.170418 0.230055 0.500814
365 1 0.181592 0.223679 0.499559
441 1 0.191265 0.231386 0.499236
292 1 0.205461 0.235875 0.498521
520 1 0.206243 0.21973 0.497696
319 1 0.219166 0.236858 0.49837
376 1 0.224514 0.222156 0.498071
715 1 0.232394 0.232595 0.497141
569 1 0.243884 0.224153 0.497026
587 1 0.255259 0.22826 0.497332
237 1 0.244496 0.236053 0.497486
661 1 0.267569 0.223371 0.496727
805 1 0.279901 0.22963 0.496645
640 1 0.268295 0.237992 0.495991
532 1 0.293554 0.222979 0.49608
528 1 0.293892 0.237341 0.494122
449 1 0.320706 0.221339 0.494713
545 1 0.306209 0.217946 0.496328
395 1 0.309209 0.231483 0.494532
598 1 0.327404 0.23129 0.493827
380 1 0.344655 0.228057 0.49375
479 1 0.353152 0.219012 0.493797
590 1 0.36506 0.231242 0.494248
468 1 0.376868 0.218409 0.494535
271 1 0.378359 0.23663 0.492324
462 1 0.404414 0.22723 0.49369
553 1 0.391472 0.226793 0.494295
696 1 0.417245 0.224103 0.494704
335 1 0.413027 0.237083 0.494238
609 1 0.427923 0.234774 0.494875
537 1 0.43715 0.226815 0.495976
407 1 0.451515 0.220058 0.494505
684 1 0.446915 0.232389 0.493665
3297 1 0.462274 0.229255 0.495527
2946 1 0.472916 0.223312 0.496093
409 1 0.477001 0.237202 0.495424
274 1 0.48528 0.223317 0.498722
689 1 0.491174 0.235691 0.497283
638 1 0.142192 0.249211 0.501217
498 1 0.153531 0.26034 0.498235
294 1 0.167464 0.241848 0.499786
646 1 0.154518 0.244187 0.498973
645 1 0.168095 0.254579 0.498569
597 1 0.179601 0.239984 0.499499
718 1 0.181772 0.252472 0.499108
714 1 0.1948 0.245394 0.498013
873 1 0.192406 0.25823 0.497732
508 1 0.20937 0.249054 0.498896
845 1 0.229329 0.245476 0.496247
431 1 0.221613 0.254384 0.497271
444 1 0.242612 0.249611 0.496038
963 1 0.256394 0.244448 0.495679
780 1 0.263342 0.258838 0.496038
744 1 0.272186 0.252143 0.495205
464 1 0.281897 0.241504 0.495114
600 1 0.303466 0.246794 0.492953
660 1 0.288468 0.25469 0.493299
527 1 0.320192 0.24252 0.493633
298 1 0.312783 0.255189 0.494633
326 1 0.337078 0.241083 0.494499
454 1 0.327682 0.256027 0.494158
316 1 0.343005 0.253326 0.49403
386 1 0.353593 0.240957 0.492997
833 1 0.35474 0.255094 0.493316
680 1 0.367794 0.244771 0.494226
620 1 0.385568 0.248513 0.493525
815 1 0.37141 0.258208 0.493096
697 1 0.394571 0.23858 0.492876
417 1 0.405677 0.244507 0.492676
893 1 0.411759 0.256977 0.492134
611 1 0.397442 0.25842 0.491905
346 1 0.420035 0.249354 0.493445
384 1 0.432358 0.256803 0.493101
556 1 0.438754 0.244476 0.493493
332 1 0.450852 0.24715 0.493892
685 1 0.445564 0.259028 0.493629
328 1 0.462449 0.240781 0.495358
483 1 0.470186 0.249774 0.495342
387 1 0.458556 0.257573 0.495097
700 1 0.494348 0.251169 0.49786
751 1 0.485679 0.245163 0.494819
408 1 0.483144 0.257249 0.49529
3915 1 0.139603 0.276955 0.49875
1199 1 0.155226 0.276666 0.498577
921 1 0.164312 0.268825 0.49687
1137 1 0.175077 0.265107 0.498369
927 1 0.188071 0.270332 0.49736
857 1 0.17344 0.280252 0.496627
722 1 0.202416 0.261578 0.497462
1001 1 0.205135 0.273126 0.496431
727 1 0.212883 0.264147 0.497318
1132 1 0.222466 0.269233 0.494074
809 1 0.236669 0.28018 0.496202
713 1 0.234811 0.266773 0.496345
649 1 0.222847 0.281013 0.49516
31 1 0.24877 0.265482 0.494689
1206 1 0.249198 0.280468 0.496113
663 1 0.278373 0.265667 0.494324
450 1 0.262211 0.269985 0.496206
803 1 0.272056 0.277668 0.495908
415 1 0.300946 0.262332 0.493785
452 1 0.291354 0.267861 0.493901
596 1 0.300419 0.283248 0.496178
1160 1 0.286318 0.278988 0.49554
668 1 0.306986 0.274995 0.493595
731 1 0.314309 0.266508 0.494317
887 1 0.31807 0.282288 0.494342
750 1 0.324513 0.27238 0.493517
683 1 0.337217 0.270146 0.493802
529 1 0.333696 0.281456 0.495077
672 1 0.347703 0.280988 0.493403
543 1 0.34941 0.267252 0.49258
895 1 0.361311 0.270297 0.49257
548 1 0.377754 0.280839 0.491284
612 1 0.385524 0.267508 0.493233
621 1 0.397453 0.276973 0.492053
748 1 0.41143 0.269269 0.491273
538 1 0.424663 0.265811 0.491041
487 1 0.424877 0.278765 0.491288
3292 1 0.436491 0.27061 0.491023
473 1 0.449494 0.270603 0.492527
2871 1 0.469254 0.266134 0.495295
554 1 0.462198 0.276278 0.495102
472 1 0.475537 0.28185 0.496663
3310 1 0.493463 0.263543 0.49639
629 1 0.490511 0.278554 0.498284
551 1 0.481557 0.271016 0.497769
982 1 0.138798 0.303889 0.499432
648 1 0.146145 0.291878 0.498299
990 1 0.154249 0.301799 0.497085
644 1 0.159422 0.287959 0.496739
716 1 0.170245 0.296598 0.496312
923 1 0.186406 0.285384 0.494963
985 1 0.184562 0.30035 0.495316
594 1 0.198589 0.28539 0.49519
1060 1 0.198283 0.301302 0.496194
515 1 0.212559 0.28537 0.494154
506 1 0.211398 0.303344 0.494455
730 1 0.234616 0.293013 0.496073
1225 1 0.221345 0.294423 0.495493
725 1 0.260982 0.283355 0.495536
885 1 0.249996 0.293159 0.496507
677 1 0.262869 0.295056 0.495972
577 1 0.274374 0.290493 0.496153
511 1 0.289419 0.293563 0.495833
671 1 0.301277 0.300117 0.495542
952 1 0.310029 0.292092 0.49494
317 1 0.323795 0.294311 0.49329
530 1 0.33842 0.293007 0.49387
898 1 0.337449 0.305433 0.493008
827 1 0.354132 0.291187 0.492479
1252 1 0.364866 0.28422 0.492061
907 1 0.350821 0.304142 0.491225
616 1 0.389802 0.292743 0.491946
614 1 0.372759 0.294778 0.491711
690 1 0.401366 0.292437 0.491327
607 1 0.410292 0.30124 0.492528
832 1 0.410985 0.283851 0.490237
625 1 0.422663 0.290779 0.491556
1043 1 0.434814 0.282771 0.493143
630 1 0.434583 0.298359 0.49227
826 1 0.448035 0.293352 0.494735
695 1 0.450373 0.282592 0.494613
552 1 0.463389 0.293875 0.495068
3503 1 0.49824 0.29015 0.498636
1119 1 0.485786 0.290397 0.496719
615 1 0.478842 0.302056 0.495647
410 1 0.491502 0.301221 0.497423
918 1 0.125674 0.307824 0.500404
3843 1 0.143314 0.325091 0.498221
851 1 0.148965 0.313181 0.497384
785 1 0.155641 0.323777 0.497934
1203 1 0.162604 0.312408 0.496506
1009 1 0.17075 0.327947 0.49717
735 1 0.176989 0.313037 0.496753
782 1 0.190936 0.312095 0.496576
1201 1 0.199574 0.319638 0.496309
945 1 0.211098 0.317032 0.495807
855 1 0.222823 0.325997 0.497854
787 1 0.225994 0.307683 0.496441
743 1 0.235067 0.318566 0.497162
810 1 0.241467 0.305926 0.498541
862 1 0.257394 0.306158 0.497794
535 1 0.248298 0.323609 0.498261
812 1 0.259289 0.319657 0.496988
675 1 0.273179 0.304507 0.495256
789 1 0.270196 0.318153 0.49534
863 1 0.280937 0.323874 0.495166
526 1 0.288107 0.310193 0.495631
961 1 0.299805 0.311004 0.494528
460 1 0.30379 0.323958 0.493639
742 1 0.325437 0.305735 0.49349
732 1 0.312431 0.306766 0.493821
1027 1 0.317629 0.317334 0.492771
822 1 0.331827 0.317511 0.492616
959 1 0.343973 0.315324 0.491973
593 1 0.365478 0.305421 0.490728
837 1 0.358105 0.320698 0.491671
763 1 0.374441 0.3152 0.491224
1186 1 0.382791 0.305062 0.490555
1042 1 0.383688 0.318996 0.489249
761 1 0.372536 0.326479 0.489744
541 1 0.395892 0.305117 0.490956
752 1 0.396618 0.320767 0.49095
474 1 0.408516 0.313065 0.491101
1381 1 0.423428 0.308954 0.491175
623 1 0.41746 0.321441 0.490861
969 1 0.43268 0.319788 0.492511
557 1 0.445617 0.309955 0.492708
1034 1 0.444647 0.326201 0.493595
755 1 0.457132 0.306274 0.494874
686 1 0.468769 0.310093 0.495021
694 1 0.459879 0.319923 0.494217
765 1 0.476281 0.319607 0.49626
547 1 0.487185 0.313367 0.498456
1153 1 0.123513 0.340574 0.498959
806 1 0.136857 0.336603 0.498727
922 1 0.149856 0.336332 0.497953
881 1 0.161886 0.334266 0.49803
739 1 0.172732 0.341979 0.495475
796 1 0.183562 0.326847 0.496008
864 1 0.185045 0.340268 0.496791
792 1 0.194841 0.334059 0.496005
1204 1 0.210734 0.331162 0.496406
258 1 0.235267 0.331267 0.498213
869 1 0.218163 0.3424 0.499125
790 1 0.230387 0.342081 0.498143
647 1 0.260232 0.337571 0.496617
953 1 0.246654 0.337784 0.499359
682 1 0.272246 0.332808 0.49561
823 1 0.272755 0.345765 0.49566
943 1 0.292824 0.325766 0.49533
658 1 0.283222 0.337662 0.496122
522 1 0.295739 0.338576 0.495271
521 1 0.318092 0.327456 0.49342
835 1 0.307691 0.336493 0.493553
747 1 0.320707 0.33772 0.490837
894 1 0.331189 0.330433 0.490405
605 1 0.344202 0.329178 0.491374
544 1 0.334405 0.342111 0.490303
819 1 0.34758 0.344417 0.489926
603 1 0.359379 0.333517 0.489913
829 1 0.361035 0.347514 0.489674
484 1 0.384852 0.332109 0.489706
975 1 0.371786 0.33959 0.488544
754 1 0.382897 0.345864 0.488731
1091 1 0.40592 0.326909 0.49065
687 1 0.39548 0.336126 0.489947
1026 1 0.407281 0.340551 0.490797
1188 1 0.41752 0.334469 0.490721
764 1 0.429431 0.330525 0.49315
965 1 0.424079 0.344375 0.492778
1037 1 0.440332 0.341067 0.493277
3724 1 0.454911 0.337749 0.495388
973 1 0.465755 0.329248 0.496941
824 1 0.469761 0.344204 0.496517
971 1 0.489269 0.328295 0.498162
1031 1 0.480538 0.335369 0.495529
1166 1 0.493532 0.344428 0.499891
1067 1 0.122445 0.357568 0.499275
3919 1 0.117419 0.367852 0.501214
1274 1 0.1385 0.360319 0.497036
1127 1 0.13571 0.34878 0.498638
4060 1 0.149812 0.347766 0.498646
712 1 0.163189 0.347834 0.497168
791 1 0.153124 0.360601 0.496425
1207 1 0.167732 0.359146 0.497048
514 1 0.192702 0.352841 0.496513
581 1 0.179679 0.355495 0.496775
737 1 0.192185 0.366977 0.498517
579 1 0.205476 0.346716 0.497105
580 1 0.207313 0.360766 0.498949
586 1 0.22273 0.366819 0.498447
652 1 0.229694 0.355939 0.498265
539 1 0.25934 0.350031 0.497405
584 1 0.247597 0.363344 0.498043
954 1 0.241876 0.349789 0.498122
674 1 0.263916 0.365818 0.497393
601 1 0.272794 0.357627 0.496169
1092 1 0.284087 0.350414 0.494659
456 1 0.298367 0.355056 0.495584
604 1 0.287477 0.362158 0.495767
1017 1 0.300316 0.367935 0.495538
757 1 0.325067 0.352455 0.492336
542 1 0.313049 0.363395 0.496077
817 1 0.312413 0.349112 0.493781
1452 1 0.325958 0.365674 0.49451
678 1 0.338762 0.355645 0.490707
1019 1 0.354522 0.359711 0.490386
691 1 0.366105 0.360862 0.490288
903 1 0.383147 0.359561 0.490362
960 1 0.391599 0.368855 0.490974
964 1 0.396153 0.347346 0.489914
1095 1 0.40032 0.360504 0.489214
1082 1 0.411779 0.353081 0.490653
1106 1 0.423153 0.358642 0.493695
759 1 0.413254 0.364461 0.49119
1580 1 0.437276 0.367119 0.496204
1093 1 0.441079 0.356337 0.494011
1032 1 0.453655 0.350306 0.495989
972 1 0.451992 0.362528 0.496653
3362 1 0.468013 0.358636 0.497212
1168 1 0.481636 0.352279 0.498097
3922 1 0.479285 0.364685 0.497085
1107 1 0.494228 0.358279 0.498483
1341 1 0.132795 0.372154 0.498949
1263 1 0.146897 0.372054 0.497271
1359 1 0.137553 0.388981 0.499652
1296 1 0.150387 0.385733 0.498966
1077 1 0.162031 0.3716 0.496485
858 1 0.167711 0.383629 0.497474
729 1 0.17838 0.385004 0.49643
788 1 0.190135 0.38191 0.497526
871 1 0.176363 0.371604 0.497108
890 1 0.202572 0.374516 0.49769
879 1 0.19996 0.39204 0.4981
662 1 0.214655 0.376122 0.497835
859 1 0.211178 0.390111 0.495913
650 1 0.236827 0.369537 0.497482
950 1 0.226087 0.381025 0.497892
653 1 0.238762 0.385569 0.497768
866 1 0.251073 0.376232 0.496872
592 1 0.254319 0.389386 0.496633
745 1 0.266252 0.392456 0.496716
1088 1 0.263927 0.379621 0.496242
884 1 0.276765 0.383564 0.497806
814 1 0.277676 0.370329 0.496483
610 1 0.288227 0.376983 0.496215
813 1 0.303949 0.381059 0.495788
740 1 0.292218 0.390411 0.497032
888 1 0.316088 0.375313 0.494604
962 1 0.326867 0.380929 0.493539
892 1 0.335873 0.370222 0.49121
756 1 0.342403 0.386187 0.490979
1157 1 0.350457 0.371868 0.490864
1154 1 0.364263 0.375987 0.489675
482 1 0.359633 0.387747 0.491411
1029 1 0.377125 0.374227 0.490647
825 1 0.37645 0.387157 0.492579
836 1 0.389978 0.382452 0.491879
1086 1 0.402944 0.376182 0.491027
1370 1 0.403511 0.3903 0.491543
1167 1 0.412699 0.38285 0.492287
1021 1 0.424599 0.373649 0.493571
4345 1 0.424009 0.389432 0.495661
1305 1 0.436024 0.379791 0.495119
820 1 0.448106 0.373803 0.496684
1102 1 0.446508 0.386755 0.497409
1100 1 0.472928 0.3736 0.49882
897 1 0.459517 0.372658 0.497394
1243 1 0.461322 0.385646 0.499161
1260 1 0.474288 0.38764 0.498604
1238 1 0.490727 0.369406 0.499779
831 1 0.485792 0.38064 0.499493
1427 1 0.109231 0.402783 0.500168
808 1 0.156591 0.410729 0.500878
1333 1 0.17332 0.398592 0.497857
1222 1 0.159852 0.393986 0.497373
994 1 0.182578 0.410189 0.498574
1062 1 0.187069 0.398074 0.496733
728 1 0.203818 0.404588 0.497319
1135 1 0.224914 0.395262 0.496578
877 1 0.217336 0.406025 0.497434
798 1 0.233456 0.412893 0.497236
1024 1 0.237249 0.401075 0.496686
1089 1 0.254446 0.40447 0.496952
799 1 0.279781 0.398139 0.49613
1652 1 0.272159 0.406374 0.498588
746 1 0.292519 0.404298 0.496195
882 1 0.32021 0.391434 0.494489
886 1 0.303811 0.397056 0.496344
738 1 0.310152 0.413399 0.497053
955 1 0.320084 0.405196 0.494989
602 1 0.331913 0.396191 0.49262
818 1 0.34295 0.403126 0.493645
949 1 0.332604 0.409687 0.49558
889 1 0.365652 0.398575 0.492284
667 1 0.353045 0.399231 0.493094
688 1 0.362357 0.410548 0.494955
951 1 0.376218 0.402919 0.494885
608 1 0.385218 0.396034 0.493047
840 1 0.390786 0.410838 0.494974
1521 1 0.396095 0.399298 0.493381
1443 1 0.40438 0.409055 0.497328
1322 1 0.412323 0.398054 0.494552
956 1 0.427779 0.402298 0.500016
1090 1 0.417495 0.408677 0.498313
904 1 0.436127 0.39365 0.49727
1310 1 0.440602 0.408381 0.499787
4353 1 0.451689 0.401123 0.499424
1451 1 0.464463 0.396626 0.499354
4337 1 0.00753113 0.433208 0.500607
4268 1 0.0332869 0.422914 0.499439
3920 1 0.0443551 0.426148 0.499182
1128 1 0.0577577 0.428691 0.498487
1013 1 0.170396 0.413612 0.49983
726 1 0.170009 0.43118 0.500314
925 1 0.196018 0.413975 0.497829
793 1 0.181716 0.42178 0.49872
878 1 0.21122 0.43409 0.500086
880 1 0.209062 0.418495 0.497665
804 1 0.198171 0.427072 0.498835
1151 1 0.239744 0.427128 0.496693
802 1 0.222931 0.420991 0.498909
1016 1 0.253552 0.418136 0.498111
944 1 0.281151 0.41197 0.497178
874 1 0.279456 0.429639 0.497992
1507 1 0.262255 0.42971 0.498367
1298 1 0.269288 0.41877 0.497427
1223 1 0.299268 0.415486 0.495295
1085 1 0.289157 0.422529 0.496881
676 1 0.297864 0.432646 0.496288
957 1 0.313244 0.426344 0.497064
942 1 0.327037 0.420131 0.496144
627 1 0.337613 0.426501 0.497399
749 1 0.350359 0.413462 0.49477
1438 1 0.351779 0.425691 0.496292
1232 1 0.365452 0.424721 0.495998
966 1 0.376954 0.415745 0.496606
891 1 0.378784 0.427633 0.498365
828 1 0.392293 0.421938 0.497413
1448 1 0.404842 0.420286 0.49796
1169 1 0.395244 0.434297 0.499371
1237 1 0.414884 0.426006 0.499513
1583 1 0.425616 0.417645 0.498826
1259 1 0.450479 0.417242 0.500532
1273 1 0.000873286 0.445304 0.497691
1006 1 0.013782 0.443145 0.498416
4197 1 0.021179 0.451679 0.496863
1216 1 0.025079 0.434627 0.499535
1410 1 0.0387112 0.438296 0.497896
1422 1 0.0325989 0.448043 0.497001
784 1 0.0496342 0.438905 0.498226
1424 1 0.0474859 0.449847 0.496644
1332 1 0.0598372 0.451536 0.49721
1126 1 0.0658489 0.440143 0.498163
1500 1 0.0748659 0.451547 0.500172
1068 1 0.108151 0.442335 0.499603
1087 1 0.129101 0.45361 0.500284
1071 1 0.11368 0.451808 0.497861
935 1 0.163769 0.444415 0.49956
946 1 0.212924 0.45132 0.499312
666 1 0.198092 0.442458 0.499286
1015 1 0.23849 0.441748 0.499258
1010 1 0.224918 0.43544 0.498759
1642 1 0.252012 0.437369 0.49799
654 1 0.251394 0.449958 0.497285
797 1 0.290175 0.443787 0.498687
1020 1 0.308728 0.43682 0.497152
1023 1 0.30473 0.449587 0.498176
958 1 0.321135 0.448536 0.49872
760 1 0.324422 0.435489 0.497811
758 1 0.333884 0.453885 0.499504
1083 1 0.337711 0.439369 0.499808
1233 1 0.35698 0.437781 0.499003
1301 1 0.348496 0.450587 0.499568
1236 1 0.384938 0.439725 0.499155
875 1 0.371856 0.438329 0.49819
4338 1 0.00714517 0.45788 0.49691
930 1 0.0145337 0.468839 0.495514
1283 1 0.0380678 0.460405 0.496361
1344 1 0.0324173 0.475328 0.495629
4182 1 0.0256319 0.465553 0.496748
1208 1 0.0534608 0.464758 0.496866
1147 1 0.0440788 0.472945 0.497176
1354 1 0.080565 0.469882 0.499375
1484 1 0.0664954 0.464073 0.498658
1279 1 0.109412 0.469128 0.497077
1418 1 0.0944567 0.47199 0.498512
1715 1 0.102797 0.457221 0.49898
936 1 0.0870446 0.458371 0.497835
1576 1 0.121897 0.478809 0.497381
1138 1 0.119386 0.462738 0.498372
868 1 0.142645 0.476788 0.498513
1640 1 0.132968 0.467658 0.498292
1364 1 0.169424 0.468949 0.498813
938 1 0.154658 0.46392 0.50032
1000 1 0.156573 0.476169 0.498371
872 1 0.181939 0.465081 0.499691
1774 1 0.181145 0.478273 0.498533
1014 1 0.211583 0.467849 0.500056
801 1 0.197975 0.476751 0.499304
1727 1 0.22168 0.477039 0.499149
1574 1 0.242306 0.4706 0.501029
1725 1 0.254177 0.461569 0.499764
1502 1 0.294935 0.460052 0.501101
811 1 0.321482 0.463646 0.499718
1141 1 0.0193831 0.495746 0.495417
1617 1 0.00861497 0.483276 0.495107
1548 1 0.00655735 0.496128 0.494712
1425 1 0.0215656 0.480299 0.496501
1069 1 0.0439475 0.501016 0.495068
997 1 0.034001 0.489804 0.495389
1620 1 0.0602775 0.491996 0.495644
1269 1 0.0476891 0.488295 0.496044
1280 1 0.0564374 0.47969 0.497216
1220 1 0.0858834 0.483756 0.497694
1217 1 0.0745179 0.49317 0.496803
1215 1 0.0711146 0.480725 0.497875
1142 1 0.088224 0.497535 0.495707
1357 1 0.100545 0.493952 0.496472
1287 1 0.100575 0.480895 0.496503
940 1 0.112202 0.487376 0.495596
1295 1 0.121932 0.49349 0.49825
929 1 0.150688 0.487425 0.499078
1428 1 0.133361 0.485345 0.49815
1931 1 0.168506 0.484181 0.498006
1011 1 0.161961 0.493411 0.498538
720 1 0.18866 0.488794 0.498305
1782 1 0.178241 0.498337 0.49857
1567 1 0.213245 0.493673 0.497957
1291 1 0.201242 0.490274 0.499308
1224 1 0.210695 0.480888 0.499166
1008 1 0.224529 0.488714 0.498676
1707 1 0.234571 0.483759 0.499608
1497 1 0.238593 0.495865 0.498725
285 1 0.0147709 0.0191268 0.50026
4 1 0.0289533 0.0179034 0.501809
2997 1 0.0422447 0.0157562 0.501229
6 1 0.0735301 0.013079 0.500444
2668 1 0.0973778 0.0158019 0.500172
2335 1 0.101112 0.00224344 0.500139
2532 1 0.107839 0.0159964 0.50165
169 1 0.121362 0.0172973 0.50066
2603 1 0.116244 0.00571602 0.500883
2464 1 0.135607 0.00876662 0.499772
10 1 0.149581 0.00692967 0.500359
2681 1 0.16397 0.0136572 0.500481
101 1 0.173533 0.0055013 0.50033
2684 1 0.185479 0.00672881 0.501485
2247 1 0.211658 0.0024016 0.502017
2320 1 0.20494 0.0219814 0.5003
2398 1 0.214502 0.0147917 0.499581
2195 1 0.199155 0.00825595 0.501672
2738 1 0.225256 0.00144952 0.501442
2461 1 0.227069 0.0136995 0.499407
2488 1 0.237178 0.00283293 0.501025
2770 1 0.239797 0.0186974 0.501847
2394 1 0.253198 0.00815462 0.50257
242 1 0.255951 0.022413 0.501993
2698 1 0.265409 0.0127125 0.501102
124 1 0.283416 0.0100189 0.50225
2330 1 0.297331 0.011711 0.503364
2768 1 0.308647 0.00586916 0.504677
2556 1 0.310627 0.0193288 0.504082
62 1 0.321401 0.0109041 0.504541
2633 1 0.333556 0.00119192 0.504662
2775 1 0.33698 0.0144087 0.505344
2794 1 0.347688 0.00791871 0.505008
2776 1 0.359453 0.00728488 0.505703
135 1 0.366571 0.0187038 0.505541
54 1 0.349674 0.0214145 0.505389
477 1 0.383445 0.000557828 0.504295
68 1 0.372264 0.00693808 0.505509
467 1 0.378616 0.0210681 0.505089
2301 1 0.391147 0.00900963 0.504708
44 1 0.40672 0.00659316 0.504075
2557 1 0.400341 0.0159609 0.504875
2723 1 0.41474 0.017967 0.504813
3230 1 0.418284 0.00378732 0.503718
2824 1 0.429458 0.0102595 0.503476
3083 1 0.440049 0.00441772 0.503145
2725 1 0.445609 0.0192146 0.501845
2793 1 0.456013 0.0117335 0.50293
2651 1 0.468457 0.0143609 0.50372
3086 1 0.478169 0.0182709 0.503248
349 1 0.483995 0.00734007 0.504503
2894 1 0.493664 0.0149762 0.504039
17 1 0.00266787 0.0236585 0.500295
150 1 0.00708896 0.0360642 0.501064
1 1 0.0365371 0.0305164 0.502073
3428 1 0.0222433 0.0349403 0.500313
99 1 0.0336228 0.0429621 0.499356
2249 1 0.0465845 0.0432997 0.501185
2594 1 0.062027 0.0221457 0.501544
5592 1 0.0589927 0.0386375 0.501696
23 1 0.0494009 0.029727 0.501348
2471 1 0.0740714 0.0329488 0.502251
2534 1 0.0865133 0.0363776 0.499805
2593 1 0.0847856 0.0235904 0.500863
211 1 0.098239 0.0313391 0.500571
153 1 0.110789 0.0299449 0.500026
310 1 0.253941 0.0436469 0.500548
116 1 0.247803 0.030118 0.499841
2625 1 0.275871 0.0234597 0.501536
46 1 0.262287 0.0329095 0.501794
2762 1 0.274997 0.0378372 0.501406
2407 1 0.289236 0.0252295 0.502818
2408 1 0.300505 0.0274234 0.502195
2498 1 0.28867 0.0386342 0.502225
2057 1 0.300925 0.0401057 0.502843
2560 1 0.312336 0.0313686 0.504286
2634 1 0.320545 0.0408737 0.504484
63 1 0.324877 0.0257295 0.50428
383 1 0.33655 0.0288304 0.504821
2707 1 0.334878 0.0406211 0.504498
130 1 0.34794 0.0358605 0.505143
2570 1 0.360529 0.0329442 0.504439
471 1 0.38995 0.0227285 0.505409
131 1 0.377023 0.033306 0.506589
117 1 0.383103 0.0429538 0.504695
202 1 0.393418 0.0359401 0.504756
339 1 0.405641 0.0432114 0.502997
329 1 0.403451 0.0288653 0.505274
2512 1 0.427248 0.0259552 0.502839
2949 1 0.415802 0.03208 0.504093
2650 1 0.429943 0.0378344 0.501198
272 1 0.460712 0.0410993 0.501483
2785 1 0.460298 0.0254151 0.502008
3294 1 0.47199 0.0301913 0.501182
132 1 0.49959 0.0296688 0.504654
205 1 0.487428 0.025573 0.503011
277 1 0.48189 0.0385326 0.503843
2800 1 0.497483 0.0417698 0.50427
2938 1 0.0147053 0.0450441 0.501687
152 1 0.0106726 0.0598981 0.500535
18 1 0.0261652 0.0551159 0.499746
96 1 0.0642437 0.0501201 0.502163
2615 1 0.0520561 0.0540482 0.499949
2564 1 0.0789279 0.0471311 0.500563
156 1 0.0762889 0.0616661 0.499757
307 1 0.0920331 0.0495659 0.499859
321 1 0.265806 0.0472977 0.500513
2773 1 0.265547 0.0615405 0.4993
2629 1 0.294722 0.0542204 0.502301
2483 1 0.305521 0.0654762 0.503763
2635 1 0.311354 0.0506195 0.503549
347 1 0.326267 0.0529694 0.503218
2786 1 0.340633 0.0497112 0.504463
111 1 0.336346 0.0635151 0.503306
2709 1 0.35461 0.0462737 0.50416
2706 1 0.349841 0.0597309 0.504045
262 1 0.364873 0.0564987 0.50435
139 1 0.369987 0.0427651 0.504413
2630 1 0.379422 0.053968 0.504426
203 1 0.392505 0.0508093 0.503342
5534 1 0.409003 0.0545632 0.502109
2789 1 0.401423 0.0621249 0.503084
199 1 0.417758 0.0446479 0.502503
2710 1 0.431169 0.0518805 0.500824
2811 1 0.421418 0.0584842 0.502417
57 1 0.443495 0.0434269 0.499939
129 1 0.441018 0.058352 0.501513
65 1 0.45355 0.0522865 0.501825
60 1 0.473249 0.0488957 0.502189
3039 1 0.468622 0.0617645 0.50323
69 1 0.500779 0.0586191 0.504963
3110 1 0.485004 0.0592965 0.504285
287 1 0.00646257 0.0746487 0.501762
2756 1 0.0177798 0.074027 0.500533
282 1 0.0632697 0.0645655 0.501073
2741 1 0.0715719 0.0762972 0.500464
167 1 0.0956429 0.0777012 0.499408
2689 1 0.300339 0.0746108 0.49996
181 1 0.288386 0.0789972 0.500028
314 1 0.323443 0.0665681 0.503956
2342 1 0.314164 0.0740596 0.50326
2484 1 0.308004 0.0867116 0.501162
126 1 0.325063 0.0848773 0.502772
442 1 0.336163 0.0759573 0.502478
323 1 0.34824 0.072723 0.501815
2346 1 0.359781 0.068886 0.504832
372 1 0.357351 0.0826459 0.501079
115 1 0.368761 0.0773785 0.503199
327 1 0.389816 0.0648517 0.503066
198 1 0.376066 0.0688993 0.503548
261 1 0.383272 0.0791801 0.502762
257 1 0.398955 0.0747158 0.503972
318 1 0.404253 0.0857341 0.50285
2485 1 0.416567 0.0809826 0.502844
56 1 0.413664 0.069313 0.50308
64 1 0.430845 0.0649027 0.502204
58 1 0.428611 0.0760792 0.502374
137 1 0.439088 0.081108 0.501991
2942 1 0.454927 0.0681677 0.503907
2796 1 0.443057 0.0697787 0.502465
345 1 0.453253 0.0811497 0.504656
55 1 0.46625 0.0756621 0.504626
2795 1 0.480228 0.0740581 0.503758
201 1 0.489222 0.0852672 0.503891
3035 1 0.493634 0.0707283 0.503725
219 1 0.0110333 0.088002 0.500037
3288 1 0.0104712 0.101449 0.50028
2561 1 0.294652 0.088219 0.499392
190 1 0.318712 0.09787 0.499779
2704 1 0.340262 0.0873938 0.501079
2551 1 0.365645 0.0949221 0.50125
189 1 0.347628 0.0965806 0.499953
2414 1 0.357591 0.105175 0.49995
123 1 0.388721 0.0900749 0.502264
391 1 0.382753 0.10066 0.501206
266 1 0.375657 0.0903056 0.501125
192 1 0.394459 0.101184 0.50073
248 1 0.405479 0.0998431 0.501952
125 1 0.423277 0.0918329 0.503242
336 1 0.420689 0.104123 0.503153
267 1 0.43485 0.102588 0.503486
270 1 0.442813 0.0926256 0.503753
392 1 0.453793 0.0986436 0.50425
343 1 0.475995 0.0903323 0.50419
53 1 0.464392 0.0921796 0.504188
260 1 0.473839 0.105746 0.505638
5464 1 0.491069 0.100907 0.505107
2944 1 0.387654 0.113665 0.500186
191 1 0.371921 0.107176 0.49992
2699 1 0.401737 0.113007 0.501268
341 1 0.412808 0.116496 0.501842
259 1 0.402847 0.12622 0.501067
120 1 0.389901 0.126355 0.50077
255 1 0.429466 0.111041 0.503482
401 1 0.422306 0.121396 0.503039
2778 1 0.414692 0.131738 0.501877
50 1 0.43506 0.122998 0.503193
550 1 0.444663 0.112751 0.504838
184 1 0.449807 0.124544 0.502789
119 1 0.460664 0.131288 0.502371
2798 1 0.461557 0.112037 0.505204
204 1 0.470434 0.122922 0.503654
2877 1 0.49813 0.113176 0.50461
127 1 0.484565 0.117465 0.504574
334 1 0.495291 0.127104 0.503437
457 1 0.403595 0.138346 0.50002
389 1 0.42677 0.135051 0.501895
304 1 0.418701 0.14561 0.501699
320 1 0.435658 0.144527 0.502656
411 1 0.441398 0.132845 0.503886
330 1 0.451102 0.139082 0.501507
3153 1 0.469428 0.141365 0.503024
338 1 0.477336 0.151652 0.502538
2584 1 0.460594 0.151761 0.501852
402 1 0.478236 0.132627 0.503683
2876 1 0.499382 0.14875 0.504796
188 1 0.486643 0.141429 0.50445
3149 1 0.00268439 0.156141 0.5008
405 1 0.418781 0.161746 0.500024
200 1 0.432084 0.157247 0.501848
276 1 0.447408 0.155017 0.502789
333 1 0.434696 0.170737 0.500614
469 1 0.45168 0.168859 0.499487
2782 1 0.465468 0.164995 0.502066
3157 1 0.500466 0.165859 0.503362
481 1 0.488629 0.158763 0.502853
128 1 0.490644 0.17394 0.50128
364 1 0.160277 0.181026 0.498557
176 1 0.172879 0.184919 0.500604
183 1 0.419215 0.175231 0.49931
178 1 0.176437 0.196792 0.501256
423 1 0.0121776 0.231602 0.501519
421 1 0.0227587 0.238323 0.501462
359 1 0.0403839 0.228816 0.500433
3640 1 0.0550879 0.224435 0.499736
226 1 0.070728 0.22357 0.500709
367 1 0.0777136 0.235815 0.50175
3563 1 0.0659088 0.237078 0.501183
856 1 0.0903833 0.234686 0.50196
3639 1 0.118615 0.239312 0.501265
565 1 0.139922 0.22152 0.500321
576 1 0.145723 0.232896 0.501226
3277 1 0.0173874 0.249909 0.50374
3560 1 0.00527282 0.242571 0.502326
3495 1 0.00253294 0.254143 0.503538
854 1 0.0347247 0.24067 0.501799
917 1 0.0321378 0.254195 0.503813
220 1 0.060264 0.250457 0.502636
1133 1 0.0463646 0.25303 0.503834
564 1 0.0513212 0.238576 0.501316
301 1 0.0779909 0.251377 0.502059
363 1 0.104216 0.241786 0.500656
1058 1 0.090302 0.247657 0.502134
3498 1 0.100256 0.256444 0.502291
230 1 0.114105 0.250416 0.501077
3360 1 0.128488 0.251016 0.502008
988 1 0.135004 0.238018 0.500539
239 1 0.0217571 0.263806 0.502922
3629 1 0.00654378 0.278574 0.505739
494 1 0.00850399 0.26502 0.505141
705 1 0.0171327 0.276986 0.504609
3418 1 0.038396 0.26556 0.50429
3358 1 0.0302833 0.276546 0.505215
1059 1 0.049843 0.272084 0.505018
232 1 0.0631969 0.275596 0.504766
706 1 0.0574908 0.263446 0.503223
709 1 0.0849248 0.263983 0.503435
3848 1 0.0742288 0.274175 0.502758
3569 1 0.0689395 0.260378 0.502847
710 1 0.0868565 0.276407 0.504539
924 1 0.100436 0.270092 0.502915
500 1 0.126013 0.268341 0.500617
1194 1 0.111493 0.277851 0.501288
703 1 0.112338 0.263856 0.502195
1195 1 0.124493 0.282624 0.499984
3708 1 0.137532 0.263179 0.500575
914 1 0.021373 0.288569 0.50626
991 1 0.00855235 0.289767 0.50675
3775 1 -0.000991272 0.304659 0.505744
3632 1 0.012918 0.302485 0.507067
1057 1 0.0242892 0.300264 0.506858
704 1 0.034124 0.287908 0.505773
4119 1 0.0376218 0.299299 0.507786
850 1 0.0473623 0.282374 0.506193
100 1 0.0585947 0.288981 0.50561
3570 1 0.0471103 0.295031 0.506166
3918 1 0.0722115 0.285614 0.505205
1053 1 0.0826057 0.300866 0.506365
853 1 0.0842621 0.289031 0.505533
3497 1 0.065585 0.3014 0.506278
1063 1 0.0981275 0.284111 0.503038
1064 1 0.0977155 0.295539 0.503679
669 1 0.111216 0.290268 0.500542
776 1 0.122032 0.294274 0.500842
102 1 0.133923 0.291788 0.500138
3421 1 0.00712404 0.316901 0.507732
632 1 0.0201821 0.313681 0.508775
3709 1 0.0353067 0.312146 0.507643
1136 1 0.0284643 0.325115 0.508284
779 1 0.0525727 0.305721 0.506457
495 1 0.0452588 0.320391 0.509324
846 1 0.0606965 0.316034 0.508619
642 1 0.0749894 0.311812 0.507238
1051 1 0.0802421 0.322718 0.504361
989 1 0.0911385 0.310442 0.504151
926 1 0.103546 0.311894 0.503182
995 1 0.0934421 0.323228 0.504227
1205 1 0.111902 0.304329 0.500949
1130 1 0.117083 0.31883 0.501529
4055 1 0.134216 0.318147 0.500497
562 1 0.0158723 0.328081 0.509422
920 1 0.00496416 0.335027 0.50866
1193 1 0.0119372 0.343953 0.508238
1131 1 0.0402291 0.332884 0.509166
3983 1 0.0233202 0.338752 0.510349
1125 1 0.0346139 0.34474 0.509181
1401 1 0.0473389 0.342847 0.510184
3766 1 0.0628387 0.347047 0.507385
3844 1 0.0532437 0.329966 0.508397
1197 1 0.0644031 0.331882 0.505658
3909 1 0.0791821 0.33646 0.504568
4051 1 0.103908 0.328175 0.50217
1081 1 0.091067 0.337825 0.503805
986 1 0.102257 0.344157 0.501421
932 1 0.114242 0.333478 0.501285
1270 1 0.125962 0.32734 0.500511
3773 1 0.00272386 0.35353 0.506302
3698 1 0.0153349 0.361724 0.506071
915 1 0.0226749 0.351357 0.509475
1264 1 0.0285783 0.366679 0.507685
844 1 0.0376117 0.356918 0.508632
1334 1 0.0382986 0.372247 0.505768
3840 1 0.0486216 0.354163 0.508313
3849 1 0.063176 0.358797 0.505762
1551 1 0.0519091 0.364795 0.506642
992 1 0.0725089 0.367393 0.503893
1139 1 0.0745236 0.350302 0.504346
934 1 0.0862235 0.349429 0.503521
1286 1 0.0827722 0.363315 0.504524
1336 1 0.0962574 0.35489 0.503196
1140 1 0.0957888 0.366355 0.502436
1078 1 0.107714 0.361386 0.500957
656 1 0.112791 0.349538 0.501269
573 1 0.215736 0.353053 0.499346
4193 1 0.00149528 0.372611 0.505239
3850 1 0.0175036 0.376096 0.505507
1409 1 0.00208616 0.387214 0.503889
1266 1 0.0313955 0.381737 0.504988
1276 1 0.0466563 0.380936 0.504024
3623 1 0.0602751 0.373273 0.504231
1074 1 0.0560727 0.38773 0.501629
3845 1 0.0686194 0.390295 0.501768
1218 1 0.0864625 0.388133 0.502882
3842 1 0.0764918 0.37955 0.503134
1052 1 0.106099 0.373231 0.501659
3913 1 0.0977578 0.383273 0.502544
1124 1 0.0879659 0.375117 0.501876
861 1 0.109979 0.389426 0.50234
1073 1 0.119282 0.379854 0.501628
3984 1 0.0147721 0.38987 0.503539
1192 1 0.0130864 0.407422 0.501983
1282 1 0.0011517 0.402289 0.502323
1202 1 0.0384071 0.395043 0.503573
1340 1 0.0254946 0.411853 0.501425
1267 1 0.0372567 0.407639 0.500836
1351 1 0.0258922 0.396387 0.50318
916 1 0.0526325 0.400459 0.50158
1149 1 0.0668436 0.402776 0.501773
1360 1 0.0779302 0.399765 0.5014
1290 1 0.0767902 0.412998 0.500816
1072 1 0.0943289 0.398277 0.50101
933 1 0.0986018 0.413169 0.499414
724 1 0.127757 0.395709 0.501668
931 1 0.120648 0.407091 0.501572
998 1 0.132123 0.407796 0.500659
721 1 0.144402 0.402972 0.499985
1469 1 0.478604 0.399276 0.501246
1251 1 0.465507 0.407567 0.50173
3799 1 0.493733 0.407146 0.501799
1253 1 0.489143 0.391785 0.501233
4335 1 0.00686331 0.418781 0.499633
1277 1 0.0178059 0.42474 0.500742
996 1 0.0475806 0.414478 0.499766
794 1 0.0641261 0.417202 0.501271
1485 1 0.0730438 0.429558 0.500788
1075 1 0.0880175 0.425723 0.501639
941 1 0.10226 0.42684 0.500172
1281 1 0.114223 0.417478 0.501099
582 1 0.117488 0.429215 0.500309
1143 1 0.128409 0.4219 0.50081
1080 1 0.13964 0.430624 0.500115
1226 1 0.143312 0.419069 0.501403
1365 1 0.157219 0.424779 0.500921
865 1 0.183019 0.436177 0.498804
838 1 0.406839 0.433541 0.500566
1247 1 0.4287 0.43212 0.500431
1741 1 0.453764 0.430702 0.50135
896 1 0.43901 0.423506 0.501578
4064 1 0.464718 0.418598 0.501695
3852 1 0.467802 0.43073 0.500925
1179 1 0.481202 0.412178 0.502643
762 1 0.480871 0.425852 0.501796
1033 1 0.492439 0.420924 0.502224
928 1 0.0819147 0.439452 0.501167
1284 1 0.0934376 0.445226 0.501072
1066 1 0.122198 0.439323 0.500103
1129 1 0.13635 0.444166 0.501552
937 1 0.151877 0.436667 0.500991
1499 1 0.147979 0.44961 0.499437
1227 1 0.169065 0.455891 0.499231
1716 1 0.189924 0.452705 0.500255
1292 1 0.17796 0.447202 0.501009
883 1 0.226059 0.449734 0.499509
1638 1 0.276507 0.440695 0.499738
821 1 0.265404 0.447879 0.499961
1229 1 0.283025 0.457199 0.501784
1441 1 0.363982 0.450312 0.500637
816 1 0.377243 0.448781 0.500081
753 1 0.387351 0.455412 0.50281
1108 1 0.396326 0.448147 0.500371
1447 1 0.410078 0.447667 0.502073
1152 1 0.43031 0.443783 0.502505
1303 1 0.423912 0.453816 0.502996
1709 1 0.419436 0.437644 0.502211
1525 1 0.443142 0.434785 0.50142
1101 1 0.438201 0.455534 0.50281
1373 1 0.444311 0.446297 0.501987
1302 1 0.457159 0.445355 0.500967
1240 1 0.470641 0.445382 0.501252
1099 1 0.491067 0.435155 0.500863
3997 1 0.481867 0.44341 0.502
1315 1 0.488295 0.452231 0.503738
1713 1 0.142171 0.459845 0.499668
723 1 0.193523 0.466997 0.500038
1434 1 0.201839 0.457244 0.500373
867 1 0.226426 0.46388 0.499828
1299 1 0.253307 0.475728 0.500183
679 1 0.238602 0.457485 0.500604
1439 1 0.268974 0.471335 0.50023
673 1 0.270663 0.459552 0.499043
1511 1 0.299306 0.475022 0.500934
1723 1 0.285367 0.470384 0.50186
1793 1 0.315625 0.474806 0.501096
800 1 0.308273 0.46046 0.500842
948 1 0.345816 0.463668 0.500679
1653 1 0.332069 0.473269 0.500416
1783 1 0.357826 0.476324 0.502744
1588 1 0.359637 0.461554 0.501473
1366 1 0.384926 0.477477 0.503377
1022 1 0.376511 0.46255 0.502799
876 1 0.36914 0.471314 0.502823
1862 1 0.390951 0.467025 0.504068
1096 1 0.403001 0.47 0.504134
1446 1 0.401942 0.457291 0.501885
1579 1 0.420361 0.471694 0.504354
1384 1 0.429004 0.463702 0.504489
1442 1 0.431996 0.478093 0.504239
1575 1 0.413908 0.459407 0.503206
1311 1 0.441203 0.470172 0.505057
1038 1 0.450958 0.457819 0.502088
1387 1 0.452614 0.470384 0.504822
1312 1 0.463219 0.456664 0.503473
1028 1 0.466025 0.468478 0.502281
4145 1 0.476223 0.458894 0.501779
4207 1 0.479406 0.472981 0.502759
1397 1 0.498283 0.477516 0.501729
1450 1 0.489043 0.465702 0.501358
795 1 0.14072 0.495712 0.500468
1426 1 0.251295 0.500799 0.500692
1300 1 0.251069 0.487444 0.501306
1719 1 0.279725 0.496954 0.502407
1792 1 0.277334 0.483041 0.502574
1007 1 0.266559 0.496718 0.501969
1076 1 0.264096 0.484203 0.501698
1012 1 0.292886 0.495994 0.503872
1504 1 0.290086 0.48197 0.502965
1159 1 0.304233 0.485546 0.504298
1231 1 0.318116 0.489086 0.502113
1641 1 0.304755 0.498126 0.503215
1710 1 0.331276 0.498528 0.503656
1170 1 0.344469 0.49604 0.503624
1025 1 0.332942 0.485348 0.502332
947 1 0.345349 0.480195 0.502162
1586 1 0.356766 0.490616 0.504669
1594 1 0.385486 0.492495 0.506113
1651 1 0.373706 0.499215 0.503945
1437 1 0.371772 0.486674 0.503563
1156 1 0.411704 0.497759 0.504866
1643 1 0.40067 0.493552 0.504625
1158 1 0.397615 0.482628 0.504394
1163 1 0.412859 0.483319 0.504207
1587 1 0.423416 0.49243 0.504421
1035 1 0.447334 0.497113 0.502383
1304 1 0.442662 0.484702 0.504618
1527 1 0.435527 0.497561 0.504031
1319 1 0.471633 0.494621 0.502958
1241 1 0.456673 0.486446 0.503345
1309 1 0.470268 0.481626 0.503831
4136 1 0.484254 0.496625 0.50211
1177 1 0.484961 0.48419 0.502198
1324 1 0.498352 0.492141 0.502043
1144 1 0.0156428 0.506697 0.496001
1545 1 0.0069103 0.513976 0.493713
1487 1 0.0238979 0.515855 0.493887
1347 1 0.0388158 0.514584 0.49221
4542 1 0.0306423 0.506987 0.495452
1419 1 0.0513873 0.517783 0.492996
1134 1 0.0537223 0.504076 0.494594
1355 1 0.0637867 0.519829 0.494245
1146 1 0.0672215 0.504479 0.494645
1363 1 0.0754059 0.52021 0.49479
870 1 0.0784319 0.507733 0.495293
1414 1 0.0906042 0.509642 0.496
1421 1 0.102378 0.510322 0.4969
1560 1 0.113966 0.50213 0.496747
1506 1 0.119461 0.516284 0.496982
1362 1 0.141608 0.514382 0.498849
1784 1 0.130509 0.505581 0.498645
1847 1 0.149116 0.50595 0.499267
1577 1 0.160205 0.514236 0.497124
1494 1 0.165807 0.504641 0.498826
1294 1 0.177382 0.513866 0.49767
1361 1 0.191309 0.514433 0.497491
1293 1 0.18961 0.502268 0.496756
1002 1 0.203306 0.514671 0.495429
1435 1 0.213828 0.507051 0.497002
939 1 0.201448 0.502243 0.49706
1496 1 0.221791 0.516484 0.498836
1084 1 0.226603 0.501489 0.498776
1645 1 0.233614 0.522272 0.498045
1711 1 0.236186 0.508115 0.49926
1018 1 0.247322 0.514338 0.498593
1288 1 0.0146837 0.523473 0.492909
1614 1 0.00933623 0.534192 0.492537
1681 1 0.0241844 0.531037 0.493122
1342 1 0.0344828 0.525261 0.494046
1493 1 0.0327862 0.541625 0.49392
4389 1 0.0528169 0.532294 0.493364
1564 1 0.045381 0.540249 0.492471
1480 1 0.0662377 0.532891 0.492236
1148 1 0.0789653 0.532049 0.494285
1565 1 0.106508 0.520764 0.495893
1490 1 0.0890363 0.52391 0.495134
1758 1 0.100094 0.53315 0.496496
1431 1 0.0889308 0.539837 0.495945
1846 1 0.114782 0.531878 0.497036
1690 1 0.126461 0.538908 0.497797
1482 1 0.129904 0.522858 0.497396
4548 1 0.142327 0.525242 0.498061
1687 1 0.146535 0.538681 0.497997
1432 1 0.168104 0.526809 0.497767
1639 1 0.154466 0.524872 0.49725
1553 1 0.159338 0.535541 0.497268
1934 1 0.176828 0.538341 0.495727
1760 1 0.191116 0.539068 0.495579
1704 1 0.184379 0.528307 0.497082
1003 1 0.213573 0.524278 0.495604
1854 1 0.195809 0.526404 0.495884
1661 1 0.204994 0.533755 0.496444
1358 1 0.218764 0.537677 0.496195
1795 1 0.233789 0.533592 0.497058
1660 1 0.256905 0.540128 0.498376
1495 1 0.249225 0.527357 0.49752
1569 1 0.26937 0.534421 0.500234
1356 1 0.0197914 0.545504 0.49226
1412 1 0.00674213 0.547022 0.492487
1612 1 0.00227465 0.562606 0.493819
4470 1 0.0145433 0.559584 0.492947
1271 1 0.0316901 0.556213 0.49313
1214 1 0.0436897 0.554259 0.493632
1209 1 0.0581184 0.544167 0.491668
4409 1 0.0565008 0.55798 0.492135
1145 1 0.0747803 0.543706 0.492814
1492 1 0.0700531 0.556024 0.493209
1289 1 0.0835109 0.551616 0.493996
1433 1 0.101524 0.548732 0.494236
1488 1 0.0942709 0.559367 0.492988
1686 1 0.11306 0.544163 0.496238
1004 1 0.110809 0.559056 0.493806
1621 1 0.125683 0.553019 0.496093
1556 1 0.137802 0.54632 0.497803
1420 1 0.139341 0.559212 0.49729
860 1 0.152179 0.554516 0.496419
1554 1 0.16343 0.548114 0.498002
1857 1 0.166206 0.560219 0.495013
1699 1 0.174401 0.548959 0.494353
1708 1 0.186593 0.552943 0.496595
1997 1 0.179397 0.560245 0.495704
1759 1 0.196219 0.56184 0.495324
1489 1 0.199304 0.547824 0.49669
1872 1 0.208652 0.561284 0.495146
1633 1 0.211323 0.546235 0.495123
1667 1 0.226182 0.54853 0.496497
1718 1 0.220407 0.559408 0.49531
1509 1 0.243942 0.542492 0.49708
1714 1 0.240401 0.557794 0.496969
1860 1 0.255673 0.554217 0.497962
1664 1 0.251249 0.565866 0.496856
1648 1 0.270415 0.549038 0.499153
1794 1 0.26895 0.563033 0.499183
1597 1 0.341838 0.562163 0.500286
4270 1 0.00933256 0.57129 0.4928
4689 1 0.0147772 0.58423 0.493019
1824 1 0.00157604 0.58543 0.493874
4410 1 0.0224982 0.570138 0.492512
4544 1 0.0358186 0.566449 0.492818
4399 1 0.0302104 0.582178 0.492679
1478 1 0.0485472 0.571001 0.492509
1611 1 0.059009 0.581954 0.491988
1479 1 0.0428667 0.582407 0.493361
1285 1 0.0623144 0.569622 0.491758
1275 1 0.0777332 0.564633 0.494151
1430 1 0.0768743 0.578775 0.492627
1211 1 0.0907549 0.57012 0.492241
1557 1 0.104422 0.575358 0.49349
1212 1 0.0937457 0.583595 0.493415
1572 1 0.127305 0.564413 0.494433
4408 1 0.118574 0.573106 0.494507
1491 1 0.126827 0.583649 0.495405
4549 1 0.114339 0.586896 0.495863
1481 1 0.137293 0.574354 0.49498
1627 1 0.150968 0.567479 0.496477
1622 1 0.163355 0.572707 0.496036
1852 1 0.17111 0.586908 0.495781
1570 1 0.154031 0.582346 0.496701
1566 1 0.177733 0.572561 0.495279
1790 1 0.18763 0.583843 0.496746
1876 1 0.192453 0.57173 0.494673
1706 1 0.200945 0.583602 0.496827
1724 1 0.208022 0.575098 0.495998
2008 1 0.231118 0.567226 0.495862
1937 1 0.220489 0.57357 0.496113
1785 1 0.225017 0.584851 0.497188
2024 1 0.236058 0.580303 0.497208
1656 1 0.244616 0.573763 0.495707
2291 1 0.250037 0.585856 0.497632
1712 1 0.259858 0.571991 0.498866
1859 1 0.280547 0.572098 0.499035
1221 1 0.270859 0.581268 0.49996
1662 1 0.296451 0.580305 0.499199
1465 1 0.317105 0.572564 0.500007
1873 1 0.331527 0.574312 0.498962
1608 1 0.479853 0.582145 0.499898
1892 1 0.0127502 0.59997 0.49198
4741 1 0.0269402 0.607857 0.492905
1898 1 0.0234712 0.594792 0.492352
1416 1 0.0385087 0.594855 0.492719
1682 1 0.0547201 0.595495 0.493498
4474 1 0.0646128 0.607834 0.494636
1483 1 0.0837142 0.589393 0.49441
1691 1 0.0702303 0.592235 0.492987
4620 1 0.0794777 0.605567 0.491856
2055 1 0.0912179 0.600005 0.494992
4759 1 0.102471 0.59325 0.494538
1843 1 0.106021 0.606409 0.493068
1766 1 0.116735 0.601913 0.495483
1644 1 0.132238 0.598228 0.496777
4468 1 0.143467 0.586487 0.496889
1701 1 0.143993 0.599562 0.497301
4480 1 0.156089 0.594297 0.49778
1777 1 0.165738 0.600637 0.497085
1878 1 0.179455 0.593132 0.496298
1944 1 0.175602 0.60693 0.498066
1771 1 0.188147 0.604921 0.496883
1546 1 0.195687 0.593893 0.49699
2095 1 0.211023 0.590347 0.497276
1705 1 0.205753 0.603222 0.498488
1870 1 0.221022 0.5993 0.497661
1659 1 0.235028 0.595703 0.49866
1945 1 0.250936 0.60148 0.500183
1946 1 0.266471 0.606444 0.499843
1734 1 0.263232 0.592616 0.499905
2020 1 0.276006 0.600387 0.499191
1658 1 0.286968 0.587608 0.499682
1743 1 0.293789 0.59964 0.500241
1802 1 0.284161 0.609072 0.499468
1941 1 0.310656 0.590864 0.500421
1595 1 0.305165 0.607158 0.498795
1458 1 0.334807 0.587296 0.49982
1886 1 0.340483 0.597846 0.499251
4491 1 0.4896 0.609449 0.500551
1472 1 0.000839426 0.629074 0.492282
4467 1 0.00982477 0.611028 0.493574
1696 1 0.0165341 0.621886 0.493661
1688 1 0.0305203 0.620832 0.492946
1756 1 0.043482 0.628078 0.492546
1070 1 0.0399005 0.608737 0.493149
1761 1 0.0491418 0.616631 0.492224
4607 1 0.0789805 0.618848 0.492691
1552 1 0.0682409 0.6228 0.493513
4688 1 0.0928815 0.623645 0.493033
1764 1 0.0943344 0.611694 0.493532
4962 1 0.104714 0.622886 0.496426
1767 1 0.130816 0.608696 0.496394
1636 1 0.117091 0.61404 0.497134
4479 1 0.124617 0.625461 0.497569
1616 1 0.141138 0.616113 0.497799
1685 1 0.151318 0.611447 0.499392
2011 1 0.152611 0.627556 0.497751
1543 1 0.162664 0.615515 0.498671
1561 1 0.175812 0.619364 0.498933
1417 1 0.191217 0.617467 0.497948
1798 1 0.205563 0.618796 0.498691
1666 1 0.218646 0.614134 0.498734
2069 1 0.235337 0.611679 0.498578
1729 1 0.22456 0.625649 0.497618
1936 1 0.254479 0.618509 0.499768
2076 1 0.240463 0.62809 0.498589
1804 1 0.272547 0.617955 0.498893
1880 1 0.28333 0.621085 0.499336
1801 1 0.296117 0.619248 0.499366
1867 1 0.307679 0.627474 0.500299
4828 1 0.0189911 0.636577 0.493199
4673 1 0.00659595 0.64685 0.492094
4746 1 0.0231268 0.649928 0.492188
4472 1 0.0299109 0.633621 0.491328
4754 1 0.0355236 0.643659 0.49393
1619 1 0.056455 0.629975 0.493108
4401 1 0.0475967 0.644046 0.492953
1683 1 0.060988 0.644901 0.493875
2037 1 0.0804822 0.631189 0.495213
4393 1 0.0702443 0.636281 0.493904
4619 1 0.0802013 0.644418 0.495113
4398 1 0.0907222 0.636831 0.493917
1831 1 0.104727 0.639946 0.495646
4614 1 0.0910151 0.650159 0.495714
2139 1 0.113464 0.633119 0.497788
1770 1 0.11382 0.648822 0.497191
2040 1 0.123813 0.641144 0.497903
4618 1 0.135877 0.632262 0.497774
2072 1 0.135248 0.647987 0.497496
1559 1 0.147762 0.640656 0.4977
1624 1 0.166923 0.630222 0.49941
1630 1 0.160839 0.642318 0.498595
1788 1 0.176822 0.642373 0.499424
1692 1 0.184758 0.631579 0.499127
1730 1 0.193537 0.642366 0.498416
2147 1 0.196064 0.630081 0.498564
2285 1 0.209171 0.644716 0.495815
1702 1 0.207925 0.630735 0.497677
1874 1 0.232737 0.63903 0.49646
2053 1 0.220423 0.639498 0.495213
2094 1 0.247841 0.641635 0.497791
1800 1 0.255626 0.630495 0.498757
1445 1 0.269797 0.632491 0.499461
1943 1 0.261312 0.644975 0.496863
1996 1 0.276602 0.644663 0.498603
1582 1 0.297359 0.634945 0.499759
2087 1 0.284032 0.633985 0.500074
1590 1 0.292956 0.646935 0.500428
4687 1 0.0119684 0.661468 0.492814
1839 1 0.0231834 0.666681 0.49448
1834 1 0.0392132 0.656115 0.494301
1973 1 0.0422886 0.668218 0.496026
4541 1 0.0519159 0.654432 0.495392
1899 1 0.0588788 0.665364 0.496594
4476 1 0.0688231 0.654124 0.495643
1851 1 0.0737317 0.670517 0.496939
1694 1 0.081062 0.657896 0.496353
1689 1 0.0850242 0.67292 0.498312
1908 1 0.102136 0.653497 0.495946
1631 1 0.0967385 0.665873 0.498425
1429 1 0.113975 0.663025 0.497222
1977 1 0.125674 0.655418 0.498592
4612 1 0.130195 0.666732 0.49871
1703 1 0.144118 0.666804 0.497901
1902 1 0.144973 0.653027 0.499085
1797 1 0.171295 0.667039 0.498777
1967 1 0.170754 0.651895 0.498727
1757 1 0.157347 0.666179 0.499624
1768 1 0.157803 0.6542 0.500277
1550 1 0.183656 0.657118 0.499262
2211 1 0.205911 0.671782 0.499294
1772 1 0.19654 0.658487 0.497382
2019 1 0.212915 0.657144 0.49673
1917 1 0.226778 0.652724 0.496168
2217 1 0.222115 0.670323 0.495713
2070 1 0.237941 0.666967 0.495192
2154 1 0.243605 0.653992 0.495597
1728 1 0.251398 0.666497 0.49453
2274 1 0.256422 0.655996 0.496434
1861 1 0.279452 0.668654 0.497563
2215 1 0.270519 0.655575 0.497433
1999 1 0.265004 0.668703 0.495893
1670 1 0.28649 0.656292 0.49867
2056 1 0.00157956 0.682855 0.494979
4680 1 0.0123945 0.67495 0.494335
4756 1 0.0116226 0.691441 0.49482
1698 1 0.0229748 0.683606 0.494044
4959 1 0.0328208 0.675874 0.493556
2189 1 0.0399798 0.686874 0.492739
1751 1 0.0640926 0.67561 0.495168
1976 1 0.0504386 0.677082 0.494704
1695 1 0.0498546 0.694836 0.49464
1562 1 0.0594407 0.688455 0.495853
1927 1 0.0720122 0.683775 0.496848
1629 1 0.0861144 0.685176 0.499088
1763 1 0.0983065 0.681821 0.499443
1219 1 0.107731 0.672703 0.498229
1628 1 0.122147 0.675241 0.499438
1789 1 0.14042 0.692354 0.499056
2121 1 0.135846 0.679913 0.498511
1568 1 0.149689 0.67916 0.497377
1998 1 0.163126 0.678764 0.498681
1778 1 0.154645 0.69123 0.498589
1935 1 0.191452 0.677223 0.498638
1858 1 0.185429 0.688848 0.497654
2112 1 0.175206 0.680765 0.497721
2007 1 0.213955 0.681755 0.497032
1230 1 0.198676 0.685889 0.497531
1722 1 0.209073 0.692794 0.497227
1600 1 0.230215 0.681991 0.495321
2003 1 0.221309 0.691923 0.496631
2014 1 0.242128 0.680467 0.494752
2004 1 0.246324 0.6928 0.495493
1733 1 0.255729 0.680457 0.494628
1514 1 0.259088 0.691948 0.495068
1940 1 0.274007 0.67944 0.496524
2080 1 0.28192 0.689242 0.498587
1875 1 0.293987 0.694078 0.499902
2153 1 0.289288 0.677385 0.498001
1822 1 0.0121344 0.70759 0.494604
4889 1 0.0245506 0.696069 0.494129
4829 1 0.0270096 0.714352 0.494395
1962 1 0.0380185 0.703059 0.493289
1555 1 0.0614699 0.702702 0.49467
1753 1 0.0519709 0.713219 0.493369
1828 1 0.072099 0.695964 0.497365
1922 1 0.0748357 0.70949 0.496121
1773 1 0.0867142 0.698387 0.499453
1984 1 0.0851947 0.715963 0.496235
1781 1 0.0980335 0.710782 0.499865
2244 1 0.111332 0.712475 0.498531
1787 1 0.145856 0.70895 0.499986
1855 1 0.158841 0.706814 0.500211
1732 1 0.171721 0.717761 0.500087
1909 1 0.173491 0.704561 0.498257
1498 1 0.184864 0.700821 0.497934
1987 1 0.192736 0.711089 0.497244
1993 1 0.210811 0.704785 0.498197
1775 1 0.197687 0.699401 0.497462
1558 1 0.203727 0.713815 0.497464
2277 1 0.234943 0.698331 0.495682
2352 1 0.222024 0.706725 0.495835
2357 1 0.234119 0.712879 0.495808
2077 1 0.248676 0.705264 0.495659
1598 1 0.259244 0.708578 0.495722
1956 1 0.272222 0.701354 0.496566
1517 1 0.274242 0.713256 0.497699
2009 1 0.28673 0.70543 0.499338
4698 1 0.491726 0.7019 0.49867
4613 1 0.0114913 0.720596 0.494385
5171 1 0.0136799 0.738268 0.495109
4823 1 0.0219311 0.728831 0.49383
4897 1 0.0319032 0.739174 0.49472
1825 1 0.0387537 0.724838 0.494185
1842 1 0.0552566 0.72725 0.49338
2132 1 0.0671748 0.720706 0.494132
1903 1 0.0753887 0.730879 0.495465
1780 1 0.089174 0.731137 0.497346
1900 1 0.100833 0.726552 0.496239
2031 1 0.123708 0.732535 0.49964
1827 1 0.115753 0.723583 0.499814
1765 1 0.10842 0.737101 0.49827
1978 1 0.136468 0.734057 0.499937
2127 1 0.146606 0.724893 0.499854
1850 1 0.183335 0.719063 0.498172
4891 1 0.187423 0.732736 0.498859
1913 1 0.196584 0.72521 0.497181
2140 1 0.210619 0.73224 0.496529
2356 1 0.214453 0.719727 0.496798
2222 1 0.226912 0.723163 0.496361
2143 1 0.223252 0.736072 0.495021
1939 1 0.24082 0.729559 0.497183
1807 1 0.24725 0.718108 0.495957
1799 1 0.253648 0.732359 0.497256
2350 1 0.262148 0.721344 0.497013
2281 1 0.27593 0.725795 0.498192
2216 1 0.26615 0.733929 0.498905
2282 1 0.287642 0.730801 0.498678
2294 1 0.300718 0.732991 0.498076
1811 1 0.286097 0.71711 0.499031
2098 1 0.311606 0.735431 0.49863
2160 1 0.32368 0.733987 0.499304
2438 1 0.488107 0.731181 0.49971
1750 1 0.487773 0.716936 0.499241
4545 1 0.00140144 0.742867 0.495068
2048 1 0.0100404 0.756666 0.496761
2114 1 0.0235912 0.748481 0.495613
2041 1 0.0260208 0.759791 0.497834
2109 1 0.0404355 0.748414 0.496627
1897 1 0.0485223 0.738548 0.494446
4682 1 0.0653749 0.739455 0.495705
1895 1 0.0538102 0.751162 0.496533
4606 1 0.0431617 0.760185 0.497315
1849 1 0.0683198 0.752822 0.497642
2115 1 0.079067 0.761923 0.497854
1930 1 0.0785362 0.742873 0.497785
1841 1 0.088674 0.750754 0.498228
2045 1 0.0978268 0.741327 0.496191
2243 1 0.107221 0.751564 0.498358
2386 1 0.128079 0.760486 0.500108
2241 1 0.120226 0.744714 0.498566
1915 1 0.137798 0.748787 0.500164
1982 1 0.176392 0.744342 0.500427
2353 1 0.188755 0.746455 0.497976
1925 1 0.181735 0.758872 0.500156
1776 1 0.19816 0.755546 0.49776
2016 1 0.211066 0.756664 0.497497
2065 1 0.199901 0.739489 0.497329
1933 1 0.213738 0.74381 0.497652
2017 1 0.237357 0.758263 0.49621
2286 1 0.22428 0.761354 0.49581
2425 1 0.226298 0.748204 0.497458
2170 1 0.238037 0.744322 0.496187
1837 1 0.254137 0.757466 0.498176
2354 1 0.248635 0.742968 0.498174
2071 1 0.260635 0.746818 0.498444
1926 1 0.273477 0.747884 0.497173
1910 1 0.283 0.756747 0.496942
4910 1 0.268334 0.759174 0.499239
4766 1 0.283598 0.74283 0.498232
2213 1 0.295055 0.745356 0.496545
1869 1 0.30163 0.757553 0.495557
2519 1 0.321475 0.746106 0.499309
2212 1 0.313533 0.75882 0.496934
4909 1 0.30965 0.746379 0.497433
1948 1 0.329724 0.756953 0.497221
1953 1 0.344738 0.757446 0.498375
2157 1 0.337536 0.745542 0.499532
1539 1 0.352046 0.749377 0.499316
5112 1 0.358166 0.760884 0.499146
1959 1 0.381425 0.756879 0.499591
1881 1 0.39434 0.757304 0.500144
5055 1 0.483882 0.757371 0.499405
2510 1 0.497118 0.746844 0.497871
5262 1 0.483974 0.744859 0.498069
4808 1 0.00357171 0.76664 0.497302
4957 1 0.0155969 0.769876 0.497729
5109 1 0.0124796 0.782801 0.500167
1762 1 0.0323663 0.771073 0.498336
1823 1 0.0258884 0.781266 0.500073
4616 1 0.059482 0.774476 0.499055
1829 1 0.058676 0.762774 0.497399
1972 1 0.0444035 0.774439 0.499911
2044 1 0.0742089 0.775326 0.500338
2042 1 0.0988716 0.761773 0.498601
2034 1 0.105658 0.777795 0.499054
1980 1 0.0885624 0.768928 0.498805
1833 1 0.113903 0.767204 0.49959
2145 1 0.13694 0.780166 0.499512
1835 1 0.190589 0.769598 0.498878
1990 1 0.174433 0.771431 0.498443
1918 1 0.212809 0.767842 0.497072
2120 1 0.205816 0.777531 0.498435
2411 1 0.192482 0.783441 0.497958
2079 1 0.226808 0.772728 0.49796
1919 1 0.238996 0.777995 0.498474
1791 1 0.24388 0.767423 0.498119
2228 1 0.258991 0.780527 0.498858
2144 1 0.261677 0.769333 0.497748
4763 1 0.276662 0.771219 0.498
2309 1 0.291962 0.763495 0.495886
2156 1 0.290819 0.776839 0.497792
4971 1 0.301667 0.772377 0.496254
2135 1 0.312091 0.77727 0.498292
1995 1 0.324105 0.768548 0.496898
2219 1 0.334492 0.772855 0.498018
2092 1 0.348075 0.771183 0.497268
4838 1 0.361819 0.771795 0.498178
2151 1 0.37395 0.769806 0.498817
1949 1 0.389284 0.767794 0.498425
5263 1 0.384928 0.782636 0.497957
4842 1 0.45103 0.774955 0.499862
4693 1 0.444631 0.762579 0.499145
4906 1 0.472562 0.781042 0.497887
2375 1 0.496515 0.7634 0.498259
4699 1 0.480828 0.772363 0.499802
2304 1 0.492212 0.775914 0.498405
1894 1 0.0392041 0.788456 0.499981
1752 1 0.121194 0.802973 0.499811
2036 1 0.114795 0.786448 0.499861
2337 1 0.128121 0.789494 0.499065
2259 1 0.174587 0.794551 0.50056
2105 1 0.167689 0.782702 0.500123
2253 1 0.163773 0.801797 0.498794
2073 1 0.192786 0.795175 0.500296
2181 1 0.2034 0.792481 0.49845
1923 1 0.214463 0.79381 0.499124
1700 1 0.217893 0.781491 0.498235
2000 1 0.227336 0.790418 0.498908
2359 1 0.228028 0.801332 0.499883
2355 1 0.249635 0.787796 0.499754
2075 1 0.240079 0.794764 0.498482
2288 1 0.274254 0.784307 0.499284
2146 1 0.275546 0.800256 0.499758
2427 1 0.286143 0.792704 0.499381
4836 1 0.302521 0.788526 0.496829
2010 1 0.298203 0.799554 0.498593
2210 1 0.320685 0.786347 0.4976
5260 1 0.327308 0.799713 0.498503
2136 1 0.311972 0.795297 0.498746
4972 1 0.344407 0.79919 0.498078
5041 1 0.343428 0.784236 0.497713
4903 1 0.33305 0.787585 0.497692
2504 1 0.357989 0.79853 0.49809
5329 1 0.356929 0.785905 0.498421
2379 1 0.370133 0.785063 0.496912
2085 1 0.369023 0.804432 0.497282
5117 1 0.379737 0.795757 0.49785
5323 1 0.393593 0.793744 0.49794
5465 1 0.406854 0.794064 0.498837
5190 1 0.418288 0.800405 0.500188
5334 1 0.433179 0.803898 0.499171
5463 1 0.447487 0.796774 0.497612
2169 1 0.442989 0.785862 0.498933
5053 1 0.457894 0.802535 0.496248
5551 1 0.471653 0.795667 0.49735
4560 1 0.459638 0.790274 0.496694
5327 1 0.484553 0.787245 0.499069
2378 1 0.4888 0.796505 0.495249
2258 1 0.104095 0.806737 0.50052
1985 1 0.101422 0.825824 0.499806
2068 1 0.168628 0.811603 0.499606
1632 1 0.194772 0.807812 0.49877
2059 1 0.206216 0.808628 0.499163
2276 1 0.236895 0.808778 0.50042
2138 1 0.251546 0.804207 0.499934
2205 1 0.263338 0.808136 0.501203
4901 1 0.284974 0.806797 0.49894
2300 1 0.337405 0.814173 0.498625
5111 1 0.363705 0.817823 0.49685
2220 1 0.353658 0.811687 0.497212
4974 1 0.347728 0.826164 0.498005
5114 1 0.379299 0.812309 0.496461
2374 1 0.376712 0.825369 0.497937
4557 1 0.386659 0.818207 0.499573
4841 1 0.405934 0.807383 0.499386
5183 1 0.393575 0.80496 0.498815
2369 1 0.399282 0.818205 0.499349
5254 1 0.419355 0.812631 0.499387
2307 1 0.430363 0.820219 0.498501
2577 1 0.412324 0.825202 0.499725
5321 1 0.44836 0.81118 0.497286
5393 1 0.456301 0.818758 0.496452
2653 1 0.467703 0.812008 0.498065
2788 1 0.478433 0.80375 0.497366
5257 1 0.491448 0.809125 0.496775
2310 1 0.483536 0.817418 0.496119
1981 1 0.238168 0.825466 0.499583
2230 1 0.238396 0.842348 0.498936
2287 1 0.251761 0.835365 0.499658
2575 1 0.360282 0.832262 0.498115
2445 1 0.355217 0.843041 0.498749
5330 1 0.371953 0.839763 0.498608
2581 1 0.402164 0.834138 0.499493
66 1 0.416435 0.839135 0.498668
2509 1 0.432208 0.834539 0.498792
5116 1 0.431988 0.846227 0.499364
2012 1 0.445635 0.827766 0.496869
5251 1 0.446644 0.843326 0.497677
5474 1 0.472456 0.841124 0.496808
5189 1 0.459715 0.833443 0.49879
2159 1 0.469211 0.824399 0.496954
2729 1 0.482218 0.831577 0.496508
5397 1 0.495914 0.826832 0.495755
2373 1 0.491272 0.840462 0.496206
1991 1 0.0605641 0.860963 0.501888
1912 1 0.188412 0.859012 0.499789
2566 1 0.367797 0.850381 0.500576
4768 1 0.35762 0.858298 0.499834
2718 1 0.385692 0.846956 0.499853
2444 1 0.393775 0.860212 0.49984
2511 1 0.416689 0.863575 0.498404
2240 1 0.423451 0.853624 0.500012
2582 1 0.433244 0.864236 0.498664
5403 1 0.445499 0.857456 0.500282
206 1 0.472143 0.865888 0.50042
5256 1 0.472944 0.853765 0.498775
2646 1 0.456019 0.862367 0.499229
5044 1 0.458896 0.851013 0.498669
3100 1 0.484749 0.866558 0.499213
2649 1 0.497799 0.863542 0.496178
194 1 0.486446 0.851698 0.495471
2327 1 0.0280061 0.890225 0.498701
2188 1 0.0375116 0.88175 0.498887
2190 1 0.181549 0.880874 0.499484
2713 1 0.413457 0.877522 0.50011
2419 1 0.423188 0.886445 0.49952
51 1 0.426874 0.874127 0.498874
2715 1 0.435275 0.882827 0.498996
2720 1 0.443756 0.872986 0.498535
2232 1 0.448641 0.885062 0.498852
5535 1 0.464881 0.881345 0.500342
5396 1 0.495809 0.875911 0.497932
2568 1 0.489098 0.885743 0.498466
5405 1 0.47907 0.879632 0.499294
2050 1 0.017295 0.896013 0.499715
2245 1 0.0300037 0.904027 0.499394
2454 1 0.0414232 0.896869 0.499851
5178 1 0.041333 0.91119 0.499047
2123 1 0.054419 0.909102 0.501363
1906 1 0.0769046 0.909872 0.499743
2329 1 0.0875824 0.908003 0.499693
2465 1 0.105504 0.90156 0.499507
2683 1 0.117633 0.898838 0.500713
2399 1 0.111945 0.914366 0.498433
2270 1 0.21346 0.901051 0.499949
2481 1 0.201521 0.896392 0.498443
2717 1 0.398865 0.910788 0.499796
2377 1 0.43512 0.894164 0.497972
2585 1 0.489472 0.911237 0.498909
5462 1 0.48713 0.8977 0.497996
5472 1 0.498628 0.89219 0.499047
4898 1 0.0201314 0.90981 0.498911
80 1 0.0110775 0.924807 0.498116
81 1 0.0226678 0.93416 0.498531
2677 1 0.030322 0.919047 0.498293
79 1 0.0353417 0.93512 0.499029
2600 1 0.0603633 0.925248 0.500102
2383 1 0.0660966 0.914502 0.49939
2458 1 0.0869281 0.932578 0.498956
2529 1 0.0775924 0.922883 0.499369
72 1 0.0712718 0.931656 0.499467
2462 1 0.0986905 0.91291 0.498196
2526 1 0.106755 0.924729 0.497988
5248 1 0.0899584 0.921406 0.498151
2530 1 0.117396 0.935526 0.498345
2336 1 0.12233 0.923195 0.499883
2387 1 0.135924 0.917498 0.499668
2199 1 0.131215 0.930623 0.498612
2476 1 0.147688 0.929247 0.498514
2412 1 0.200722 0.921236 0.500361
142 1 0.021954 0.946715 0.498386
5523 1 0.0061918 0.939869 0.49898
2608 1 0.00955039 0.953359 0.498004
16 1 0.0575927 0.955522 0.498654
2248 1 0.0638275 0.942503 0.498574
164 1 0.0496889 0.93483 0.499764
2736 1 0.0766572 0.942922 0.498757
7 1 0.107872 0.947646 0.498855
2536 1 0.0905144 0.948807 0.499483
2390 1 0.100714 0.936701 0.498204
2193 1 0.128988 0.945122 0.497281
2621 1 0.141267 0.940183 0.498886
5320 1 0.139865 0.953211 0.497837
2334 1 0.167185 0.943974 0.499461
2262 1 0.155359 0.952731 0.498487
2396 1 0.180099 0.944925 0.498357
2332 1 0.192084 0.943833 0.500204
5386 1 0.00435966 0.967126 0.49757
5585 1 0.0165804 0.963622 0.496976
2606 1 0.0435884 0.959587 0.498816
5589 1 0.0377355 0.971432 0.498361
5528 1 0.0239405 0.974314 0.498051
5518 1 0.0305647 0.960321 0.498239
77 1 0.0639841 0.969417 0.499214
2062 1 0.0794155 0.970002 0.498711
2381 1 0.0845641 0.959182 0.499756
2664 1 0.0716712 0.956211 0.498521
2624 1 0.0942415 0.968478 0.500425
83 1 0.107459 0.969765 0.500529
2391 1 0.131813 0.96191 0.499777
2680 1 0.148504 0.966096 0.499116
2558 1 0.167825 0.959025 0.497892
2328 1 0.159883 0.96951 0.498682
2187 1 0.190929 0.969768 0.499648
2460 1 0.174959 0.970987 0.498642
2416 1 0.182376 0.95852 0.498666
2769 1 0.197673 0.95688 0.499445
2939 1 0.0104088 0.990435 0.498684
8 1 0.0126715 0.978997 0.497347
5595 1 0.000551741 0.99857 0.495694
5521 1 0.0251609 0.991751 0.498948
2591 1 0.0367 0.984477 0.499372
5443 1 0.0443601 0.997481 0.49958
3218 1 0.0541362 0.984237 0.498939
2331 1 0.0882353 0.99255 0.498792
2745 1 0.0733295 0.982087 0.49817
2595 1 0.0714792 0.995455 0.498957
2322 1 0.0902947 0.980256 0.498343
2521 1 0.101596 0.984613 0.498824
103 1 0.167505 0.982133 0.499265
2746 1 0.155739 0.983085 0.499406
109 1 0.182615 0.980726 0.498705
2533 1 0.173396 0.991289 0.49842
2539 1 0.199532 0.997545 0.499996
1079 1 0.259912 0.509363 0.500578
1150 1 0.272922 0.510987 0.502228
1646 1 0.287781 0.507087 0.503999
1512 1 0.302239 0.51093 0.504231
1863 1 0.296486 0.520879 0.504134
1508 1 0.316653 0.515042 0.502868
1367 1 0.314665 0.503243 0.502223
1578 1 0.345693 0.508113 0.503559
1589 1 0.332779 0.511808 0.501772
1864 1 0.356928 0.517339 0.502662
1737 1 0.361078 0.502557 0.50358
1155 1 0.380411 0.511063 0.505559
1523 1 0.368515 0.515746 0.503304
1369 1 0.393759 0.515416 0.506791
1932 1 0.40632 0.508442 0.506137
1372 1 0.393861 0.503102 0.50556
1453 1 0.422719 0.505872 0.505625
1518 1 0.415538 0.516428 0.506788
1094 1 0.436125 0.508789 0.503888
1316 1 0.449855 0.513486 0.502881
1172 1 0.465077 0.510776 0.502228
1746 1 0.472386 0.523697 0.503144
1297 1 0.458629 0.501535 0.503486
1815 1 0.478604 0.507899 0.502223
1391 1 0.488346 0.520935 0.502696
4634 1 0.495825 0.508278 0.501614
1444 1 0.280312 0.521991 0.502972
1573 1 0.261111 0.522614 0.500075
1779 1 0.279328 0.539739 0.501314
1803 1 0.288136 0.531181 0.500888
1717 1 0.298967 0.53553 0.502458
1563 1 0.321972 0.533202 0.502339
1503 1 0.30995 0.52668 0.503948
1786 1 0.309918 0.543445 0.503563
1368 1 0.339875 0.523729 0.50247
1736 1 0.333593 0.534476 0.502231
1866 1 0.325169 0.522098 0.501155
1647 1 0.352131 0.527472 0.502797
1535 1 0.362387 0.537891 0.502089
2090 1 0.345874 0.539258 0.501398
1868 1 0.370001 0.5282 0.503926
1796 1 0.381211 0.52647 0.505564
1463 1 0.378005 0.539848 0.503619
1720 1 0.403627 0.523821 0.506151
1655 1 0.392057 0.531743 0.505553
1510 1 0.407585 0.535362 0.505256
1374 1 0.420449 0.533149 0.505847
1505 1 0.428891 0.520462 0.506371
1650 1 0.437905 0.536242 0.50581
1383 1 0.441785 0.52036 0.505402
1173 1 0.453623 0.53476 0.503831
1098 1 0.457337 0.5239 0.502372
4274 1 0.468608 0.536459 0.502754
4570 1 0.480148 0.53244 0.503089
1250 1 0.494169 0.535767 0.501762
1625 1 0.282616 0.558249 0.500183
1571 1 0.299797 0.550428 0.501992
1735 1 0.287559 0.547444 0.50045
1669 1 0.314645 0.556825 0.50109
1306 1 0.325756 0.547496 0.501452
1529 1 0.338979 0.549839 0.500662
1950 1 0.326051 0.558521 0.500605
1663 1 0.354041 0.553366 0.50085
1654 1 0.369147 0.552155 0.501822
1436 1 0.388455 0.546822 0.505644
1375 1 0.379495 0.557051 0.50339
1513 1 0.399533 0.546323 0.504998
4272 1 0.413283 0.549717 0.50595
1396 1 0.396714 0.557977 0.504679
1228 1 0.428511 0.544468 0.504867
1390 1 0.42227 0.561077 0.504521
1657 1 0.435151 0.557443 0.504125
1593 1 0.444983 0.546607 0.505292
1668 1 0.44879 0.559159 0.505439
1591 1 0.471583 0.54801 0.504145
1380 1 0.459013 0.54602 0.503552
1386 1 0.463542 0.557848 0.503757
1314 1 0.478035 0.558476 0.503449
1501 1 0.483348 0.543969 0.503031
4276 1 0.494948 0.555559 0.50237
1649 1 0.293055 0.568202 0.500594
1947 1 0.305981 0.565611 0.499808
4486 1 0.322664 0.585873 0.499425
1462 1 0.344906 0.578472 0.498589
1460 1 0.351991 0.568573 0.501021
1809 1 0.360514 0.579214 0.502601
1584 1 0.368762 0.566413 0.50263
1371 1 0.385364 0.569194 0.502466
1585 1 0.377673 0.583167 0.501691
1520 1 0.396437 0.580096 0.502567
4349 1 0.406961 0.566278 0.504133
1242 1 0.411992 0.58063 0.503166
1162 1 0.422191 0.573041 0.503146
1536 1 0.435512 0.571673 0.504638
1676 1 0.440448 0.581626 0.502842
1164 1 0.450892 0.572227 0.504519
1464 1 0.463284 0.583455 0.502924
1459 1 0.471092 0.571228 0.501907
1740 1 0.488125 0.572729 0.501198
1376 1 0.498179 0.584028 0.50094
1457 1 0.324049 0.598448 0.50154
1537 1 0.350254 0.589977 0.5003
2023 1 0.357336 0.601636 0.50151
1665 1 0.365702 0.59308 0.502626
1721 1 0.389494 0.589627 0.502173
1530 1 0.369518 0.609041 0.500618
1307 1 0.37859 0.596705 0.50134
1531 1 0.383971 0.60934 0.499645
1524 1 0.395524 0.602453 0.500855
1519 1 0.402778 0.591191 0.503602
1596 1 0.408976 0.603143 0.501938
1581 1 0.417466 0.593492 0.502341
4414 1 0.42912 0.584911 0.501636
4499 1 0.427974 0.605145 0.501569
4346 1 0.453269 0.58708 0.502237
1234 1 0.438323 0.599067 0.501232
1515 1 0.451493 0.600334 0.501931
1516 1 0.464939 0.601234 0.500956
1522 1 0.472416 0.590361 0.50042
4280 1 0.478805 0.603123 0.50128
1534 1 0.490497 0.595731 0.500502
1817 1 0.322057 0.625249 0.500956
1744 1 0.314444 0.613812 0.500736
1816 1 0.3282 0.609752 0.500646
1606 1 0.344918 0.609747 0.500928
4416 1 0.335637 0.62361 0.50128
1671 1 0.360168 0.618331 0.502782
1678 1 0.350083 0.621828 0.500283
1819 1 0.369296 0.625267 0.500472
1942 1 0.381826 0.622335 0.501014
1952 1 0.399123 0.615311 0.501871
1385 1 0.41311 0.627715 0.503619
4568 1 0.399865 0.627424 0.501873
1605 1 0.413685 0.615255 0.501592
4642 1 0.428054 0.618673 0.501746
4564 1 0.440621 0.611861 0.503042
1745 1 0.452289 0.613506 0.502641
1400 1 0.44056 0.624867 0.502827
4347 1 0.454144 0.62719 0.503249
1602 1 0.465756 0.614848 0.500749
4208 1 0.472412 0.629219 0.501807
1601 1 0.480088 0.617272 0.501695
4850 1 0.485993 0.630524 0.501837
1739 1 0.496352 0.621337 0.500693
1938 1 0.317562 0.63848 0.50195
1526 1 0.306891 0.642946 0.500128
1318 1 0.326442 0.649298 0.501711
1466 1 0.330067 0.63517 0.502527
1674 1 0.343747 0.636408 0.501964
1883 1 0.349425 0.648866 0.502537
1592 1 0.358164 0.634806 0.502216
2097 1 0.363107 0.648312 0.502208
1726 1 0.374221 0.640735 0.501981
2084 1 0.387166 0.634157 0.50214
4417 1 0.388988 0.649401 0.503019
2167 1 0.40006 0.640914 0.503527
1889 1 0.42789 0.631889 0.502505
4556 1 0.415264 0.641225 0.501926
4563 1 0.429669 0.644938 0.503869
1955 1 0.441511 0.638013 0.502965
4641 1 0.451175 0.646208 0.502018
2089 1 0.441155 0.653956 0.503081
4994 1 0.459944 0.638356 0.502639
4554 1 0.469851 0.646856 0.500845
4629 1 0.481909 0.640785 0.501661
1747 1 0.494403 0.64678 0.501158
1599 1 0.304322 0.653323 0.50135
1603 1 0.298726 0.666016 0.501055
1954 1 0.314515 0.668353 0.50063
1388 1 0.317179 0.656126 0.502515
1731 1 0.328714 0.665752 0.501734
2006 1 0.339218 0.657246 0.502746
1673 1 0.345274 0.668894 0.503594
1467 1 0.365043 0.665712 0.504233
1877 1 0.354714 0.659742 0.502966
4575 1 0.375093 0.652769 0.504833
4832 1 0.380221 0.665023 0.504709
2015 1 0.405409 0.654281 0.503741
1820 1 0.395603 0.66404 0.504005
4977 1 0.410286 0.666787 0.504218
2589 1 0.420831 0.655038 0.503616
4985 1 0.430152 0.661693 0.502896
2225 1 0.424762 0.672341 0.503155
1810 1 0.44152 0.668896 0.502752
1890 1 0.451346 0.661 0.501896
4500 1 0.473175 0.660814 0.501517
1394 1 0.461205 0.65686 0.501465
4919 1 0.465168 0.67243 0.502729
2013 1 0.479144 0.671398 0.501559
4692 1 0.482435 0.652493 0.501412
4923 1 0.489608 0.663492 0.501127
1986 1 0.124783 0.690411 0.499783
1549 1 0.110556 0.685381 0.49986
1635 1 0.169782 0.692553 0.499254
1532 1 0.3039 0.679709 0.499878
2161 1 0.323471 0.683526 0.500327
2289 1 0.313763 0.692322 0.502626
1888 1 0.337958 0.679671 0.501627
4691 1 0.355153 0.676553 0.504035
2149 1 0.347799 0.688806 0.503374
2235 1 0.36794 0.680405 0.503719
1449 1 0.360398 0.697294 0.503755
4551 1 0.379585 0.679518 0.504002
1818 1 0.380065 0.692626 0.50344
1392 1 0.394006 0.676858 0.504109
4621 1 0.404841 0.694908 0.502719
1454 1 0.39121 0.688886 0.504041
1960 1 0.405443 0.681807 0.502725
1813 1 0.417739 0.6824 0.503342
5261 1 0.427056 0.689864 0.502158
4566 1 0.452857 0.676323 0.502924
1957 1 0.437205 0.68061 0.502612
4482 1 0.44743 0.688825 0.502256
4702 1 0.461032 0.687537 0.503574
4776 1 0.472849 0.684709 0.502704
2166 1 0.489167 0.681252 0.501912
4694 1 0.480711 0.694031 0.50178
4975 1 0.500613 0.672783 0.502095
4638 1 0.498241 0.690765 0.500676
1856 1 0.103417 0.699231 0.499632
2142 1 0.123263 0.714157 0.499551
1865 1 0.116579 0.700594 0.499236
1838 1 0.13129 0.704854 0.50015
2018 1 0.300238 0.710102 0.500752
1528 1 0.31245 0.707875 0.502074
1814 1 0.322868 0.70131 0.501463
2082 1 0.333234 0.695221 0.499992
2025 1 0.333396 0.7136 0.501066
1805 1 0.344243 0.7037 0.503175
2083 1 0.35656 0.708609 0.503291
1672 1 0.371776 0.705165 0.502808
2155 1 0.383691 0.708797 0.503661
1806 1 0.37107 0.716908 0.502261
1884 1 0.395486 0.701472 0.503918
2148 1 0.405907 0.71095 0.503067
2021 1 0.417432 0.713224 0.504068
4555 1 0.41616 0.699899 0.501968
4488 1 0.429842 0.707228 0.503297
4697 1 0.452957 0.700864 0.503581
4483 1 0.439262 0.697525 0.502281
4907 1 0.441443 0.710705 0.50359
5115 1 0.452451 0.715882 0.504633
2233 1 0.466602 0.712926 0.502663
1808 1 0.466927 0.698847 0.502775
4762 1 0.479643 0.706413 0.502543
2175 1 0.135114 0.719748 0.500575
1904 1 0.159325 0.718334 0.49954
1905 1 0.158755 0.730306 0.501285
1697 1 0.173214 0.730584 0.500267
4481 1 0.303522 0.721817 0.499626
1882 1 0.319008 0.72 0.501239
4764 1 0.345221 0.716961 0.502331
2163 1 0.336979 0.731558 0.500783
2005 1 0.358189 0.723275 0.501102
1738 1 0.369826 0.730595 0.500999
2237 1 0.351743 0.736222 0.501061
1879 1 0.381661 0.721198 0.502743
2078 1 0.385072 0.734858 0.501213
1951 1 0.394927 0.717467 0.503261
5324 1 0.409011 0.738064 0.501954
1871 1 0.397929 0.734062 0.501285
1887 1 0.410246 0.724727 0.502007
2361 1 0.428421 0.721249 0.502939
4905 1 0.424889 0.732098 0.50315
2026 1 0.440233 0.724082 0.503586
5185 1 0.451915 0.731623 0.503688
4695 1 0.476488 0.722599 0.501003
4501 1 0.461597 0.7254 0.502809
5049 1 0.476329 0.7355 0.501592
2067 1 0.15008 0.739441 0.499936
2255 1 0.151731 0.756427 0.50026
1848 1 0.160959 0.745245 0.501665
5258 1 0.362267 0.742787 0.500337
4835 1 0.368319 0.754295 0.500567
2813 1 0.386627 0.746784 0.499682
1540 1 0.374874 0.742967 0.501053
2372 1 0.400006 0.746212 0.50061
2305 1 0.405009 0.758274 0.50035
2376 1 0.425077 0.746851 0.502824
2434 1 0.412784 0.749672 0.501211
2028 1 0.437598 0.739976 0.502942
4976 1 0.438275 0.754434 0.501019
4622 1 0.449088 0.745632 0.501285
1748 1 0.460332 0.751802 0.502013
4912 1 0.464546 0.73823 0.50164
5188 1 0.472619 0.751229 0.502167
1901 1 0.0956552 0.783918 0.500867
2226 1 0.126633 0.773946 0.500536
2081 1 0.139867 0.767037 0.499792
1623 1 0.148656 0.781006 0.500373
1836 1 0.157881 0.77169 0.499714
2002 1 0.166279 0.758487 0.499931
5113 1 0.401297 0.770848 0.500132
5255 1 0.417506 0.760904 0.501282
5186 1 0.429656 0.761923 0.502234
4552 1 0.4256 0.777235 0.500828
2443 1 0.413449 0.772831 0.500319
4908 1 0.436811 0.772714 0.501554
2096 1 0.457792 0.76283 0.501042
4484 1 0.469787 0.76519 0.500049
4495 1 0.462016 0.77667 0.499727
5099 1 0.00239676 0.803212 0.501621
4966 1 0.012899 0.794524 0.501631
2172 1 0.0252396 0.795747 0.503107
2103 1 0.0365904 0.80192 0.501438
1830 1 0.0503313 0.801792 0.502152
2110 1 0.0626052 0.800679 0.500723
4826 1 0.0522867 0.785704 0.500329
2125 1 0.0764166 0.800339 0.500591
4881 1 0.0830305 0.787281 0.500521
1965 1 0.0668767 0.789036 0.501928
2117 1 0.0887048 0.80326 0.500661
1911 1 0.103235 0.792523 0.500088
1924 1 0.139908 0.794644 0.500299
1970 1 0.147705 0.804472 0.501308
1626 1 0.156204 0.791132 0.50037
1637 1 0.179815 0.783561 0.499509
2279 1 0.263971 0.793825 0.501118
2029 1 0.401488 0.783458 0.500312
2518 1 0.416719 0.786156 0.50022
2450 1 0.430171 0.792576 0.502075
2047 1 0.0144521 0.822697 0.503166
5164 1 0.00401638 0.817644 0.502996
4900 1 0.0159063 0.805793 0.502721
1969 1 0.0421904 0.81684 0.502189
4970 1 0.0274647 0.812632 0.502757
2250 1 0.0273603 0.824391 0.503647
2326 1 0.0581443 0.813246 0.501555
2131 1 0.0793235 0.824225 0.500132
2404 1 0.0670624 0.824286 0.50003
2176 1 0.0718888 0.812025 0.500204
2177 1 0.0886653 0.816507 0.500901
1769 1 0.113374 0.815267 0.50036
1844 1 0.12525 0.816756 0.50116
1916 1 0.140072 0.820167 0.500831
2208 1 0.133812 0.805475 0.501209
1921 1 0.172038 0.823764 0.500995
2185 1 0.159079 0.824231 0.501085
1928 1 0.151621 0.815709 0.500958
1992 1 0.185171 0.818129 0.5003
1907 1 0.180537 0.805446 0.499993
2162 1 0.211174 0.818722 0.500473
1994 1 0.196987 0.823402 0.500643
2093 1 0.227583 0.819353 0.501392
2360 1 0.22033 0.809156 0.500098
2060 1 0.249279 0.818649 0.50085
2224 1 0.275234 0.81816 0.501098
2238 1 0.262075 0.822745 0.501296
2128 1 0.287098 0.823413 0.501107
2074 1 0.299074 0.814582 0.50106
2439 1 0.323363 0.811391 0.498937
2275 1 0.312009 0.80717 0.501489
2152 1 0.311011 0.821328 0.50284
2150 1 0.323195 0.82305 0.501309
5093 1 0.0150817 0.834017 0.503537
5097 1 0.00358327 0.831067 0.503623
5038 1 0.00940402 0.846452 0.503022
2104 1 0.0203969 0.845146 0.504044
4887 1 0.0414367 0.843847 0.502049
2261 1 0.030703 0.836299 0.503469
5098 1 0.0413857 0.831351 0.502397
2410 1 0.0522485 0.84734 0.501297
1964 1 0.0526197 0.829694 0.501671
2107 1 0.0619723 0.837145 0.500803
2260 1 0.0784836 0.837512 0.500435
2280 1 0.0673926 0.847967 0.50104
2118 1 0.0916243 0.833372 0.501856
2612 1 0.092865 0.845705 0.502217
1929 1 0.108893 0.841471 0.501894
2108 1 0.127675 0.828159 0.501548
1853 1 0.11339 0.827882 0.501035
2173 1 0.119754 0.838302 0.501014
2207 1 0.130761 0.846058 0.500951
1845 1 0.136592 0.83617 0.501462
2102 1 0.146533 0.84331 0.5023
2269 1 0.146323 0.83129 0.501458
2043 1 0.15835 0.839588 0.502659
2119 1 0.170207 0.837521 0.501308
2283 1 0.184183 0.830735 0.502066
2229 1 0.188658 0.84522 0.501585
2192 1 0.199038 0.836878 0.501559
4904 1 0.214005 0.846246 0.501545
1840 1 0.21088 0.831744 0.502279
2239 1 0.22786 0.844932 0.500094
2022 1 0.222559 0.833262 0.501235
2091 1 0.274438 0.845613 0.501789
2088 1 0.261958 0.839429 0.500735
4911 1 0.273237 0.831371 0.50169
4561 1 0.285696 0.840529 0.502966
2100 1 0.297213 0.83144 0.502577
2197 1 0.3 0.848364 0.502377
2292 1 0.310657 0.834385 0.502503
2030 1 0.323866 0.837931 0.50149
2708 1 0.315354 0.849565 0.502378
5050 1 0.332609 0.829907 0.498864
4982 1 0.340845 0.843648 0.499944
2656 1 0.389749 0.832668 0.499507
2306 1 0.399571 0.846585 0.500785
5101 1 0.00108547 0.857335 0.503511
2184 1 0.014769 0.859642 0.503829
2315 1 0.0302629 0.850566 0.503502
5180 1 0.0273406 0.862295 0.502459
2528 1 0.0372526 0.870072 0.502147
4964 1 0.0443503 0.857558 0.501542
2278 1 0.0731083 0.861294 0.501222
2246 1 0.0801974 0.849314 0.502552
2341 1 0.0891211 0.863007 0.502282
2201 1 0.102898 0.853828 0.501757
2406 1 0.103476 0.866975 0.502471
2051 1 0.126682 0.858149 0.50096
2263 1 0.116816 0.850495 0.501349
2256 1 0.115646 0.864361 0.500731
2066 1 0.141187 0.857443 0.501816
1920 1 0.143672 0.868408 0.502428
2546 1 0.132651 0.868577 0.500351
2134 1 0.154991 0.865237 0.501736
2129 1 0.153738 0.852564 0.503102
2001 1 0.167712 0.867534 0.500749
1914 1 0.165185 0.854106 0.502303
2126 1 0.176746 0.850825 0.49994
2343 1 0.203057 0.851361 0.50147
2063 1 0.197664 0.869795 0.500732
2423 1 0.220551 0.857214 0.501373
2432 1 0.23433 0.857662 0.500683
2436 1 0.259737 0.851508 0.500695
2221 1 0.248454 0.847763 0.50014
4839 1 0.250145 0.861214 0.500369
4979 1 0.276912 0.858598 0.50179
2284 1 0.266925 0.861903 0.502249
2236 1 0.288084 0.853023 0.503253
4973 1 0.297829 0.861608 0.502474
2358 1 0.287976 0.866319 0.502398
2303 1 0.308866 0.86534 0.500376
1885 1 0.3199 0.859778 0.500565
2348 1 0.332298 0.851655 0.501225
2297 1 0.332616 0.865254 0.501872
2293 1 0.345284 0.857437 0.501343
4834 1 0.36665 0.868488 0.500943
2567 1 0.351422 0.872337 0.501758
5054 1 0.374913 0.860102 0.500708
2308 1 0.409975 0.850005 0.499195
2638 1 0.404054 0.865162 0.50095
15 1 0.0054115 0.889087 0.502098
5110 1 0.00980128 0.87327 0.50272
5179 1 0.022599 0.875815 0.501251
2679 1 0.0512514 0.871909 0.499613
2180 1 0.0510222 0.884258 0.499948
2672 1 0.0625692 0.874409 0.501104
5107 1 0.0765542 0.873667 0.501347
5037 1 0.0833267 0.886156 0.500638
2401 1 0.0715968 0.886369 0.500407
2602 1 0.0936193 0.877789 0.500784
2538 1 0.101727 0.887394 0.500429
2347 1 0.110988 0.877955 0.501456
2252 1 0.122315 0.872811 0.500503
2319 1 0.116547 0.887213 0.500185
2607 1 0.129017 0.88468 0.501777
2478 1 0.142275 0.880286 0.501821
2550 1 0.154993 0.878691 0.502668
2231 1 0.168549 0.881683 0.501853
2552 1 0.153659 0.890674 0.50026
1983 1 0.193932 0.883218 0.501794
2214 1 0.211168 0.87026 0.501539
1989 1 0.206504 0.885094 0.500898
2058 1 0.218784 0.88668 0.502644
2191 1 0.231928 0.888171 0.502897
2141 1 0.227569 0.872417 0.502079
2428 1 0.240364 0.872391 0.50073
2227 1 0.254195 0.872472 0.501685
2206 1 0.245333 0.88429 0.502698
2487 1 0.260799 0.883523 0.501964
5187 1 0.266827 0.872638 0.50135
2493 1 0.279116 0.873753 0.502731
2492 1 0.274156 0.885535 0.502743
2426 1 0.289398 0.879164 0.502458
2433 1 0.302249 0.874565 0.501776
2365 1 0.318956 0.873596 0.500993
2295 1 0.311044 0.884428 0.500651
2482 1 0.322651 0.888579 0.501714
2501 1 0.3328 0.878994 0.502325
2371 1 0.344886 0.882056 0.501903
2508 1 0.359731 0.879982 0.502096
2368 1 0.373639 0.881548 0.502825
2367 1 0.384769 0.887881 0.501781
2158 1 0.383324 0.871704 0.500107
2574 1 0.410621 0.890009 0.499585
5181 1 0.398355 0.885905 0.500638
2364 1 0.39735 0.874874 0.500618
5326 1 0.455161 0.873703 0.499996
2605 1 0.00898927 0.906698 0.500439
2183 1 0.0563701 0.895738 0.499541
2456 1 0.0807083 0.898793 0.499566
2400 1 0.0684481 0.901278 0.500127
5318 1 0.0949259 0.896928 0.499843
2468 1 0.1313 0.897056 0.49944
2562 1 0.126527 0.907874 0.500015
2254 1 0.141048 0.892479 0.501045
2559 1 0.140061 0.906141 0.500445
2198 1 0.154158 0.907625 0.501931
2266 1 0.169461 0.895541 0.501422
2273 1 0.183984 0.896476 0.500115
2064 1 0.194047 0.907352 0.499847
2421 1 0.17457 0.909372 0.501994
2203 1 0.207144 0.910875 0.500704
2111 1 0.22441 0.897602 0.502075
2223 1 0.22949 0.907515 0.501268
2290 1 0.239339 0.900026 0.502302
2489 1 0.24972 0.894091 0.501905
2393 1 0.249823 0.908231 0.502595
2218 1 0.263606 0.896059 0.502956
2362 1 0.276728 0.90383 0.502956
2202 1 0.262648 0.910465 0.50292
2424 1 0.284207 0.892453 0.502309
2363 1 0.284853 0.912967 0.502823
2771 1 0.299307 0.8913 0.502081
2130 1 0.292085 0.903337 0.5034
4902 1 0.312651 0.896317 0.502033
2271 1 0.324816 0.901811 0.502848
2547 1 0.307005 0.906733 0.503218
4831 1 0.33507 0.892678 0.50143
2490 1 0.341509 0.904554 0.502896
2691 1 0.367733 0.892281 0.502153
2351 1 0.354096 0.893334 0.502498
2499 1 0.354589 0.906323 0.501296
2366 1 0.367072 0.907851 0.501572
4981 1 0.377599 0.901407 0.502368
2296 1 0.38508 0.911054 0.500343
2422 1 0.390979 0.89938 0.5003
121 1 0.406183 0.900542 0.501217
2302 1 0.427028 0.914402 0.500189
2441 1 0.422156 0.899178 0.501333
2790 1 0.414189 0.913747 0.501237
2578 1 0.447836 0.896646 0.499572
2647 1 0.451792 0.907566 0.500931
2730 1 0.437504 0.907131 0.5005
3012 1 0.474737 0.892984 0.499816
2652 1 0.465064 0.90126 0.50137
138 1 0.475389 0.907901 0.500972
2657 1 0.458884 0.892213 0.501039
5239 1 0.000295912 0.91467 0.500776
2739 1 0.046005 0.920846 0.500243
2257 1 0.147675 0.918341 0.50189
2431 1 0.160524 0.918072 0.501006
2405 1 0.160625 0.929231 0.500507
1988 1 0.176629 0.925282 0.500819
2137 1 0.18901 0.917545 0.500282
2627 1 0.191605 0.930123 0.500096
2614 1 0.231431 0.924189 0.502306
2179 1 0.218615 0.928824 0.501262
2113 1 0.218497 0.913556 0.502
2204 1 0.240526 0.916239 0.50227
2430 1 0.252584 0.924314 0.503067
2116 1 0.240828 0.932704 0.502883
2429 1 0.273878 0.919125 0.502977
2340 1 0.264895 0.926062 0.502985
2338 1 0.296164 0.917726 0.503524
2168 1 0.283779 0.926148 0.5031
41 1 0.298969 0.930031 0.503261
2619 1 0.309288 0.920838 0.503037
2545 1 0.320741 0.913807 0.502912
2703 1 0.317428 0.927817 0.503655
2268 1 0.328934 0.928777 0.502997
2298 1 0.339715 0.93352 0.503724
2781 1 0.33568 0.917168 0.502923
2576 1 0.349586 0.919268 0.503101
2502 1 0.353133 0.933457 0.502668
2164 1 0.362662 0.918884 0.502074
2491 1 0.36687 0.934049 0.503022
2234 1 0.377313 0.921417 0.502541
2486 1 0.389031 0.924885 0.501937
2797 1 0.405404 0.923213 0.500914
279 1 0.417064 0.928584 0.501178
2494 1 0.429177 0.927997 0.501196
2716 1 0.441502 0.920622 0.500761
5322 1 0.440766 0.933205 0.502239
2792 1 0.45623 0.919982 0.50124
3231 1 0.455607 0.931548 0.501669
3091 1 0.466698 0.917476 0.500469
209 1 0.469854 0.933988 0.502176
2955 1 0.495473 0.931697 0.50079
2721 1 0.483351 0.922979 0.501455
2316 1 0.0336497 0.947393 0.497971
2742 1 0.0454673 0.947204 0.498818
2470 1 0.155398 0.939713 0.49839
2344 1 0.20626 0.935209 0.50018
2196 1 0.207827 0.949844 0.501036
2272 1 0.232554 0.941581 0.503349
2463 1 0.21888 0.943595 0.500919
2569 1 0.25552 0.937695 0.501967
2503 1 0.259611 0.950083 0.501511
2480 1 0.245587 0.949446 0.502278
2345 1 0.281655 0.938132 0.502676
2265 1 0.269307 0.936239 0.502024
2194 1 0.273687 0.949853 0.501278
2784 1 0.29369 0.940309 0.50256
2472 1 0.286822 0.951442 0.503174
2613 1 0.299248 0.954067 0.501708
2565 1 0.309182 0.938606 0.503314
2507 1 0.313507 0.953906 0.502168
263 1 0.323532 0.943984 0.503981
2420 1 0.336142 0.945197 0.503482
2695 1 0.338746 0.957107 0.503197
2370 1 0.351344 0.956633 0.502118
2631 1 0.348381 0.943303 0.502498
2506 1 0.361164 0.94739 0.50339
2643 1 0.381979 0.935055 0.502833
2777 1 0.373766 0.950919 0.50244
2500 1 0.387027 0.945296 0.50224
2563 1 0.398746 0.935223 0.501693
2637 1 0.399975 0.953989 0.502216
59 1 0.413638 0.942046 0.501858
2513 1 0.429851 0.940969 0.50263
5533 1 0.424816 0.952589 0.504281
3030 1 0.449609 0.941071 0.502608
2809 1 0.438635 0.950038 0.50374
3090 1 0.451525 0.955387 0.505132
2945 1 0.461333 0.947107 0.503394
5531 1 0.476816 0.949348 0.503939
5400 1 0.489751 0.94198 0.501584
2515 1 0.494141 0.953794 0.503669
2864 1 0.0496125 0.971888 0.499526
2209 1 0.101932 0.957256 0.500397
2171 1 0.117672 0.956295 0.499406
2186 1 0.121825 0.969816 0.501003
39 1 0.143387 0.976268 0.500194
2479 1 0.212543 0.963909 0.500103
2766 1 0.204468 0.972348 0.500446
2200 1 0.229181 0.957793 0.502043
2549 1 0.235018 0.973507 0.50097
2505 1 0.222585 0.971838 0.502671
2409 1 0.242128 0.963574 0.502769
2264 1 0.249294 0.97789 0.501382
2403 1 0.256005 0.965055 0.503088
2349 1 0.268274 0.960011 0.502719
2395 1 0.280579 0.963058 0.501828
2497 1 0.26753 0.972429 0.503684
2339 1 0.279758 0.974171 0.50275
40 1 0.293088 0.968186 0.503069
2692 1 0.304975 0.96755 0.501924
2645 1 0.32519 0.955173 0.503589
2496 1 0.317318 0.968783 0.501835
2573 1 0.345925 0.969025 0.502365
112 1 0.33235 0.970713 0.502445
2783 1 0.359762 0.965216 0.502935
2714 1 0.371678 0.966026 0.500947
2655 1 0.385512 0.960485 0.502542
2701 1 0.386853 0.972674 0.501913
2572 1 0.4091 0.977367 0.505353
2639 1 0.401445 0.966655 0.503039
5536 1 0.411441 0.956088 0.504296
2724 1 0.416653 0.967728 0.504964
5468 1 0.431964 0.964221 0.505488
2711 1 0.444944 0.96655 0.504735
3102 1 0.46789 0.958582 0.505021
2948 1 0.459831 0.968129 0.505482
2728 1 0.47284 0.972833 0.504679
3365 1 0.493126 0.972986 0.504713
275 1 0.483218 0.961923 0.503465
93 1 0.126442 0.993507 0.502548
2604 1 0.117958 0.982532 0.501808
2459 1 0.10943 0.992005 0.501778
2611 1 0.143243 0.995923 0.500487
2466 1 0.132366 0.979967 0.500554
2757 1 0.158824 0.99714 0.500143
2318 1 0.185065 0.992889 0.500313
2697 1 0.208006 0.989342 0.500607
2435 1 0.216754 0.982221 0.499985
2553 1 0.195297 0.984105 0.500547
2402 1 0.226872 0.98845 0.501723
2182 1 0.240073 0.988621 0.500193
2620 1 0.25014 0.994516 0.503284
2475 1 0.259964 0.984159 0.502567
2693 1 0.263947 0.996392 0.501703
2267 1 0.271351 0.985548 0.502369
2495 1 0.275892 1.00009 0.50217
2477 1 0.291965 0.999268 0.503537
2413 1 0.282824 0.989855 0.502403
2765 1 0.296638 0.982433 0.502615
2418 1 0.305421 0.993648 0.503472
195 1 0.309759 0.98174 0.502732
2640 1 0.319142 0.997316 0.503172
118 1 0.341724 0.98104 0.504029
2780 1 0.346258 0.993227 0.505549
2554 1 0.325349 0.983167 0.503175
197 1 0.357742 0.994211 0.50431
48 1 0.357544 0.982806 0.504245
2712 1 0.368893 0.979405 0.502754
2648 1 0.383705 0.985751 0.50374
2641 1 0.370673 0.992113 0.505182
2644 1 0.396034 0.99677 0.505254
114 1 0.398016 0.983338 0.504766
2588 1 0.41073 0.99036 0.506565
2791 1 0.426585 0.992395 0.505194
2810 1 0.42565 0.977346 0.505529
2873 1 0.456955 0.980817 0.506087
3235 1 0.437954 0.991848 0.504732
2874 1 0.451055 0.992192 0.504681
2722 1 0.441259 0.978892 0.50599
3160 1 0.473167 1.00007 0.505429
61 1 0.470661 0.98682 0.504511
2787 1 0.461236 0.999938 0.50451
406 1 0.486802 0.994327 0.504154
5391 1 0.498183 1.00029 0.503979
2802 1 0.48345 0.979116 0.504283
2654 1 0.499042 0.987143 0.504125
3089 1 0.640745 0.0224134 0.499653
3300 1 0.670093 0.000770723 0.498979
3315 1 0.682028 0.00707486 0.497916
3318 1 0.695362 0.0170762 0.497352
3057 1 0.697568 -0.00154762 0.495327
3605 1 0.713497 -0.0012243 0.494396
3099 1 0.706825 0.0118348 0.494997
2908 1 0.737982 0.0139097 0.49752
3185 1 0.721054 0.0121434 0.496376
5586 1 0.725646 -0.000896294 0.497331
3312 1 0.749148 0.0166327 0.498553
3058 1 0.753284 -0.000598545 0.498201
3000 1 0.762153 0.00796199 0.499862
2925 1 0.790158 0.012453 0.500293
5432 1 0.789972 -2.97411e-05 0.499964
2979 1 0.852312 0.0132732 0.500282
5594 1 0.876862 0.00470957 0.499973
5590 1 0.891981 -0.000434712 0.500409
2988 1 0.870703 0.0197017 0.499761
3055 1 0.933413 0.0045096 0.498933
5372 1 0.915436 0.00673578 0.500173
3069 1 0.924351 0.016993 0.498161
3135 1 0.949592 0.00254962 0.496979
5514 1 0.936787 0.0203944 0.499746
3 1 0.94927 0.0164972 0.497896
2990 1 0.96315 0.011293 0.496391
5599 1 0.977185 0.00815629 0.498312
355 1 0.973318 0.0209301 0.498753
144 1 0.989858 0.00415891 0.497336
229 1 0.990935 0.0184819 0.497558
3113 1 0.629027 0.0368406 0.500745
3145 1 0.659123 0.0296055 0.499051
3506 1 0.683568 0.0222639 0.49909
3442 1 0.694 0.0325699 0.50068
3534 1 0.705935 0.023658 0.498106
3121 1 0.717362 0.0236983 0.497191
3463 1 0.722006 0.0360427 0.498371
3247 1 0.733332 0.0246156 0.497061
2884 1 0.738316 0.0402411 0.499205
3201 1 0.744078 0.029119 0.498031
3335 1 0.759127 0.0340675 0.500953
3189 1 0.798516 0.0269376 0.499801
3324 1 0.861136 0.0272802 0.499574
3143 1 0.850805 0.0390392 0.500375
3123 1 0.874459 0.0359944 0.499116
3065 1 0.883418 0.0287491 0.500653
2667 1 0.891847 0.0385588 0.499511
3067 1 0.897947 0.0274565 0.499248
5460 1 0.960766 0.0262973 0.499148
3385 1 0.640767 0.0441669 0.500001
3243 1 0.653854 0.0543087 0.500393
2902 1 0.666709 0.0477432 0.499023
3327 1 0.712388 0.0477148 0.499427
3248 1 0.72669 0.0475495 0.501065
3050 1 0.882157 0.046081 0.499602
2867 1 0.871782 0.0599101 0.499256
3209 1 0.906815 0.0452658 0.500114
2854 1 0.896027 0.0531487 0.499104
3080 1 0.87663 0.0775188 0.499609
3340 1 0.983248 0.121508 0.501207
3651 1 0.670878 0.151131 0.500433
3473 1 0.784755 0.149021 0.500692
3010 1 0.926925 0.14841 0.50086
3275 1 0.999217 0.13034 0.500105
3509 1 0.650542 0.155374 0.500178
488 1 0.657342 0.166336 0.499941
3533 1 0.738867 0.171262 0.500449
3539 1 0.756507 0.171988 0.499324
3242 1 0.771132 0.155938 0.50026
3636 1 0.864083 0.159907 0.500308
3471 1 0.872138 0.169032 0.499241
3425 1 0.894341 0.159199 0.500873
2868 1 0.904458 0.164952 0.499543
3211 1 0.91608 0.170772 0.498589
3270 1 0.914835 0.155591 0.499301
3341 1 0.938338 0.173111 0.499111
3363 1 0.504148 0.19265 0.500869
3478 1 0.705058 0.184528 0.500329
3515 1 0.727814 0.179195 0.499473
3467 1 0.757014 0.196524 0.49795
3738 1 0.744765 0.183572 0.499353
3527 1 0.761956 0.182909 0.498914
3457 1 0.771609 0.194742 0.498536
3670 1 0.778735 0.179799 0.499298
3608 1 0.785523 0.192867 0.499351
3410 1 0.845294 0.176148 0.499745
3215 1 0.856571 0.176371 0.499651
3492 1 0.876682 0.192989 0.500003
3330 1 0.90018 0.176334 0.500078
3399 1 0.926582 0.17732 0.498062
283 1 0.997771 0.189178 0.498958
155 1 0.989264 0.176447 0.498182
3216 1 0.982823 0.186107 0.499432
3309 1 0.50495 0.205497 0.498752
348 1 0.519397 0.207998 0.498992
3224 1 0.530172 0.214901 0.498724
3404 1 0.720504 0.194573 0.500136
3743 1 0.751041 0.214411 0.49987
3256 1 0.743149 0.20232 0.498538
3666 1 0.763876 0.20906 0.498677
3675 1 0.778169 0.20523 0.498196
492 1 0.925413 0.217411 0.499884
3205 1 0.958038 0.206652 0.500985
3422 1 0.974508 0.201087 0.500479
3150 1 0.999284 0.206954 0.499565
154 1 0.987504 0.19829 0.499809
3291 1 0.50098 0.224592 0.498598
3927 1 0.516175 0.22005 0.499103
3711 1 0.511178 0.234953 0.4988
3782 1 0.538303 0.224979 0.500153
3924 1 0.53569 0.238409 0.498912
1118 1 0.524634 0.229333 0.49885
1030 1 0.549242 0.232757 0.500351
3545 1 0.780491 0.221451 0.500219
3444 1 0.764054 0.22217 0.499471
619 1 0.52105 0.24335 0.496844
486 1 0.508669 0.252514 0.49658
3370 1 0.501652 0.240694 0.497312
1110 1 0.521618 0.256344 0.49758
3571 1 0.534478 0.251644 0.49795
3366 1 0.543435 0.25818 0.499769
3573 1 0.549554 0.244475 0.497951
3771 1 0.85131 0.24654 0.500365
622 1 0.506168 0.264502 0.497134
979 1 0.50397 0.276915 0.498231
1117 1 0.517741 0.269571 0.498297
3432 1 0.519183 0.284064 0.499425
3791 1 0.535577 0.282363 0.500266
1044 1 0.531144 0.268892 0.499271
1182 1 0.548581 0.270915 0.498569
3781 1 0.558079 0.263822 0.498902
693 1 0.509585 0.292504 0.498554
3867 1 0.54616 0.294333 0.498329
3819 1 0.608367 0.288432 0.500372
3815 1 0.744563 0.291728 0.500073
3891 1 0.761723 0.29183 0.500118
699 1 0.514209 0.314491 0.499748
1049 1 0.503045 0.304693 0.498897
478 1 0.500041 0.321369 0.499863
1039 1 0.530538 0.321054 0.499143
1249 1 0.615932 0.321061 0.499736
3933 1 0.640036 0.318218 0.499686
3586 1 0.652657 0.32241 0.497914
3807 1 0.667071 0.32239 0.498376
3758 1 0.67749 0.312297 0.499749
4005 1 0.699689 0.32166 0.499393
3881 1 0.715963 0.317403 0.500433
767 1 0.517912 0.326489 0.498632
3789 1 0.506315 0.336299 0.49899
3804 1 0.532678 0.334123 0.500161
3935 1 0.612535 0.336996 0.500326
3993 1 0.642462 0.335002 0.499296
4089 1 0.66205 0.335439 0.498983
3732 1 0.694823 0.334143 0.500895
3942 1 0.673544 0.331961 0.499573
4303 1 0.684134 0.340048 0.499328
1115 1 0.499823 0.379007 0.499873
1329 1 0.52339 0.375717 0.499663
1254 1 0.540501 0.375775 0.499595
628 1 0.529606 0.385896 0.499806
901 1 0.509694 0.400557 0.499199
3940 1 0.522981 0.40856 0.500003
4344 1 0.51676 0.422249 0.498569
1045 1 0.530349 0.420743 0.499005
1395 1 0.538147 0.43482 0.49955
4053 1 0.922723 0.420339 0.498924
4195 1 0.922945 0.432303 0.498295
3768 1 0.934997 0.433266 0.496867
4117 1 0.947156 0.431034 0.497891
4047 1 0.938746 0.420666 0.499656
1210 1 0.971938 0.420035 0.498756
1352 1 0.958519 0.426417 0.497429
1213 1 0.995984 0.427957 0.498477
1411 1 0.982879 0.429783 0.498126
1191 1 0.997128 0.41371 0.500922
970 1 0.523706 0.433927 0.499191
3904 1 0.892314 0.454257 0.496839
1278 1 0.906054 0.449746 0.497869
4391 1 0.910089 0.436612 0.499042
4194 1 0.922429 0.44841 0.496435
4127 1 0.936109 0.445768 0.496702
1200 1 0.947905 0.442952 0.495127
4036 1 0.958157 0.454382 0.495175
1693 1 0.971257 0.447626 0.496455
1407 1 0.961143 0.441099 0.496725
1486 1 0.973528 0.434971 0.496089
4130 1 0.988996 0.441585 0.49726
1618 1 0.982654 0.453218 0.497167
4210 1 0.566887 0.475848 0.499963
3864 1 0.56522 0.460931 0.499452
1348 1 0.874962 0.476789 0.499356
3972 1 0.871543 0.46032 0.500382
4333 1 0.882784 0.463391 0.498097
4471 1 0.888012 0.476147 0.498364
3990 1 0.898839 0.46537 0.497035
4382 1 0.913688 0.461802 0.497275
4392 1 0.910067 0.476105 0.498805
4129 1 0.927027 0.461048 0.495781
1423 1 0.920735 0.473834 0.494708
4267 1 0.943294 0.456751 0.496241
4264 1 0.938739 0.468773 0.494156
1345 1 0.970637 0.461857 0.495012
3982 1 0.958318 0.469681 0.494472
1265 1 0.983359 0.467733 0.496213
1473 1 0.995519 0.45752 0.496084
1406 1 0.99847 0.473016 0.495126
4421 1 0.576622 0.484847 0.498815
4133 1 0.587791 0.490595 0.499006
4152 1 0.687972 0.497041 0.498799
4216 1 0.701408 0.495876 0.501011
4311 1 0.719194 0.49803 0.500743
4319 1 0.853579 0.498615 0.499162
4265 1 0.920699 0.502066 0.498023
4260 1 0.925459 0.490731 0.4958
4259 1 0.933519 0.480531 0.494439
4387 1 0.914287 0.487542 0.498668
4256 1 0.941071 0.490899 0.494745
1684 1 0.950174 0.478468 0.495075
4058 1 0.956313 0.494715 0.495008
1055 1 0.963095 0.484585 0.494214
4330 1 0.97168 0.494746 0.493742
1821 1 0.969961 0.477252 0.495722
4478 1 0.995743 0.489293 0.494078
4615 1 0.983806 0.482271 0.494731
5532 1 0.509077 0.00842511 0.503004
3084 1 0.52036 0.0124308 0.505285
2875 1 0.50951 0.0215925 0.504612
2878 1 0.528061 0.000897518 0.503902
3022 1 0.541477 0.00384449 0.502947
3108 1 0.533955 0.0141186 0.504094
3040 1 0.550388 0.0136114 0.503164
3032 1 0.561041 0.00342874 0.501501
2872 1 0.563389 0.0156521 0.501077
3101 1 0.575036 0.00689832 0.500627
3098 1 0.577111 0.0193436 0.502233
2822 1 0.591884 0.00410605 0.500706
3109 1 0.589753 0.0158129 0.501233
2976 1 0.605263 0.0135342 0.501243
2836 1 0.613891 0.00397781 0.500398
2847 1 0.614672 0.0214108 0.501755
5293 1 0.62561 0.0102995 0.50117
3046 1 0.639566 0.00966132 0.500277
3406 1 0.654864 0.0172006 0.49927
3245 1 0.669843 0.0148467 0.499923
5561 1 0.657822 0.00410082 0.501302
5426 1 0.777552 0.0117552 0.500638
3193 1 0.75951 0.0194451 0.500192
2934 1 0.817622 0.0112271 0.500182
3202 1 0.804316 0.0165992 0.501298
2917 1 0.828877 0.00394442 0.500258
2992 1 0.831447 0.018024 0.500813
2922 1 0.83951 0.00916072 0.501145
2929 1 0.863273 0.00713027 0.500784
5363 1 0.887719 0.0148443 0.501446
3141 1 0.912543 0.0202143 0.49943
3061 1 0.903362 0.0125078 0.498914
52 1 0.512234 0.0338742 0.504802
3163 1 0.522722 0.0264317 0.505493
3104 1 0.533855 0.0317708 0.50455
2960 1 0.521765 0.0415136 0.505732
3036 1 0.543249 0.0247711 0.503617
3371 1 0.55327 0.0322966 0.503053
3024 1 0.559678 0.0446638 0.50317
3043 1 0.564815 0.0312714 0.50257
2842 1 0.577418 0.0358146 0.502692
2830 1 0.590334 0.0437182 0.502559
2848 1 0.587064 0.0287387 0.502142
3383 1 0.602399 0.0367601 0.502432
2838 1 0.599736 0.0248897 0.504071
3114 1 0.616338 0.0347462 0.500804
2971 1 0.628694 0.0229953 0.499983
3449 1 0.643246 0.0329153 0.498841
3116 1 0.65296 0.0402422 0.498171
3259 1 0.674212 0.0328236 0.499309
3378 1 0.68412 0.0426368 0.501514
3436 1 0.707673 0.0350778 0.499711
3199 1 0.771727 0.0236284 0.501456
3261 1 0.773187 0.0381625 0.500158
3257 1 0.789761 0.0376931 0.50092
3119 1 0.785217 0.025721 0.499928
3198 1 0.806487 0.0355276 0.501673
3139 1 0.823734 0.036299 0.501892
2734 1 0.816932 0.025627 0.502376
3197 1 0.834633 0.0347973 0.501113
3077 1 0.845676 0.0249733 0.50064
2857 1 0.912166 0.0325994 0.500434
9 1 0.929293 0.0310571 0.501038
5581 1 0.934979 0.0433364 0.500894
2853 1 0.919727 0.0411297 0.5021
2389 1 0.943548 0.0301969 0.500246
5366 1 0.949929 0.039296 0.500508
3068 1 0.971277 0.0353385 0.500676
13 1 0.982495 0.0270986 0.499613
218 1 0.992983 0.0313502 0.500864
2592 1 0.98457 0.0420639 0.503144
2959 1 0.510096 0.0481458 0.505026
2962 1 0.522574 0.0543648 0.50428
3034 1 0.534322 0.0463532 0.504763
140 1 0.534224 0.0617146 0.502935
3180 1 0.545835 0.0439617 0.503374
3033 1 0.549838 0.0556307 0.503561
3171 1 0.566513 0.0616627 0.502428
3168 1 0.571177 0.0487172 0.503414
2966 1 0.582405 0.0606289 0.503956
3607 1 0.593886 0.0556163 0.502424
3179 1 0.609975 0.0600349 0.501358
3107 1 0.612566 0.0491033 0.501225
3373 1 0.626015 0.0490099 0.500589
3237 1 0.62311 0.059243 0.499783
3188 1 0.640656 0.0566661 0.499683
2895 1 0.66636 0.0631302 0.500358
3313 1 0.680559 0.0544481 0.501009
3158 1 0.693184 0.0547767 0.501315
3302 1 0.703283 0.0598516 0.500413
3172 1 0.70038 0.0449017 0.499983
3173 1 0.717313 0.0580899 0.500576
3393 1 0.72983 0.0623811 0.50281
3450 1 0.739232 0.0530536 0.50067
3673 1 0.762828 0.0617969 0.502613
3117 1 0.749419 0.0470067 0.500227
3131 1 0.784497 0.0486866 0.501812
3741 1 0.760716 0.0491579 0.501402
3255 1 0.774279 0.0561158 0.502388
2969 1 0.800043 0.0474007 0.501075
5355 1 0.79323 0.0605148 0.503226
3045 1 0.814766 0.0451525 0.502549
3118 1 0.819297 0.0577979 0.502268
2987 1 0.807763 0.0591777 0.502183
3258 1 0.832254 0.0631182 0.502884
3334 1 0.841454 0.0519393 0.501729
3521 1 0.829214 0.0506659 0.501395
3124 1 0.864674 0.0480136 0.499887
3076 1 0.854965 0.0561828 0.501448
2936 1 0.884274 0.0605813 0.499575
3136 1 0.912284 0.0585311 0.501323
5508 1 0.925836 0.0525621 0.501458
5591 1 0.935978 0.0617582 0.501406
5524 1 0.944731 0.0520777 0.500995
3003 1 0.959032 0.0489446 0.502465
75 1 0.95979 0.0619299 0.503252
5588 1 0.970816 0.0503726 0.503532
2865 1 0.973725 0.0636263 0.503203
2663 1 0.999221 0.0481914 0.502095
212 1 0.999768 0.0641151 0.502649
5596 1 0.983501 0.0535838 0.504861
3020 1 0.506637 0.0748073 0.503916
480 1 0.517981 0.0836526 0.503209
3233 1 0.515522 0.0653594 0.504061
420 1 0.52655 0.0711155 0.501656
3228 1 0.540225 0.080958 0.502001
3376 1 0.5578 0.0715214 0.502343
3096 1 0.545528 0.0694484 0.502248
3161 1 0.575708 0.0725266 0.502455
210 1 0.565768 0.0806717 0.50161
3368 1 0.598035 0.0684648 0.501455
555 1 0.587414 0.075947 0.501809
3433 1 0.607134 0.0737635 0.500817
3249 1 0.59788 0.0858935 0.500766
3042 1 0.619999 0.0716393 0.501411
3094 1 0.611402 0.0873201 0.500837
2904 1 0.634785 0.0657932 0.502415
3165 1 0.631378 0.0789576 0.501581
3093 1 0.644405 0.076233 0.502413
3439 1 0.652063 0.0845324 0.503445
3105 1 0.653104 0.0672748 0.502008
3236 1 0.660588 0.0758402 0.504081
3443 1 0.674647 0.0775337 0.501625
3364 1 0.686403 0.0662364 0.500967
3225 1 0.688517 0.079739 0.501473
3518 1 0.698747 0.0710523 0.501343
3434 1 0.711697 0.0701407 0.500441
3379 1 0.702913 0.0829249 0.502738
3320 1 0.72151 0.0784103 0.502239
3253 1 0.733676 0.0809056 0.503254
3676 1 0.745263 0.0647993 0.502114
3317 1 0.754748 0.07572 0.5016
3183 1 0.744377 0.0874624 0.502083
3186 1 0.771202 0.0705336 0.502935
3394 1 0.77739 0.0835088 0.502419
3530 1 0.782301 0.0670035 0.501651
3073 1 0.805277 0.0728241 0.502522
3196 1 0.793082 0.0768283 0.503607
3244 1 0.804341 0.0886923 0.502914
3482 1 0.818647 0.0704342 0.503407
3268 1 0.815327 0.0815123 0.502374
2863 1 0.844691 0.0685113 0.500993
3342 1 0.832334 0.0768525 0.502234
3336 1 0.85051 0.0808152 0.501773
3265 1 0.861405 0.0704952 0.500935
3066 1 0.864122 0.0836841 0.50086
2733 1 0.88952 0.0803198 0.501065
11 1 0.897347 0.0668949 0.501619
2924 1 0.898151 0.0887556 0.504235
5516 1 0.908014 0.0727755 0.501506
3134 1 0.920665 0.0679108 0.502811
3052 1 0.921269 0.0827534 0.50218
3129 1 0.931162 0.0733742 0.50049
2862 1 0.945346 0.0693812 0.501029
2930 1 0.940677 0.0815 0.502094
2935 1 0.955604 0.0779017 0.502305
2986 1 0.97397 0.0849823 0.502442
561 1 0.967276 0.0742163 0.503806
2750 1 0.983926 0.0762194 0.502297
631 1 0.987385 0.0654388 0.504082
88 1 0.995507 0.0806193 0.501893
2804 1 0.502884 0.0900221 0.503465
3174 1 0.503894 0.102281 0.503446
490 1 0.518842 0.0990524 0.50349
70 1 0.529687 0.0881542 0.50222
340 1 0.541932 0.0950104 0.501449
3167 1 0.532181 0.101112 0.503142
3170 1 0.554414 0.0882474 0.501223
485 1 0.555242 0.103034 0.499883
909 1 0.578737 0.0859131 0.502221
3156 1 0.566453 0.106126 0.500486
3722 1 0.568516 0.0935025 0.501572
3017 1 0.577731 0.103132 0.50224
681 1 0.587628 0.0941581 0.501252
618 1 0.601176 0.101574 0.501569
2799 1 0.589524 0.108559 0.502529
2947 1 0.624645 0.0894101 0.501823
3239 1 0.615817 0.102368 0.501625
3176 1 0.632399 0.100964 0.503444
3504 1 0.64043 0.0892982 0.501977
3306 1 0.645485 0.102632 0.503981
3234 1 0.655886 0.0957949 0.503642
3092 1 0.668147 0.0901355 0.502753
3437 1 0.665182 0.102686 0.503875
3250 1 0.680456 0.0902362 0.503577
3445 1 0.692115 0.104102 0.50432
3326 1 0.694224 0.0933335 0.503178
3252 1 0.679445 0.104674 0.503601
3241 1 0.704917 0.101137 0.50413
3112 1 0.714722 0.092266 0.503379
3325 1 0.729303 0.0949267 0.501873
3465 1 0.721757 0.107067 0.502209
3599 1 0.737891 0.106988 0.501707
3308 1 0.751251 0.0967655 0.501356
3581 1 0.764725 0.0869651 0.5019
3595 1 0.775577 0.0973406 0.501883
3175 1 0.763358 0.105055 0.502366
3070 1 0.78931 0.0909995 0.502637
3260 1 0.789654 0.107494 0.501659
3200 1 0.799377 0.101568 0.502528
3262 1 0.814659 0.0962973 0.503667
3184 1 0.827979 0.0889943 0.502471
3540 1 0.831287 0.100755 0.501638
3138 1 0.841553 0.0867706 0.503729
3142 1 0.847679 0.0967849 0.50144
3485 1 0.859301 0.096038 0.502752
3127 1 0.886364 0.0923875 0.501843
3279 1 0.873052 0.105849 0.503422
3144 1 0.873044 0.0927263 0.501568
3137 1 0.888211 0.10863 0.503415
5587 1 0.90153 0.104086 0.503859
5580 1 0.911616 0.0885629 0.503621
3214 1 0.922621 0.101715 0.501254
3350 1 0.929917 0.0913787 0.501977
2858 1 0.936532 0.107466 0.502349
281 1 0.941724 0.0932875 0.501522
3204 1 0.946634 0.103686 0.501833
3322 1 0.969222 0.0974016 0.501085
2 1 0.957335 0.0895201 0.502759
5597 1 0.957942 0.105353 0.499854
2735 1 0.997521 0.0933064 0.501392
5522 1 0.981214 0.10711 0.501977
3355 1 0.985451 0.0919944 0.503457
78 1 0.996295 0.106915 0.501865
3162 1 0.510049 0.120376 0.503825
3164 1 0.518544 0.110518 0.503266
344 1 0.521176 0.128643 0.503092
3011 1 0.530544 0.119119 0.502987
2943 1 0.545763 0.112523 0.501425
475 1 0.559476 0.114676 0.50314
549 1 0.547205 0.126754 0.503413
1048 1 0.561516 0.128975 0.502967
3361 1 0.575227 0.115525 0.502753
2801 1 0.574526 0.12913 0.503043
3015 1 0.587421 0.121523 0.502691
418 1 0.599547 0.118479 0.50196
3293 1 0.611835 0.113519 0.502465
3502 1 0.615456 0.127565 0.502184
3085 1 0.62794 0.125581 0.503477
3435 1 0.628399 0.113301 0.502537
3511 1 0.644471 0.116524 0.50299
839 1 0.640572 0.12806 0.50213
3438 1 0.657173 0.115571 0.503684
3535 1 0.670712 0.116549 0.503609
3575 1 0.666042 0.128295 0.502528
3505 1 0.680382 0.12302 0.502864
3374 1 0.69205 0.118849 0.502542
3311 1 0.707912 0.115441 0.502351
3238 1 0.703443 0.128371 0.503523
3454 1 0.718405 0.125277 0.50167
3677 1 0.730963 0.119519 0.502173
3387 1 0.748234 0.115678 0.501292
3447 1 0.743953 0.127303 0.503548
3048 1 0.76387 0.118002 0.502827
3396 1 0.778078 0.113989 0.501937
3381 1 0.771583 0.129658 0.502333
3811 1 0.784547 0.124699 0.501619
3356 1 0.795685 0.119969 0.503355
3480 1 0.80488 0.129086 0.503247
3391 1 0.805774 0.114921 0.503439
3267 1 0.819094 0.112195 0.503701
3765 1 0.817176 0.126792 0.503857
3132 1 0.830902 0.113994 0.502106
3276 1 0.840497 0.122879 0.502136
3532 1 0.844397 0.108896 0.502464
3122 1 0.859381 0.110812 0.50381
3415 1 0.863857 0.129995 0.503508
3337 1 0.853761 0.12171 0.503635
3401 1 0.872249 0.118306 0.502276
3333 1 0.884568 0.122263 0.501878
3125 1 0.912014 0.111857 0.503048
3002 1 0.904648 0.131559 0.500472
3271 1 0.898249 0.1184 0.502917
5446 1 0.926153 0.115578 0.501263
3004 1 0.917613 0.124876 0.501337
3194 1 0.936621 0.126039 0.500551
2937 1 0.949443 0.117127 0.501435
2940 1 0.948795 0.130557 0.50238
71 1 0.960784 0.118004 0.501261
3079 1 0.972675 0.124964 0.502144
3008 1 0.970967 0.112161 0.50143
5452 1 0.995485 0.117954 0.499548
3082 1 0.509474 0.134235 0.50511
3159 1 0.512337 0.147219 0.505083
3229 1 0.524065 0.143802 0.503974
3081 1 0.534502 0.132624 0.503427
207 1 0.535507 0.149209 0.503128
3299 1 0.555974 0.141924 0.504974
3151 1 0.54444 0.142768 0.503461
3221 1 0.569568 0.141717 0.503504
489 1 0.587284 0.134074 0.501644
3301 1 0.585551 0.1457 0.502107
3321 1 0.601371 0.132407 0.502736
3641 1 0.599699 0.144272 0.501944
3507 1 0.611929 0.141029 0.503442
3513 1 0.627127 0.138361 0.503176
3018 1 0.626771 0.150053 0.501535
976 1 0.64325 0.142868 0.500127
3583 1 0.653834 0.130178 0.500531
3431 1 0.671873 0.139541 0.501017
3522 1 0.65902 0.144408 0.50052
3095 1 0.694089 0.133293 0.501653
3667 1 0.682009 0.134851 0.501277
3585 1 0.685684 0.149177 0.500432
3251 1 0.700376 0.146236 0.501389
3382 1 0.710706 0.139647 0.503156
3601 1 0.728966 0.135773 0.501
3584 1 0.739719 0.140389 0.5024
3389 1 0.72432 0.14856 0.501682
3323 1 0.752046 0.144781 0.501724
3397 1 0.756425 0.130909 0.50287
3616 1 0.766474 0.142054 0.502631
3744 1 0.778739 0.13894 0.499956
3668 1 0.79453 0.136511 0.501924
3604 1 0.798935 0.151846 0.502145
3606 1 0.808808 0.142052 0.50396
3210 1 0.820866 0.144154 0.503318
3486 1 0.830017 0.131115 0.503176
3332 1 0.844301 0.138663 0.503181
3460 1 0.834761 0.148008 0.503368
3213 1 0.84824 0.151948 0.501583
3182 1 0.857714 0.144922 0.502266
3392 1 0.854473 0.135913 0.503547
3269 1 0.878487 0.134908 0.501754
3489 1 0.888593 0.144685 0.50027
3487 1 0.87142 0.148877 0.50246
5598 1 0.900025 0.146705 0.500503
3115 1 0.892529 0.133198 0.50097
3074 1 0.913233 0.140868 0.500495
3212 1 0.926474 0.134251 0.501454
2983 1 0.94012 0.139748 0.501639
3078 1 0.945531 0.148696 0.501713
2928 1 0.956317 0.143788 0.503239
3286 1 0.965659 0.134853 0.501887
3217 1 0.975878 0.140348 0.501802
3006 1 0.986941 0.134006 0.500011
2671 1 0.998358 0.143049 0.499732
3007 1 0.985916 0.147727 0.502519
2951 1 0.508233 0.157755 0.503306
413 1 0.515606 0.170072 0.503201
3223 1 0.524514 0.159128 0.504169
626 1 0.537493 0.162838 0.501747
280 1 0.549134 0.155154 0.504749
3851 1 0.56104 0.155698 0.503688
3501 1 0.554468 0.167129 0.50435
559 1 0.574133 0.156122 0.50213
3305 1 0.585271 0.162706 0.503609
766 1 0.569112 0.168667 0.503686
3451 1 0.598937 0.155677 0.503859
3303 1 0.606424 0.16868 0.503688
419 1 0.593364 0.171703 0.501982
3602 1 0.610473 0.155747 0.502409
3859 1 0.622293 0.163047 0.503092
3717 1 0.633583 0.173312 0.501942
3853 1 0.638092 0.158487 0.500721
902 1 0.64774 0.170612 0.501244
3574 1 0.671519 0.164821 0.50026
3246 1 0.685321 0.161766 0.500801
3655 1 0.699663 0.161581 0.499735
3579 1 0.696607 0.173742 0.500986
3468 1 0.714182 0.156598 0.501335
3737 1 0.71104 0.171029 0.50096
3525 1 0.735397 0.155153 0.502691
3405 1 0.724252 0.166661 0.501876
3464 1 0.758991 0.159395 0.501052
3461 1 0.747373 0.160376 0.500365
3398 1 0.782639 0.162594 0.500037
3528 1 0.769449 0.17156 0.500617
3400 1 0.79561 0.164669 0.501238
3749 1 0.807424 0.172009 0.503194
3557 1 0.810469 0.157511 0.503359
3329 1 0.823418 0.158334 0.503394
3126 1 0.819299 0.169224 0.502766
3314 1 0.83685 0.161631 0.501796
3479 1 0.830668 0.173833 0.502734
3419 1 0.852632 0.165136 0.500449
3347 1 0.885742 0.170224 0.500396
3128 1 0.880478 0.155859 0.500415
3414 1 0.928372 0.163349 0.499198
3633 1 0.938214 0.157488 0.500239
3133 1 0.947487 0.165115 0.50024
3343 1 0.954891 0.156354 0.503472
3353 1 0.964203 0.168691 0.501718
85 1 0.966264 0.150824 0.503605
5530 1 0.979047 0.169518 0.500866
3206 1 0.976952 0.157734 0.503429
2661 1 0.99832 0.169792 0.499943
2869 1 0.9907 0.160145 0.500544
2941 1 0.519583 0.182899 0.501937
2779 1 0.516679 0.195819 0.500867
350 1 0.504492 0.178034 0.502104
193 1 0.53197 0.173041 0.503542
692 1 0.531747 0.186145 0.501005
830 1 0.542759 0.190992 0.502699
560 1 0.548032 0.178267 0.503234
1036 1 0.555073 0.191634 0.501889
3519 1 0.575548 0.196428 0.501924
404 1 0.566799 0.181067 0.501974
3298 1 0.584046 0.180492 0.503003
3227 1 0.603579 0.183698 0.502768
3453 1 0.591763 0.189904 0.50118
974 1 0.613733 0.193559 0.50271
3925 1 0.627299 0.188294 0.502617
3650 1 0.616286 0.178241 0.503336
3226 1 0.639781 0.187159 0.503606
3510 1 0.651663 0.186284 0.504068
3854 1 0.661202 0.176112 0.502149
3516 1 0.67208 0.181641 0.501078
3166 1 0.668099 0.194288 0.501523
3647 1 0.684587 0.174406 0.501532
3883 1 0.692144 0.186242 0.501314
3386 1 0.683483 0.194702 0.502571
3459 1 0.716422 0.18275 0.500452
3537 1 0.732182 0.191417 0.500535
3612 1 0.796855 0.184546 0.501367
3192 1 0.809513 0.184366 0.502442
3536 1 0.821852 0.185108 0.501452
3349 1 0.838021 0.184964 0.501971
3494 1 0.832669 0.196058 0.500578
3273 1 0.852845 0.189691 0.501349
3565 1 0.86471 0.185078 0.500392
3555 1 0.87554 0.18052 0.500231
3470 1 0.888341 0.182375 0.500694
3338 1 0.89937 0.191807 0.499641
3352 1 0.91013 0.186377 0.500787
3705 1 0.922662 0.188738 0.5
3254 1 0.932598 0.193757 0.501177
3635 1 0.940512 0.185151 0.50019
3146 1 0.95338 0.190378 0.501301
353 1 0.955398 0.178231 0.500602
3203 1 0.96967 0.182472 0.499695
3222 1 0.529014 0.197901 0.500629
3441 1 0.554395 0.203693 0.501746
3671 1 0.542005 0.206777 0.500937
624 1 0.565545 0.208775 0.501435
3232 1 0.57771 0.212975 0.50181
3508 1 0.598884 0.202765 0.502943
1105 1 0.586959 0.204576 0.501046
3727 1 0.59871 0.216387 0.50155
3452 1 0.61865 0.215128 0.502618
1180 1 0.611268 0.205819 0.502834
3644 1 0.626619 0.203457 0.502053
769 1 0.64512 0.210471 0.502627
3380 1 0.640528 0.199621 0.503472
768 1 0.656798 0.20058 0.501799
3713 1 0.664627 0.211499 0.502187
1113 1 0.675419 0.204857 0.50224
3730 1 0.679651 0.216257 0.502317
3296 1 0.68861 0.204577 0.503218
3674 1 0.692548 0.217385 0.501635
3716 1 0.697884 0.198205 0.501639
3884 1 0.710405 0.199357 0.501013
3377 1 0.715645 0.215896 0.501247
4031 1 0.70291 0.211998 0.501453
3372 1 0.725176 0.207185 0.500364
3627 1 0.734324 0.215749 0.50194
3772 1 0.788737 0.209641 0.500437
3266 1 0.798312 0.201159 0.501358
3552 1 0.798644 0.215704 0.502053
3685 1 0.809623 0.197612 0.501527
3413 1 0.82149 0.200601 0.501191
3409 1 0.81049 0.214019 0.501891
3975 1 0.843776 0.199305 0.501397
3390 1 0.828681 0.210272 0.501843
3407 1 0.839023 0.214549 0.501905
3556 1 0.864704 0.197195 0.501705
3346 1 0.85365 0.205169 0.502207
3910 1 0.864952 0.211532 0.501997
3481 1 0.87554 0.205457 0.501738
3466 1 0.887088 0.195065 0.501746
3140 1 0.892122 0.212175 0.500214
3283 1 0.906385 0.207699 0.500883
3549 1 0.918766 0.203212 0.500531
3195 1 0.93217 0.2089 0.50046
3282 1 0.947766 0.217041 0.501469
3287 1 0.945438 0.203619 0.501357
3423 1 0.974479 0.214741 0.500623
3429 1 0.964697 0.194595 0.501377
3488 1 0.986072 0.210386 0.500307
3295 1 0.563507 0.219839 0.501963
3784 1 0.562888 0.235597 0.499544
3921 1 0.550479 0.218991 0.500906
3642 1 0.575255 0.225492 0.502064
3723 1 0.578165 0.236584 0.500758
3590 1 0.588072 0.220166 0.502231
3725 1 0.606271 0.22885 0.503307
3715 1 0.594599 0.229799 0.501509
3785 1 0.61766 0.228548 0.50352
3645 1 0.632366 0.220145 0.501722
977 1 0.649976 0.237027 0.502437
3367 1 0.64323 0.227764 0.502208
1114 1 0.630286 0.231365 0.504405
3572 1 0.669053 0.224035 0.501474
3582 1 0.652927 0.219041 0.50209
3523 1 0.66222 0.233855 0.501531
3596 1 0.681075 0.231036 0.503316
3384 1 0.693817 0.229364 0.502228
3462 1 0.705292 0.225132 0.502769
3339 1 0.71365 0.23325 0.502582
3739 1 0.7251 0.225756 0.502156
3718 1 0.730837 0.236758 0.501228
3745 1 0.757979 0.232938 0.499871
3622 1 0.744616 0.228678 0.500164
3543 1 0.772506 0.234221 0.500209
3388 1 0.792652 0.228417 0.501261
3625 1 0.799412 0.240525 0.501362
3553 1 0.818988 0.221651 0.502635
3614 1 0.81981 0.234991 0.502309
3611 1 0.807968 0.227976 0.500814
3541 1 0.835019 0.237572 0.501834
3802 1 0.846567 0.227637 0.500355
3615 1 0.832765 0.226103 0.501612
3554 1 0.852983 0.217108 0.50181
3703 1 0.865027 0.223999 0.501901
3219 1 0.85638 0.236025 0.502187
3354 1 0.872448 0.234216 0.503375
3837 1 0.878666 0.220783 0.502054
3693 1 0.890672 0.235087 0.501787
3147 1 0.913409 0.223335 0.501171
3420 1 0.900358 0.226704 0.501172
3290 1 0.915091 0.237513 0.503289
3603 1 0.936424 0.222583 0.501965
3357 1 0.92518 0.227354 0.503603
73 1 0.938084 0.235494 0.504605
422 1 0.949608 0.232111 0.502803
3566 1 0.970393 0.233279 0.501555
3071 1 0.959191 0.224153 0.500659
497 1 1.00021 0.230009 0.501732
3706 1 0.98826 0.236108 0.502553
3351 1 0.994169 0.219872 0.50168
3345 1 0.980801 0.225254 0.501797
1257 1 0.55879 0.251624 0.499861
3577 1 0.56861 0.246579 0.500487
3580 1 0.583132 0.248298 0.501285
3809 1 0.585696 0.260311 0.501346
3576 1 0.59699 0.254514 0.501588
1255 1 0.597099 0.242358 0.50091
3512 1 0.621848 0.242149 0.502828
3440 1 0.610677 0.24443 0.502304
1181 1 0.6202 0.256539 0.502627
1190 1 0.647388 0.253316 0.502545
3469 1 0.632849 0.257383 0.502367
3600 1 0.636186 0.244543 0.504037
3672 1 0.659077 0.247558 0.501047
3663 1 0.673252 0.255092 0.503855
3790 1 0.662928 0.259417 0.501027
3652 1 0.67496 0.240825 0.502169
3514 1 0.689035 0.243408 0.503927
3720 1 0.687498 0.259165 0.503369
3474 1 0.70381 0.241338 0.503855
1184 1 0.711144 0.252444 0.503606
3458 1 0.698749 0.255379 0.504254
3679 1 0.731234 0.250274 0.502091
3520 1 0.719324 0.244481 0.503283
3660 1 0.720918 0.260007 0.50212
3531 1 0.748321 0.256989 0.501236
3411 1 0.742746 0.241936 0.501755
3618 1 0.762828 0.247724 0.50075
3879 1 0.774572 0.248172 0.502046
3747 1 0.771547 0.260708 0.501043
3748 1 0.784893 0.239416 0.502197
3695 1 0.792407 0.249747 0.501334
3402 1 0.802547 0.25659 0.501634
4251 1 0.784439 0.259235 0.502426
4048 1 0.81069 0.245579 0.502477
3475 1 0.816642 0.258412 0.503237
3903 1 0.82316 0.247231 0.501775
3892 1 0.840498 0.24821 0.501397
3902 1 0.831095 0.256697 0.502363
3551 1 0.864824 0.243911 0.501895
3278 1 0.864509 0.255721 0.503267
3403 1 0.85304 0.257939 0.501724
3830 1 0.878348 0.247415 0.50358
3613 1 0.904781 0.243308 0.502913
775 1 0.892965 0.251269 0.503901
3484 1 0.905005 0.253861 0.502993
912 1 0.918459 0.253932 0.505233
3348 1 0.927108 0.240202 0.503867
3272 1 0.932276 0.253589 0.504049
3767 1 0.945608 0.249357 0.504427
848 1 0.959384 0.241001 0.502982
3424 1 0.975447 0.247632 0.501929
843 1 0.958706 0.25482 0.50312
635 1 0.993787 0.246355 0.501955
634 1 0.985648 0.257196 0.50369
3786 1 0.561344 0.274712 0.500503
3665 1 0.581828 0.274411 0.500574
978 1 0.570533 0.262212 0.501992
1185 1 0.604545 0.264215 0.500166
3833 1 0.593465 0.270765 0.501028
3939 1 0.592808 0.283285 0.501091
3643 1 0.606283 0.274863 0.502705
3812 1 0.618994 0.281391 0.502087
4215 1 0.617348 0.268059 0.50233
1176 1 0.629758 0.270334 0.501616
3662 1 0.637427 0.28082 0.501448
3653 1 0.644657 0.268888 0.501234
4011 1 0.65597 0.266489 0.502149
3869 1 0.672607 0.268294 0.50244
3813 1 0.66456 0.280057 0.502123
3375 1 0.687184 0.275834 0.502332
3589 1 0.699707 0.269554 0.502574
3598 1 0.710886 0.268204 0.503278
3734 1 0.713306 0.281932 0.501723
3742 1 0.701455 0.281636 0.502175
3817 1 0.724546 0.273642 0.501027
3587 1 0.733035 0.26396 0.502769
3316 1 0.737107 0.279498 0.501342
3493 1 0.758386 0.264527 0.500729
3688 1 0.747822 0.270986 0.5012
3687 1 0.754992 0.282099 0.500816
3814 1 0.765487 0.275082 0.501316
3408 1 0.778869 0.271561 0.50152
3770 1 0.792528 0.26619 0.501321
3761 1 0.804522 0.269715 0.502266
3472 1 0.817719 0.270922 0.50342
3760 1 0.830297 0.267254 0.502717
3620 1 0.842157 0.260965 0.502335
3686 1 0.839357 0.278951 0.50197
3542 1 0.824584 0.280679 0.503341
3754 1 0.852441 0.271554 0.502929
3491 1 0.863556 0.270338 0.503664
3558 1 0.880248 0.260834 0.504246
3264 1 0.877576 0.274841 0.504563
3477 1 0.892845 0.26526 0.504053
3416 1 0.905283 0.266759 0.504323
3544 1 0.89132 0.277839 0.504896
3285 1 0.917177 0.266524 0.503502
708 1 0.929215 0.270199 0.504578
3344 1 0.916289 0.278291 0.504562
3697 1 0.948797 0.261484 0.504136
3562 1 0.940652 0.270762 0.503798
3427 1 0.951834 0.27901 0.504779
217 1 0.958713 0.26913 0.504563
3634 1 0.971119 0.260809 0.503417
3841 1 0.969704 0.277372 0.503593
919 1 0.981675 0.271855 0.504938
3284 1 0.993256 0.265786 0.504942
568 1 0.995137 0.282352 0.505976
1047 1 0.519913 0.298546 0.499566
1041 1 0.532615 0.295909 0.499823
3795 1 0.560417 0.291618 0.499949
1050 1 0.548105 0.282757 0.499982
3656 1 0.572782 0.298821 0.501732
3728 1 0.584411 0.292706 0.500612
905 1 0.574116 0.286184 0.50082
1187 1 0.596805 0.295684 0.501732
3669 1 0.630774 0.291687 0.502211
3880 1 0.608491 0.302863 0.502204
3958 1 0.619551 0.29586 0.501846
3646 1 0.648921 0.285953 0.501235
3733 1 0.642121 0.297707 0.501968
3719 1 0.658047 0.296966 0.501745
3648 1 0.670521 0.298576 0.50157
4008 1 0.68172 0.299663 0.502611
3621 1 0.692421 0.289446 0.50419
3538 1 0.677031 0.287218 0.501755
3448 1 0.694649 0.302579 0.501471
3691 1 0.707928 0.292365 0.501766
3680 1 0.724018 0.285819 0.50173
3751 1 0.717653 0.301493 0.500257
3700 1 0.732648 0.297154 0.501305
4101 1 0.751473 0.301021 0.500372
3578 1 0.773746 0.28527 0.501897
3828 1 0.777457 0.300016 0.501839
3974 1 0.765577 0.302965 0.501197
4029 1 0.79906 0.283136 0.502443
3756 1 0.786495 0.282239 0.501729
3597 1 0.789651 0.29559 0.503352
3777 1 0.803332 0.298631 0.502514
3956 1 0.81111 0.284716 0.504063
3821 1 0.815776 0.295624 0.502308
3752 1 0.838607 0.290747 0.50363
3689 1 0.828709 0.295517 0.503257
3610 1 0.865397 0.286631 0.504337
3631 1 0.849181 0.299624 0.503779
3681 1 0.851414 0.284098 0.504415
3973 1 0.865325 0.29929 0.503939
984 1 0.879848 0.288751 0.503567
3559 1 0.889214 0.29674 0.503253
3547 1 0.904414 0.281943 0.504575
3617 1 0.901156 0.296062 0.504057
3704 1 0.928526 0.285944 0.504845
3776 1 0.914548 0.292654 0.504725
3483 1 0.941092 0.286101 0.504883
987 1 0.935807 0.302596 0.505775
3779 1 0.952525 0.294783 0.503559
3846 1 0.961917 0.285856 0.504059
1056 1 0.966745 0.296527 0.505213
429 1 0.977226 0.286714 0.505236
3430 1 0.981015 0.30215 0.504649
3839 1 0.99025 0.293135 0.505437
3797 1 0.525405 0.309079 0.49999
968 1 0.540082 0.306878 0.499893
3793 1 0.565656 0.307112 0.501958
3529 1 0.554883 0.317492 0.500192
3788 1 0.543772 0.323464 0.499824
698 1 0.55344 0.30434 0.501363
3931 1 0.584462 0.307284 0.499975
3860 1 0.56629 0.322483 0.500241
3588 1 0.575603 0.315501 0.501772
3872 1 0.596023 0.307227 0.501762
3517 1 0.588763 0.318461 0.500863
1183 1 0.603461 0.31769 0.501056
3455 1 0.628147 0.320979 0.499499
4004 1 0.619883 0.308825 0.499733
1112 1 0.631939 0.306883 0.500258
3736 1 0.651458 0.30844 0.500795
3890 1 0.66399 0.311103 0.500409
3546 1 0.684038 0.324796 0.500674
3593 1 0.690286 0.314889 0.501077
3866 1 0.704903 0.310322 0.499836
3657 1 0.726963 0.310726 0.500756
3969 1 0.735524 0.32114 0.50011
3965 1 0.750017 0.318528 0.501057
3889 1 0.740373 0.308489 0.500479
3456 1 0.762125 0.314429 0.502335
3967 1 0.7775 0.316812 0.503414
3980 1 0.788322 0.311326 0.502787
3895 1 0.800657 0.311489 0.502595
3684 1 0.79522 0.327797 0.504899
3832 1 0.810138 0.322585 0.502435
3899 1 0.816894 0.3106 0.502985
3750 1 0.82692 0.321146 0.503777
3905 1 0.828046 0.30858 0.503056
3759 1 0.841285 0.311008 0.504495
4125 1 0.841567 0.322185 0.503582
3908 1 0.852813 0.310743 0.505005
3731 1 0.865729 0.313456 0.504471
3609 1 0.857705 0.32565 0.505133
774 1 0.87603 0.304534 0.502339
3696 1 0.870634 0.326458 0.504812
3912 1 0.881512 0.313847 0.505732
3561 1 0.893205 0.312434 0.504462
3985 1 0.901652 0.325264 0.505576
3417 1 0.907786 0.309115 0.503694
3981 1 0.917765 0.319755 0.504153
3916 1 0.922185 0.303145 0.504521
499 1 0.931345 0.318335 0.504919
3548 1 0.942583 0.314899 0.505512
3774 1 0.954406 0.321434 0.50442
3626 1 0.951346 0.305192 0.504976
3280 1 0.965761 0.321437 0.504048
3490 1 0.965212 0.308884 0.504024
566 1 0.976951 0.318028 0.50712
4059 1 0.988309 0.312732 0.507434
4183 1 0.996361 0.324283 0.507248
3998 1 0.520535 0.341028 0.499841
3810 1 0.545045 0.340597 0.500577
3721 1 0.554308 0.32964 0.500883
1326 1 0.556278 0.343153 0.502645
3878 1 0.566007 0.336357 0.501236
3661 1 0.579588 0.326444 0.500932
3954 1 0.578067 0.339437 0.500458
3783 1 0.601679 0.330561 0.499557
3855 1 0.589961 0.332946 0.500879
3994 1 0.60166 0.346326 0.501763
3524 1 0.626181 0.333323 0.500675
3894 1 0.670963 0.346015 0.500146
4205 1 0.653843 0.344144 0.501631
3818 1 0.710314 0.327949 0.500079
4014 1 0.714334 0.338931 0.500059
3658 1 0.700919 0.344529 0.500011
3901 1 0.724302 0.327539 0.499914
3619 1 0.726071 0.346646 0.500357
3961 1 0.733039 0.334669 0.502017
4035 1 0.739905 0.347882 0.50146
3678 1 0.744907 0.330602 0.50301
4307 1 0.75293 0.345238 0.50318
3900 1 0.761487 0.333181 0.503117
4038 1 0.775098 0.339274 0.504022
3977 1 0.765391 0.349634 0.503769
4328 1 0.78345 0.327629 0.50403
3826 1 0.789594 0.341173 0.504149
4169 1 0.803801 0.337355 0.504201
3764 1 0.818207 0.333539 0.504261
3694 1 0.825059 0.346698 0.503787
1122 1 0.83264 0.334794 0.504004
3769 1 0.846496 0.337309 0.505598
3987 1 0.86401 0.341753 0.504
3701 1 0.887965 0.328808 0.505777
3412 1 0.876869 0.340203 0.504515
4034 1 0.897534 0.337909 0.505122
3496 1 0.913717 0.335107 0.504064
3628 1 0.929988 0.334365 0.50415
3699 1 0.922768 0.346494 0.502847
4050 1 0.941716 0.329237 0.504594
3825 1 0.950969 0.337244 0.505225
3550 1 0.939818 0.345275 0.504345
3780 1 0.964615 0.334092 0.504847
3426 1 0.976145 0.341195 0.504572
1065 1 0.98301 0.32958 0.506857
3778 1 0.993249 0.338899 0.508676
967 1 0.506527 0.352814 0.499527
1097 1 0.522513 0.361414 0.500373
906 1 0.508431 0.367395 0.50082
3874 1 0.530622 0.348664 0.501093
1325 1 0.542736 0.354704 0.501558
3714 1 0.536271 0.364401 0.501395
770 1 0.551164 0.369729 0.500885
3941 1 0.553988 0.356372 0.50171
3659 1 0.562933 0.367047 0.500805
4132 1 0.575804 0.364098 0.501561
910 1 0.566046 0.351739 0.502164
4204 1 0.576694 0.352298 0.500654
3992 1 0.589523 0.350707 0.502248
1313 1 0.592832 0.364418 0.501773
3862 1 0.60764 0.361732 0.500884
3592 1 0.622862 0.364095 0.502536
3787 1 0.618696 0.350698 0.500767
4010 1 0.636779 0.36125 0.500308
3871 1 0.650495 0.366758 0.500928
3446 1 0.633941 0.347184 0.502132
4074 1 0.663738 0.357081 0.502649
3682 1 0.674163 0.370144 0.504059
3964 1 0.688921 0.350798 0.50138
3729 1 0.677882 0.356555 0.500822
3943 1 0.688153 0.363196 0.501955
3801 1 0.710811 0.35081 0.500823
4002 1 0.70077 0.356794 0.501614
3683 1 0.713225 0.365703 0.501635
3746 1 0.721613 0.357235 0.501
3822 1 0.734765 0.360638 0.501425
3664 1 0.753117 0.358601 0.503692
4040 1 0.755183 0.371211 0.503116
3823 1 0.741977 0.369166 0.502616
3829 1 0.778731 0.354994 0.504911
3893 1 0.768104 0.362984 0.503809
3953 1 0.797841 0.353318 0.503182
3955 1 0.789915 0.362612 0.505356
1198 1 0.81096 0.349604 0.504836
3762 1 0.806834 0.363399 0.504888
3963 1 0.821377 0.358403 0.506061
3835 1 0.834121 0.358015 0.504668
4049 1 0.837902 0.347919 0.504793
4108 1 0.84636 0.3624 0.503826
3690 1 0.853858 0.353158 0.505219
3827 1 0.866068 0.365487 0.503295
3763 1 0.886334 0.351326 0.504553
3476 1 0.870228 0.354357 0.504405
3753 1 0.879206 0.364605 0.505654
1262 1 0.898212 0.357575 0.504826
4054 1 0.906212 0.347441 0.503688
3834 1 0.906309 0.369431 0.504095
3911 1 0.925688 0.363732 0.503519
3907 1 0.915726 0.355226 0.504399
847 1 0.941259 0.365419 0.503553
772 1 0.95259 0.356023 0.504903
1343 1 0.954232 0.368967 0.503428
781 1 0.965362 0.350605 0.50512
3906 1 0.967753 0.368336 0.503622
1054 1 0.978276 0.355716 0.5052
983 1 0.988505 0.348737 0.506249
571 1 0.99284 0.360249 0.504824
3591 1 0.511052 0.383468 0.501108
4071 1 0.542206 0.389918 0.500103
3996 1 0.560542 0.37902 0.501268
1046 1 0.556405 0.390875 0.501565
3938 1 0.572212 0.381212 0.502021
3740 1 0.585514 0.375643 0.502028
1244 1 0.600437 0.37546 0.501909
1161 1 0.600277 0.387662 0.502499
4134 1 0.589157 0.389422 0.501508
3863 1 0.612919 0.37471 0.503386
1040 1 0.614853 0.386175 0.501946
3870 1 0.625365 0.379832 0.501623
1189 1 0.648767 0.381971 0.50169
4032 1 0.637643 0.37278 0.502002
3735 1 0.636259 0.387571 0.502988
4083 1 0.659546 0.38419 0.503374
3796 1 0.661656 0.371998 0.502872
4209 1 0.67267 0.384949 0.50309
3946 1 0.68559 0.376318 0.504255
4356 1 0.690784 0.3899 0.504509
4000 1 0.699097 0.371079 0.502401
4009 1 0.708176 0.382095 0.502778
4296 1 0.72261 0.372664 0.501791
4026 1 0.730745 0.382083 0.50315
4158 1 0.739112 0.390684 0.504267
4373 1 0.745327 0.381234 0.502944
4177 1 0.755095 0.389798 0.505007
4094 1 0.7629 0.379535 0.50418
4167 1 0.778113 0.373534 0.503598
3873 1 0.773341 0.387304 0.505376
3959 1 0.789667 0.381957 0.504888
3885 1 0.796994 0.37223 0.505228
4237 1 0.803451 0.382128 0.505448
4255 1 0.812628 0.373161 0.506865
4192 1 0.820025 0.382529 0.507166
3971 1 0.828866 0.370067 0.50555
3630 1 0.841066 0.372685 0.505127
4104 1 0.833166 0.383274 0.506038
3757 1 0.84478 0.386161 0.506174
4045 1 0.855891 0.371067 0.504795
849 1 0.857921 0.387219 0.503779
4043 1 0.868708 0.377286 0.503842
3838 1 0.88271 0.376586 0.503013
3707 1 0.875205 0.388472 0.503939
1121 1 0.891947 0.370324 0.504318
3692 1 0.899452 0.384183 0.502248
570 1 0.91204 0.385982 0.501848
3847 1 0.916888 0.372328 0.502927
3986 1 0.924478 0.386647 0.50336
3917 1 0.932852 0.378775 0.502616
842 1 0.947672 0.380837 0.502462
3989 1 0.963242 0.37898 0.503041
981 1 0.976199 0.382286 0.503635
841 1 0.983192 0.372305 0.505886
4052 1 0.990682 0.382683 0.502771
1178 1 0.501771 0.394093 0.50132
834 1 0.519029 0.394116 0.500791
1248 1 0.506187 0.411841 0.499943
3594 1 0.540174 0.405294 0.500178
1440 1 0.531947 0.398033 0.501092
1109 1 0.555251 0.406306 0.501758
899 1 0.582061 0.402708 0.501592
900 1 0.577441 0.390515 0.50386
1245 1 0.567184 0.398124 0.502869
3654 1 0.569904 0.409125 0.501002
3991 1 0.595465 0.403349 0.501839
1320 1 0.623171 0.39507 0.501787
4061 1 0.610015 0.398449 0.501741
1116 1 0.619712 0.407572 0.501908
4073 1 0.633382 0.400965 0.502709
3861 1 0.6433 0.404344 0.504387
3526 1 0.650834 0.394248 0.503358
4286 1 0.66407 0.397195 0.504023
3951 1 0.659629 0.409997 0.503474
4018 1 0.672947 0.408335 0.50456
3726 1 0.681567 0.398438 0.503103
4095 1 0.706328 0.39664 0.504401
4030 1 0.697556 0.405257 0.504824
4092 1 0.713767 0.405545 0.504579
4088 1 0.72217 0.392229 0.503501
4649 1 0.729587 0.402508 0.503717
3886 1 0.745914 0.40204 0.503944
4512 1 0.760451 0.402816 0.503089
4121 1 0.770618 0.401588 0.504971
4037 1 0.795952 0.393893 0.503968
3962 1 0.782149 0.393458 0.504531
4157 1 0.797896 0.408211 0.504927
3876 1 0.782596 0.408626 0.505242
4316 1 0.810213 0.394499 0.506212
3970 1 0.808585 0.406716 0.506327
4223 1 0.82215 0.396597 0.507228
4236 1 0.821246 0.408381 0.506681
4056 1 0.83392 0.40017 0.505844
4057 1 0.847914 0.402616 0.503854
4042 1 0.864552 0.399117 0.504937
4454 1 0.889078 0.392718 0.502407
3979 1 0.871289 0.412209 0.50382
3624 1 0.879743 0.404041 0.501744
4122 1 0.891136 0.405498 0.501544
4198 1 0.90527 0.401625 0.502127
3978 1 0.914124 0.411884 0.500479
4123 1 0.916263 0.398681 0.502316
1123 1 0.929267 0.407123 0.501187
4111 1 0.945008 0.405439 0.501511
3710 1 0.938914 0.392788 0.502075
1337 1 0.950666 0.395739 0.502727
1349 1 0.9595 0.407027 0.499632
4191 1 0.973658 0.406683 0.501416
4263 1 0.961734 0.391958 0.503733
3914 1 0.973624 0.394552 0.502247
1005 1 0.985445 0.39301 0.503418
1272 1 0.98584 0.405031 0.50124
3856 1 0.504757 0.427419 0.500797
4202 1 0.541746 0.41694 0.500964
4271 1 0.548893 0.425657 0.499158
1175 1 0.559782 0.418724 0.500391
1321 1 0.558101 0.432362 0.500207
1120 1 0.584844 0.432088 0.502346
4426 1 0.570221 0.42385 0.503414
4425 1 0.608876 0.416275 0.501628
980 1 0.588872 0.418605 0.501184
1103 1 0.596514 0.426687 0.503072
1327 1 0.608861 0.430839 0.503103
4142 1 0.622328 0.419544 0.502586
4412 1 0.621727 0.434528 0.501597
3865 1 0.635816 0.413547 0.502268
3800 1 0.634302 0.429245 0.503019
3944 1 0.646552 0.41928 0.502956
4149 1 0.657456 0.426806 0.502755
4148 1 0.668896 0.422664 0.502477
4020 1 0.682109 0.418196 0.504037
4017 1 0.687248 0.435703 0.503104
4298 1 0.697939 0.423867 0.502776
4309 1 0.710158 0.416586 0.503375
3649 1 0.708532 0.429638 0.504719
3897 1 0.729347 0.413155 0.503786
1398 1 0.720961 0.420569 0.50465
4021 1 0.732278 0.424868 0.504035
3805 1 0.741966 0.412937 0.50249
4033 1 0.746631 0.425597 0.503936
4013 1 0.754887 0.415139 0.504785
3831 1 0.754313 0.435507 0.503185
3950 1 0.769213 0.416831 0.504039
3877 1 0.762797 0.426615 0.503674
3836 1 0.780448 0.423777 0.504092
3896 1 0.772405 0.433934 0.505598
4153 1 0.794955 0.422413 0.504815
3820 1 0.788875 0.43368 0.503353
4041 1 0.8139 0.418161 0.505867
4245 1 0.806947 0.427721 0.504606
3806 1 0.821853 0.428257 0.504973
4456 1 0.83226 0.414709 0.506494
4128 1 0.843483 0.423579 0.504529
4247 1 0.834911 0.434018 0.504877
3755 1 0.857246 0.412728 0.504769
4044 1 0.858108 0.425699 0.505163
4180 1 0.8886 0.418667 0.502521
4174 1 0.871976 0.424525 0.503617
3957 1 0.881893 0.43257 0.502787
3882 1 0.911478 0.424033 0.499698
3952 1 0.902547 0.416384 0.501989
3988 1 0.899501 0.429981 0.501437
1339 1 0.953556 0.41652 0.499786
1415 1 0.983619 0.417627 0.50014
1246 1 0.51085 0.438399 0.499684
4212 1 0.500679 0.445281 0.501667
1323 1 0.517514 0.448924 0.500416
1378 1 0.528821 0.448163 0.500367
3923 1 0.538782 0.455157 0.501074
1604 1 0.547698 0.443494 0.49987
4497 1 0.561888 0.445045 0.501075
4348 1 0.554622 0.457607 0.50262
1104 1 0.571372 0.4526 0.501304
908 1 0.570981 0.438035 0.501177
4422 1 0.584396 0.446437 0.501252
1399 1 0.597082 0.440644 0.502597
1171 1 0.595621 0.45268 0.500773
3928 1 0.621219 0.446091 0.5011
3858 1 0.610286 0.447332 0.502014
3948 1 0.643434 0.437453 0.501757
4006 1 0.632641 0.443177 0.501894
4066 1 0.645723 0.451466 0.501823
3929 1 0.670795 0.450103 0.500539
4431 1 0.656674 0.442698 0.501345
4448 1 0.669575 0.438108 0.502564
4217 1 0.684508 0.448338 0.501806
4376 1 0.699603 0.440294 0.502858
4246 1 0.712234 0.446884 0.504249
4097 1 0.697005 0.451468 0.501575
3808 1 0.724405 0.436926 0.504134
4012 1 0.733905 0.446244 0.503727
4524 1 0.749248 0.455625 0.502909
4025 1 0.738022 0.435655 0.503046
3792 1 0.747966 0.445043 0.50393
4241 1 0.774689 0.456732 0.503812
4600 1 0.761263 0.455102 0.503385
4109 1 0.763679 0.443327 0.504061
3966 1 0.778512 0.443817 0.504506
3875 1 0.802135 0.438702 0.503192
4096 1 0.795678 0.448445 0.504695
4190 1 0.814038 0.436772 0.5056
4147 1 0.823374 0.445158 0.504643
4171 1 0.810689 0.45273 0.504249
4165 1 0.839281 0.446065 0.506226
4243 1 0.850018 0.438255 0.503515
4258 1 0.850916 0.452578 0.504427
4046 1 0.863596 0.450535 0.501485
4184 1 0.86847 0.439034 0.503215
4164 1 0.878089 0.446023 0.500457
1331 1 0.893681 0.440942 0.499925
3712 1 0.503564 0.459026 0.501919
1470 1 0.511358 0.469231 0.502678
1111 1 0.524737 0.46148 0.501254
3995 1 0.532561 0.47196 0.501215
4283 1 0.556282 0.471335 0.499994
4063 1 0.544733 0.466519 0.50006
4352 1 0.580362 0.472298 0.499797
1317 1 0.582189 0.459668 0.499919
4201 1 0.605425 0.464258 0.501948
1379 1 0.593383 0.466752 0.500167
3857 1 0.616939 0.471705 0.502402
4131 1 0.619995 0.458015 0.502017
4155 1 0.629867 0.471202 0.502832
4003 1 0.645762 0.465213 0.502806
4081 1 0.631831 0.455929 0.500492
4211 1 0.654836 0.47151 0.50153
4144 1 0.656787 0.456881 0.502691
3934 1 0.667884 0.46579 0.501848
4166 1 0.690303 0.475679 0.500148
4099 1 0.676822 0.476513 0.500961
3926 1 0.681978 0.460051 0.501836
3816 1 0.694942 0.463746 0.502735
4451 1 0.702708 0.472883 0.500953
4168 1 0.707258 0.459294 0.503198
4651 1 0.715891 0.472399 0.501646
4154 1 0.721878 0.458894 0.502642
4252 1 0.738285 0.457878 0.502375
4317 1 0.729747 0.468524 0.502348
4105 1 0.760731 0.469275 0.502183
4308 1 0.745164 0.468982 0.502614
3888 1 0.772707 0.468255 0.50356
4599 1 0.786548 0.469625 0.503812
4817 1 0.799971 0.464391 0.504444
4329 1 0.788245 0.457217 0.505418
3824 1 0.822727 0.462291 0.504587
3887 1 0.812515 0.468772 0.505252
4304 1 0.839036 0.47152 0.501011
4107 1 0.834877 0.459946 0.505186
4327 1 0.82713 0.477419 0.50308
4262 1 0.859865 0.467362 0.500916
4238 1 0.847848 0.465441 0.503599
4715 1 0.518515 0.477021 0.501797
1461 1 0.510486 0.4873 0.502238
3930 1 0.543231 0.479445 0.500632
1389 1 0.53173 0.485191 0.501841
4231 1 0.522156 0.49359 0.503789
4019 1 0.547198 0.49248 0.501831
4007 1 0.554315 0.483253 0.499622
4067 1 0.565133 0.490002 0.499295
1330 1 0.60803 0.478091 0.500899
3937 1 0.592426 0.47829 0.499593
4273 1 0.600722 0.489949 0.500716
4509 1 0.617488 0.490681 0.501046
4163 1 0.624554 0.482803 0.501096
4079 1 0.650229 0.489959 0.499884
4140 1 0.641746 0.479524 0.502195
4853 1 0.634185 0.489981 0.500263
4489 1 0.641824 0.499554 0.501396
3794 1 0.666381 0.486141 0.499869
4076 1 0.681403 0.48741 0.500499
4015 1 0.69557 0.486288 0.501152
3949 1 0.707749 0.484914 0.501847
4301 1 0.73361 0.491718 0.503087
4297 1 0.723295 0.481893 0.50217
4313 1 0.737526 0.479104 0.502827
4176 1 0.756493 0.493324 0.503792
4295 1 0.753624 0.479984 0.503899
4530 1 0.745069 0.490332 0.50269
4374 1 0.776754 0.49444 0.503146
4312 1 0.767596 0.48461 0.50309
4331 1 0.779107 0.482701 0.502188
4526 1 0.788564 0.498282 0.502829
1544 1 0.791155 0.482819 0.503676
4172 1 0.801779 0.475762 0.505022
4310 1 0.808246 0.495496 0.503557
4110 1 0.822989 0.489449 0.503643
4173 1 0.813437 0.480822 0.504035
4039 1 0.834225 0.496473 0.501696
4250 1 0.838999 0.486213 0.502594
1268 1 0.868426 0.496396 0.500521
4188 1 0.851039 0.482882 0.501497
4266 1 0.863003 0.482088 0.502517
4178 1 0.88144 0.488448 0.501745
4249 1 0.891055 0.492221 0.499809
4473 1 0.905185 0.499422 0.498833
1547 1 0.898196 0.48412 0.500163
1609 1 0.584487 0.508961 0.499891
4203 1 0.601892 0.519754 0.498937
4135 1 0.596184 0.502025 0.49863
4779 1 0.610307 0.503541 0.499695
4278 1 0.618644 0.515145 0.49829
4156 1 0.635673 0.512712 0.500129
4291 1 0.64447 0.520635 0.499459
4075 1 0.649874 0.507249 0.499066
4226 1 0.658183 0.517843 0.499801
4436 1 0.668137 0.513294 0.499136
4069 1 0.659381 0.499417 0.499828
4001 1 0.681322 0.514815 0.49781
4229 1 0.699796 0.520835 0.4992
4357 1 0.713155 0.518545 0.498438
4159 1 0.724228 0.511294 0.499525
4112 1 0.841842 0.505902 0.499091
3968 1 0.846062 0.518828 0.498937
4115 1 0.885558 0.521077 0.498406
1408 1 0.899619 0.516999 0.497889
1477 1 0.893748 0.505896 0.499387
4124 1 0.912076 0.510754 0.498403
1542 1 0.924765 0.515423 0.498285
1413 1 0.932507 0.505725 0.496269
4120 1 0.945728 0.508656 0.495903
1338 1 0.937519 0.520687 0.496606
4386 1 0.958979 0.520561 0.496001
1346 1 0.963491 0.505919 0.494246
1335 1 0.97654 0.512798 0.495334
1896 1 0.984327 0.500249 0.493429
1404 1 0.992101 0.5116 0.494094
1755 1 1.00004 0.504168 0.493007
4065 1 0.565576 0.523 0.501462
3999 1 0.566101 0.534928 0.500324
4433 1 0.577847 0.523115 0.499837
4275 1 0.579572 0.53854 0.499584
4143 1 0.591436 0.527618 0.499065
4435 1 0.590696 0.542216 0.498738
1258 1 0.614022 0.528594 0.498805
4350 1 0.630751 0.52332 0.498731
3868 1 0.642175 0.536322 0.500072
3936 1 0.67132 0.527571 0.500301
4150 1 0.688325 0.526511 0.500261
4445 1 0.724058 0.536966 0.500136
4196 1 0.835494 0.5377 0.499552
4452 1 0.84768 0.532099 0.49871
4113 1 0.860778 0.526086 0.49835
4093 1 0.85918 0.540121 0.499821
4521 1 0.869847 0.536931 0.498778
4126 1 0.908303 0.538291 0.499083
4546 1 0.910811 0.524859 0.498323
4390 1 0.898343 0.527704 0.497858
4598 1 0.92527 0.528825 0.497563
4690 1 0.947848 0.526389 0.497454
4253 1 0.936998 0.535567 0.497797
4617 1 0.947673 0.541185 0.49725
4336 1 0.962161 0.535712 0.495638
1261 1 0.971646 0.526973 0.495841
4334 1 0.983534 0.537074 0.49557
4550 1 0.999036 0.523539 0.493711
4477 1 0.995328 0.536619 0.493586
1353 1 0.984724 0.524748 0.494062
4571 1 0.564803 0.561783 0.499844
4070 1 0.568093 0.546767 0.49919
4647 1 0.586534 0.564239 0.49928
4569 1 0.616897 0.54497 0.499011
4293 1 0.708297 0.545589 0.500915
4181 1 0.844301 0.549108 0.499848
4340 1 0.857032 0.552935 0.499379
3898 1 0.868516 0.548973 0.500419
4461 1 0.856963 0.56511 0.499004
4404 1 0.871281 0.562559 0.499985
4405 1 0.909331 0.552675 0.499227
4469 1 0.924838 0.54296 0.498491
4807 1 0.935562 0.552662 0.496978
4339 1 0.921511 0.560921 0.498542
4325 1 0.947905 0.556789 0.497284
1891 1 0.958605 0.548414 0.496061
4547 1 0.959742 0.561386 0.495858
4747 1 0.971981 0.559087 0.494328
4685 1 0.972654 0.543814 0.494931
5033 1 0.983845 0.553681 0.49475
4539 1 0.995392 0.549406 0.49465
1613 1 0.990409 0.565471 0.49443
4384 1 0.848226 0.580984 0.50047
4594 1 0.859413 0.57845 0.498458
1541 1 0.885128 0.586091 0.498458
4608 1 0.884952 0.571943 0.498577
4896 1 0.873652 0.577125 0.49881
4397 1 0.897396 0.576949 0.49855
4315 1 0.904885 0.565169 0.499077
4538 1 0.914601 0.574007 0.497804
4269 1 0.927155 0.575071 0.497696
4118 1 0.935712 0.566426 0.496213
4332 1 0.950229 0.572358 0.497126
4185 1 0.939216 0.581945 0.497252
4257 1 0.961351 0.575817 0.495307
1350 1 0.977446 0.571547 0.49341
4395 1 0.96988 0.585278 0.494445
1403 1 0.995563 0.574814 0.492001
4465 1 0.983695 0.584629 0.494293
4460 1 0.860235 0.590653 0.500707
1475 1 0.865595 0.604781 0.500009
4114 1 0.889453 0.598027 0.498224
4321 1 0.872251 0.592699 0.49922
4653 1 0.900971 0.589779 0.499588
4877 1 0.904209 0.603585 0.498395
4890 1 0.916436 0.600064 0.497986
4806 1 0.913891 0.587928 0.498087
4527 1 0.930582 0.599416 0.496082
4684 1 0.928357 0.586927 0.496015
4601 1 0.952527 0.587426 0.495403
4406 1 0.942896 0.597599 0.496345
4519 1 0.955897 0.600807 0.494297
4596 1 0.966345 0.596239 0.493592
4388 1 0.978491 0.598739 0.493879
4755 1 0.996022 0.597576 0.493495
4720 1 0.80193 0.623152 0.500139
4662 1 0.826928 0.62167 0.500108
4603 1 0.85785 0.614338 0.499277
1474 1 0.878763 0.62684 0.499792
4821 1 0.885948 0.616323 0.498775
4965 1 0.90084 0.620099 0.498599
4816 1 0.911784 0.615081 0.496991
1826 1 0.92724 0.611799 0.496044
4609 1 0.928132 0.625197 0.494437
4449 1 0.916626 0.629184 0.495003
4758 1 0.938658 0.612019 0.493376
4610 1 0.951681 0.611665 0.493922
4611 1 0.942236 0.626324 0.494236
4686 1 0.967841 0.611232 0.492767
4522 1 0.956232 0.625478 0.493253
4677 1 0.973177 0.625147 0.491761
4475 1 0.997471 0.61256 0.49372
4543 1 0.982134 0.609912 0.491179
4737 1 0.987466 0.624337 0.491844
4233 1 0.819883 0.649679 0.500395
5162 1 0.812191 0.633343 0.499463
1476 1 0.805228 0.646294 0.50011
4721 1 0.830496 0.637168 0.499434
4659 1 0.845635 0.643146 0.499245
4457 1 0.864163 0.645217 0.497944
4590 1 0.855396 0.63689 0.498169
4676 1 0.880187 0.642682 0.498339
4744 1 0.890608 0.630051 0.498061
4525 1 0.868141 0.633 0.499104
4800 1 0.893997 0.645151 0.498496
4810 1 0.904347 0.633212 0.496964
4588 1 0.906924 0.647164 0.4961
4884 1 0.916766 0.640324 0.495264
4322 1 0.931873 0.637658 0.494684
4818 1 0.939842 0.648797 0.493412
4591 1 0.946507 0.638991 0.495513
4396 1 0.953916 0.651306 0.494641
4455 1 0.959834 0.637857 0.49268
2122 1 0.968048 0.646798 0.493254
4463 1 0.993919 0.640751 0.492706
4520 1 0.979849 0.640116 0.492084
1754 1 0.985522 0.6502 0.494212
1393 1 0.526083 0.669263 0.500431
4843 1 0.539686 0.670926 0.499158
4774 1 0.553822 0.674262 0.498613
4487 1 0.575361 0.661107 0.500359
4723 1 0.587355 0.665523 0.499906
4657 1 0.845787 0.655265 0.499683
4811 1 0.869218 0.665159 0.499677
4668 1 0.859327 0.657017 0.499178
4675 1 0.873586 0.652667 0.498883
4516 1 0.884117 0.657788 0.499259
1402 1 0.880685 0.673366 0.499353
1974 1 0.895484 0.672147 0.499307
4751 1 0.896023 0.659945 0.498015
5441 1 0.908336 0.663033 0.498464
4894 1 0.928063 0.652443 0.493842
4742 1 0.918312 0.654205 0.49746
4757 1 0.930116 0.664575 0.494607
4799 1 0.92045 0.672219 0.497857
4683 1 0.942831 0.660807 0.493366
4753 1 0.953731 0.670124 0.495493
1832 1 0.97411 0.65804 0.493848
2124 1 0.962866 0.66312 0.492947
1979 1 0.974093 0.672799 0.493315
1634 1 0.99807 0.670641 0.493548
4535 1 0.996473 0.656775 0.493037
2052 1 0.986503 0.666249 0.494917
4639 1 0.51307 0.677051 0.500985
1679 1 0.511349 0.690444 0.500444
1468 1 0.526175 0.683636 0.499076
4625 1 0.542891 0.682557 0.498596
4915 1 0.555974 0.685186 0.49689
4701 1 0.544872 0.695058 0.497503
4648 1 0.570857 0.691761 0.498156
4494 1 0.567605 0.677422 0.499059
4623 1 0.581899 0.680368 0.498534
4948 1 0.907754 0.67439 0.498092
4663 1 0.909937 0.688149 0.497004
4883 1 0.921142 0.683823 0.495738
4750 1 0.934484 0.694671 0.495932
4681 1 0.936344 0.677655 0.494396
1961 1 0.952906 0.687342 0.495209
4540 1 0.963923 0.683833 0.49283
2046 1 0.975043 0.690071 0.493057
1971 1 0.9844 0.681086 0.49339
4537 1 0.991084 0.692336 0.495328
4913 1 0.507903 0.704451 0.499146
2086 1 0.520101 0.701818 0.497752
4833 1 0.515177 0.714716 0.498067
4700 1 0.5393 0.707343 0.497217
4277 1 0.532663 0.696173 0.498251
4837 1 0.558219 0.69679 0.496875
4492 1 0.552135 0.707318 0.496678
4709 1 0.569129 0.706912 0.496366
4696 1 0.580013 0.715459 0.498078
4553 1 0.582468 0.701617 0.498295
4984 1 0.597287 0.711891 0.497199
5122 1 0.596745 0.698823 0.499497
4362 1 0.610418 0.701275 0.500444
4930 1 0.610675 0.712067 0.499068
5267 1 0.625421 0.711258 0.499569
5080 1 0.84992 0.716286 0.499876
4660 1 0.904578 0.699863 0.498029
4988 1 0.891911 0.718456 0.499675
4876 1 0.917872 0.69936 0.496772
5010 1 0.914109 0.713221 0.497793
1893 1 0.928439 0.707615 0.496193
4531 1 0.942317 0.713113 0.495794
4466 1 0.946615 0.699838 0.496854
4400 1 0.955952 0.714324 0.495068
1966 1 0.960437 0.698493 0.494882
5233 1 0.967813 0.707508 0.494865
1975 1 0.999227 0.701497 0.494333
1963 1 0.982497 0.705394 0.494023
4961 1 0.998652 0.714043 0.493864
4736 1 0.982741 0.71715 0.49609
4628 1 0.50184 0.720281 0.499507
5073 1 0.514889 0.727419 0.497669
4630 1 0.502464 0.734203 0.497923
4496 1 0.527559 0.717676 0.497418
4999 1 0.540915 0.720472 0.495828
4844 1 0.540066 0.733464 0.496489
2099 1 0.526555 0.731643 0.4964
4706 1 0.552977 0.732695 0.496202
5043 1 0.55471 0.720195 0.496753
5134 1 0.56549 0.734532 0.494888
4854 1 0.567218 0.719196 0.496217
4772 1 0.575453 0.728227 0.496819
4784 1 0.586664 0.733131 0.494891
5194 1 0.590257 0.72167 0.498209
4922 1 0.596999 0.733849 0.498591
4773 1 0.604471 0.723101 0.499997
4719 1 0.620008 0.726175 0.499208
4626 1 0.609559 0.736471 0.497938
5131 1 0.636617 0.734945 0.498682
4578 1 0.634052 0.722666 0.499327
4989 1 0.68595 0.735754 0.499335
5193 1 0.706207 0.735752 0.500886
5554 1 0.730404 0.738759 0.499353
5505 1 0.838723 0.719723 0.500758
4852 1 0.862234 0.727635 0.500499
4794 1 0.904354 0.721815 0.499201
4462 1 0.928284 0.720228 0.498485
4749 1 0.927123 0.735769 0.498528
4873 1 0.942488 0.730005 0.499074
4743 1 0.95487 0.726465 0.496235
4752 1 0.968395 0.731991 0.497583
4830 1 0.968887 0.718958 0.495801
2035 1 0.982418 0.72896 0.495656
4822 1 0.997693 0.728364 0.493415
5196 1 0.50677 0.755624 0.497407
4765 1 0.517964 0.760118 0.495846
2719 1 0.513375 0.740826 0.496337
5057 1 0.522795 0.746224 0.496477
5046 1 0.529291 0.756195 0.494184
4767 1 0.534973 0.745141 0.494364
4708 1 0.554779 0.758565 0.494403
5259 1 0.54855 0.745295 0.495343
5062 1 0.560429 0.746541 0.49392
5277 1 0.575303 0.744281 0.494073
5051 1 0.568253 0.758235 0.493211
5546 1 0.581184 0.759365 0.493664
4997 1 0.588473 0.749077 0.493186
4718 1 0.598154 0.748032 0.496907
5191 1 0.62485 0.739783 0.498094
4847 1 0.625859 0.755314 0.496557
4924 1 0.610769 0.750875 0.496258
4978 1 0.65044 0.754209 0.499973
5195 1 0.636225 0.750164 0.498492
5275 1 0.662635 0.757552 0.498346
5478 1 0.674911 0.758665 0.498171
5136 1 0.656381 0.741811 0.499513
5269 1 0.678788 0.747671 0.499972
5063 1 0.686899 0.757023 0.499253
5138 1 0.707872 0.748964 0.499931
5495 1 0.71815 0.754542 0.497528
5336 1 0.69791 0.758412 0.498566
4944 1 0.72919 0.753926 0.499157
5272 1 0.74785 0.740814 0.500575
5287 1 0.754746 0.753344 0.500995
4517 1 0.954077 0.737182 0.49897
4665 1 0.962848 0.743067 0.498551
4536 1 0.975079 0.742875 0.497265
4814 1 0.973909 0.756274 0.499139
2054 1 0.999157 0.753536 0.496182
4760 1 0.988262 0.74021 0.495252
4879 1 0.984502 0.752143 0.496899
4983 1 0.517086 0.777952 0.495408
5337 1 0.506404 0.772801 0.496635
5121 1 0.540668 0.761634 0.494375
4927 1 0.536347 0.780022 0.494286
2447 1 0.527448 0.770456 0.49554
5394 1 0.553009 0.772582 0.495092
4761 1 0.563562 0.780588 0.495086
5333 1 0.577395 0.782814 0.495381
1958 1 0.571748 0.770678 0.494071
5404 1 0.585843 0.76976 0.494312
4995 1 0.598972 0.761333 0.494415
5059 1 0.595913 0.775194 0.494186
5048 1 0.607664 0.779791 0.49671
2889 1 0.62188 0.780561 0.495092
5079 1 0.61403 0.764719 0.495356
5058 1 0.629528 0.76597 0.495849
5328 1 0.634376 0.777128 0.495117
4980 1 0.642604 0.763246 0.497207
2893 1 0.645146 0.779188 0.495836
4846 1 0.653795 0.76963 0.497666
5540 1 0.667707 0.775376 0.495434
5125 1 0.678785 0.770911 0.497251
5496 1 0.693531 0.769313 0.497667
5274 1 0.687823 0.779259 0.495124
5280 1 0.70331 0.775891 0.496104
2965 1 0.712237 0.76591 0.498204
4874 1 0.716134 0.779364 0.4957
5285 1 0.727345 0.767052 0.499327
5210 1 0.726545 0.780163 0.498219
5576 1 0.741479 0.775642 0.499994
5214 1 0.744165 0.762863 0.499228
4825 1 0.9718 0.775279 0.500819
4880 1 0.963962 0.764028 0.498983
4670 1 0.991743 0.775467 0.500526
2101 1 0.989923 0.762532 0.497671
5409 1 0.499568 0.787021 0.497399
5252 1 0.513388 0.788944 0.494078
2380 1 0.50124 0.799667 0.494888
4627 1 0.527541 0.787126 0.494375
5399 1 0.538243 0.798756 0.494141
4987 1 0.526952 0.801408 0.494793
2520 1 0.546214 0.787957 0.492884
4920 1 0.558443 0.792114 0.494364
4413 1 0.550167 0.803407 0.493712
5123 1 0.583677 0.798041 0.496977
5047 1 0.569289 0.79826 0.495355
5132 1 0.596912 0.8018 0.496715
5133 1 0.589812 0.786198 0.495708
5065 1 0.605904 0.792789 0.495715
5066 1 0.618631 0.793627 0.495046
5421 1 0.630045 0.800991 0.494008
5119 1 0.633679 0.790337 0.493438
5477 1 0.645721 0.793217 0.494005
5266 1 0.658728 0.795427 0.494441
5473 1 0.655936 0.782815 0.493399
3028 1 0.66901 0.787783 0.494987
2855 1 0.674956 0.797769 0.493384
5492 1 0.683011 0.789617 0.494144
5572 1 0.6861 0.803558 0.493435
5544 1 0.693804 0.792781 0.49476
5367 1 0.708759 0.791107 0.493135
2909 1 0.698492 0.805621 0.493676
5344 1 0.720512 0.794436 0.496989
5418 1 0.735241 0.790763 0.499448
5550 1 0.742381 0.801192 0.49753
5213 1 0.780078 0.799113 0.5004
5086 1 0.763936 0.797028 0.500231
2449 1 0.502334 0.814701 0.495593
4840 1 0.513133 0.808236 0.49522
5253 1 0.514336 0.824133 0.494052
5325 1 0.53496 0.813023 0.492976
5340 1 0.524941 0.820089 0.495131
2841 1 0.560545 0.818503 0.492221
4559 1 0.545402 0.819156 0.493096
5064 1 0.568353 0.810003 0.494189
2820 1 0.582214 0.810804 0.49507
5488 1 0.582275 0.823521 0.494249
5045 1 0.593795 0.817639 0.496615
5128 1 0.607106 0.807706 0.495583
5398 1 0.60615 0.820678 0.49503
5271 1 0.618478 0.809303 0.494678
5345 1 0.618362 0.826748 0.49345
5126 1 0.630347 0.81728 0.494515
2963 1 0.63983 0.809019 0.494303
2881 1 0.642713 0.820604 0.493488
2839 1 0.653468 0.808429 0.495262
2823 1 0.668785 0.810627 0.493689
2832 1 0.655493 0.821648 0.493597
2994 1 0.671109 0.825656 0.492882
2964 1 0.683285 0.815734 0.49305
2897 1 0.697072 0.816663 0.493964
2808 1 0.71066 0.804729 0.49498
5501 1 0.711167 0.818138 0.495782
5223 1 0.7273 0.806201 0.497047
2815 1 0.724326 0.819604 0.498945
5486 1 0.740206 0.817693 0.49826
5142 1 0.75469 0.811712 0.499773
5383 1 0.749255 0.826319 0.49877
5375 1 0.771117 0.807558 0.499498
5361 1 0.764899 0.819134 0.499374
2440 1 0.506376 0.835789 0.495795
4769 1 0.521252 0.837449 0.495088
4707 1 0.538305 0.829839 0.493463
5042 1 0.531688 0.840687 0.492115
5549 1 0.547435 0.840101 0.491646
2586 1 0.55464 0.831189 0.492576
2442 1 0.561222 0.842172 0.492649
5207 1 0.568592 0.826756 0.491674
5410 1 0.574646 0.83998 0.491555
2898 1 0.588908 0.836833 0.493166
2890 1 0.599149 0.828036 0.493191
5560 1 0.62229 0.839615 0.494796
3021 1 0.607115 0.836483 0.493608
5497 1 0.631279 0.830954 0.49307
2892 1 0.638312 0.840281 0.493841
5557 1 0.648969 0.834083 0.4923
2829 1 0.652273 0.846529 0.493931
2825 1 0.661365 0.835371 0.492616
5481 1 0.684642 0.828351 0.49494
3038 1 0.6904 0.841779 0.496174
5402 1 0.67558 0.838268 0.494607
5295 1 0.699326 0.830625 0.496564
5296 1 0.712022 0.830217 0.498417
2833 1 0.701899 0.846369 0.498025
2993 1 0.715228 0.843006 0.499557
5289 1 0.736219 0.831593 0.499987
5469 1 0.503303 0.852075 0.495173
2517 1 0.511794 0.865029 0.494323
2165 1 0.516831 0.852868 0.494771
5202 1 0.532021 0.853398 0.492894
5204 1 0.543702 0.852396 0.492306
4562 1 0.540094 0.865105 0.493308
5538 1 0.526392 0.864069 0.494414
3169 1 0.554594 0.856158 0.492464
5201 1 0.570302 0.85453 0.490554
2579 1 0.584085 0.8627 0.492997
5331 1 0.583993 0.850528 0.49293
2516 1 0.564618 0.866698 0.4935
2812 1 0.596229 0.848181 0.493412
5547 1 0.600667 0.861497 0.493612
2446 1 0.624322 0.853626 0.493437
2954 1 0.609169 0.850975 0.493383
5566 1 0.615438 0.863992 0.493194
5484 1 0.627784 0.864635 0.49356
5569 1 0.635868 0.850933 0.493706
2834 1 0.639537 0.867051 0.494357
5559 1 0.650126 0.861018 0.494934
2844 1 0.666379 0.850512 0.493694
3331 1 0.664284 0.863272 0.494908
2828 1 0.682957 0.849846 0.4957
4797 1 0.691663 0.860788 0.496567
5511 1 0.678805 0.861107 0.495557
5442 1 0.703022 0.859821 0.497664
5512 1 0.714622 0.860912 0.49965
5016 1 0.735133 0.864797 0.499072
2859 1 0.72591 0.854272 0.499658
5020 1 0.81187 0.86398 0.500573
5376 1 0.828491 0.86166 0.498889
4956 1 0.860127 0.846655 0.500675
5406 1 0.506974 0.878919 0.497073
2437 1 0.523912 0.877925 0.494588
5401 1 0.52274 0.891033 0.495421
5479 1 0.535228 0.875159 0.494025
2448 1 0.5352 0.889545 0.495106
5332 1 0.551881 0.867658 0.493721
2587 1 0.546445 0.879468 0.49407
3026 1 0.561914 0.881271 0.495263
2953 1 0.549826 0.891577 0.49497
2299 1 0.577377 0.873965 0.494654
5264 1 0.571624 0.890157 0.496026
5542 1 0.59335 0.873405 0.495389
5471 1 0.601375 0.885839 0.495836
5556 1 0.584704 0.887053 0.496868
5270 1 0.608938 0.873392 0.493959
5339 1 0.615167 0.885856 0.496967
2958 1 0.623007 0.877895 0.495312
5407 1 0.628875 0.888501 0.496412
2851 1 0.635927 0.878374 0.496385
2985 1 0.65146 0.872857 0.495555
5562 1 0.649776 0.884461 0.497015
2837 1 0.661305 0.878492 0.496298
2977 1 0.686649 0.874152 0.497401
5571 1 0.674082 0.873386 0.497105
2860 1 0.689988 0.888206 0.496681
3031 1 0.676687 0.884875 0.497608
5286 1 0.69968 0.872942 0.496699
5091 1 0.71069 0.874025 0.49939
5491 1 0.700519 0.883772 0.498584
5303 1 0.716377 0.885316 0.498245
4865 1 0.723715 0.871489 0.499638
5273 1 0.731353 0.881118 0.498328
5515 1 0.746111 0.887741 0.498998
2856 1 0.758517 0.88988 0.499665
5087 1 0.851643 0.8742 0.50115
5568 1 0.517024 0.907356 0.496791
2805 1 0.513389 0.896028 0.497159
2727 1 0.503652 0.90482 0.498006
5395 1 0.537333 0.908821 0.497002
2887 1 0.527807 0.902505 0.496155
2583 1 0.544978 0.902173 0.494744
2819 1 0.553786 0.909005 0.497409
5548 1 0.561835 0.898009 0.496881
2882 1 0.570025 0.908812 0.49854
5558 1 0.5798 0.901503 0.498424
5476 1 0.587696 0.909773 0.498746
2888 1 0.602216 0.9102 0.49828
2961 1 0.594063 0.898575 0.497435
2816 1 0.607993 0.896222 0.496791
3027 1 0.619848 0.897535 0.499231
2814 1 0.612709 0.908424 0.498614
2891 1 0.625822 0.909217 0.498926
5574 1 0.640211 0.893328 0.498132
5503 1 0.634568 0.902671 0.497516
5425 1 0.664837 0.890713 0.496623
3037 1 0.654495 0.897904 0.497811
5573 1 0.671251 0.907798 0.497665
2991 1 0.657232 0.911616 0.497768
3047 1 0.681361 0.896216 0.496186
5284 1 0.693303 0.898656 0.496756
5445 1 0.715831 0.905335 0.498595
4950 1 0.706669 0.895732 0.498164
5467 1 0.702005 0.908471 0.49697
5423 1 0.735139 0.894726 0.50021
2900 1 0.723232 0.896111 0.498655
5504 1 0.730817 0.907465 0.497142
2840 1 0.744502 0.902971 0.498044
5018 1 0.754857 0.900276 0.498297
2866 1 0.765061 0.910084 0.498521
5371 1 0.776136 0.904325 0.498243
5370 1 0.787925 0.905223 0.499233
5513 1 0.834471 0.903945 0.500547
5378 1 0.885468 0.913409 0.500327
2659 1 0.500298 0.920863 0.499466
3097 1 0.509279 0.932422 0.498949
2514 1 0.512331 0.918727 0.499087
2590 1 0.522444 0.931298 0.498236
5184 1 0.529255 0.918697 0.4968
2580 1 0.541246 0.921639 0.497853
5182 1 0.534641 0.933253 0.498515
5461 1 0.551545 0.920004 0.496975
5543 1 0.563378 0.919337 0.499178
136 1 0.546541 0.934003 0.498952
5470 1 0.578765 0.918957 0.499696
2886 1 0.608677 0.927178 0.49933
5475 1 0.593317 0.921464 0.498404
2957 1 0.598176 0.933616 0.499858
2818 1 0.618469 0.921414 0.498526
3025 1 0.648852 0.919689 0.499039
2972 1 0.642223 0.932279 0.499144
5539 1 0.636646 0.919948 0.498372
5584 1 0.659054 0.926613 0.49842
2901 1 0.669886 0.921113 0.497293
5413 1 0.685422 0.913257 0.496465
3023 1 0.681668 0.932825 0.497269
3130 1 0.693065 0.924637 0.497508
5498 1 0.706659 0.920878 0.497293
5565 1 0.707141 0.932428 0.497484
2996 1 0.719358 0.928779 0.497775
5502 1 0.717206 0.916163 0.499004
2850 1 0.728585 0.921056 0.498253
5278 1 0.731615 0.932821 0.497868
5415 1 0.753194 0.916761 0.496535
5427 1 0.73953 0.916657 0.496622
5563 1 0.744585 0.931616 0.498059
2849 1 0.758107 0.931083 0.497978
5362 1 0.782031 0.915698 0.499063
5575 1 0.768374 0.922956 0.497804
2880 1 0.777854 0.930375 0.496696
5241 1 0.794633 0.916605 0.499537
2914 1 0.81386 0.920453 0.500187
5319 1 0.898616 0.917998 0.49949
5458 1 0.999049 0.927655 0.49927
2803 1 0.543244 0.94606 0.500104
2658 1 0.558108 0.946131 0.498373
134 1 0.572367 0.945029 0.500276
5392 1 0.603338 0.949486 0.49714
5346 1 0.586243 0.944285 0.499077
2827 1 0.628042 0.935781 0.498174
2660 1 0.616795 0.944251 0.496546
2956 1 0.628477 0.951793 0.496457
5545 1 0.652863 0.939002 0.498035
2911 1 0.641846 0.947344 0.496738
5567 1 0.66967 0.95545 0.495322
3207 1 0.661397 0.946988 0.49769
3056 1 0.668778 0.937723 0.498207
2982 1 0.695944 0.939877 0.496317
5507 1 0.680609 0.945801 0.496408
2903 1 0.707687 0.950168 0.496575
5341 1 0.716983 0.941305 0.497961
2921 1 0.695231 0.955575 0.494772
5519 1 0.723252 0.954589 0.495318
3041 1 0.731963 0.946622 0.498719
2995 1 0.747333 0.94581 0.498495
5350 1 0.780108 0.945687 0.497877
2989 1 0.764249 0.945323 0.497413
5354 1 0.793928 0.949127 0.498182
5228 1 0.808594 0.936616 0.499896
5282 1 0.820495 0.945978 0.499906
5520 1 0.859425 0.934887 0.499484
5436 1 0.865642 0.949657 0.499619
5141 1 0.87652 0.94357 0.49988
3060 1 0.889307 0.940428 0.500317
5384 1 0.915891 0.938681 0.500538
2737 1 0.931986 0.945021 0.49927
2451 1 0.990135 0.93904 0.500516
5249 1 0.996265 0.952988 0.499093
3044 1 0.55193 0.95669 0.500698
2980 1 0.565983 0.961304 0.500195
2974 1 0.578446 0.968343 0.499157
2726 1 0.578807 0.956882 0.498984
3088 1 0.589844 0.97573 0.499007
5494 1 0.591867 0.959289 0.498729
2883 1 0.601689 0.967504 0.497295
3181 1 0.627307 0.971295 0.499733
2821 1 0.615435 0.975531 0.499278
2831 1 0.618339 0.959459 0.49654
67 1 0.642068 0.979368 0.498457
3178 1 0.651816 0.97293 0.497235
5482 1 0.637676 0.962489 0.496731
5577 1 0.649338 0.956474 0.496771
3111 1 0.674848 0.967113 0.4942
2968 1 0.65976 0.963971 0.497839
2905 1 0.666036 0.975391 0.497005
3369 1 0.68158 0.978186 0.495468
2984 1 0.683841 0.960531 0.4952
2978 1 0.692487 0.968383 0.495063
2916 1 0.715995 0.977214 0.495001
3190 1 0.708557 0.962044 0.495313
3319 1 0.703677 0.974765 0.494456
2920 1 0.727231 0.967568 0.495127
3049 1 0.741663 0.974803 0.497633
2907 1 0.753787 0.956237 0.497174
5490 1 0.73808 0.961266 0.495804
5578 1 0.75321 0.968994 0.497693
5506 1 0.768032 0.97331 0.496705
5430 1 0.772129 0.96158 0.498083
5500 1 0.80235 0.962528 0.499581
5294 1 0.795769 0.975196 0.49961
5279 1 0.788142 0.96316 0.497569
2931 1 0.816523 0.958313 0.499853
5158 1 0.829732 0.955547 0.499837
5526 1 0.883896 0.974797 0.49897
5240 1 0.880357 0.957397 0.499064
5509 1 0.870772 0.965628 0.499163
5379 1 0.903952 0.973294 0.499445
2932 1 0.906121 0.959152 0.499221
2923 1 0.892031 0.965093 0.498275
2861 1 0.917186 0.971713 0.500264
215 1 0.928469 0.963874 0.498407
2747 1 0.954758 0.955679 0.501183
5579 1 0.947524 0.968837 0.49854
5169 1 0.937533 0.976636 0.49783
2926 1 0.962018 0.970684 0.49924
2999 1 0.975843 0.965261 0.497845
5250 1 0.99161 0.966854 0.498444
2998 1 0.579937 0.981827 0.499961
3029 1 0.592285 0.989236 0.500006
5466 1 0.602764 0.981902 0.498264
5570 1 0.602997 0.998103 0.499332
2906 1 0.627533 0.985355 0.498729
3240 1 0.613427 0.991892 0.500298
2915 1 0.644803 0.996134 0.49857
3106 1 0.670221 0.988118 0.497958
2918 1 0.655881 0.988118 0.497702
3328 1 0.693786 0.982891 0.493786
2973 1 0.684369 0.992404 0.496584
3103 1 0.707645 0.988836 0.494627
2919 1 0.721244 0.987242 0.495288
2970 1 0.733266 0.984711 0.496117
3191 1 0.738739 0.997091 0.498152
2975 1 0.752135 0.983722 0.496891
5431 1 0.76556 0.98725 0.498544
5229 1 0.783794 0.979335 0.49791
5417 1 0.772551 0.998897 0.498944
3001 1 0.842623 0.997771 0.499967
5353 1 0.855195 0.996793 0.498929
5456 1 0.870365 0.979301 0.499385
5288 1 0.881945 0.989215 0.499074
3120 1 0.90734 0.996911 0.499129
5437 1 0.897209 0.985973 0.499514
3051 1 0.922222 0.996401 0.499995
5167 1 0.926166 0.981129 0.499251
2662 1 0.955835 0.985143 0.496627
5305 1 0.939591 0.991343 0.497839
2732 1 0.969224 0.981502 0.496311
5381 1 0.964475 0.997304 0.496976
3072 1 0.999252 0.980001 0.496974
5529 1 0.983053 0.978609 0.496853
3005 1 0.992 0.990504 0.498941
3009 1 0.978707 0.994899 0.496929
4411 1 0.514701 0.51509 0.503006
4139 1 0.509026 0.501588 0.502502
4415 1 0.524388 0.507422 0.504636
4432 1 0.529968 0.517196 0.502216
4342 1 0.542461 0.511422 0.502359
4080 1 0.537829 0.499297 0.503003
1538 1 0.558902 0.500511 0.501331
4354 1 0.55367 0.515902 0.503042
1239 1 0.576049 0.499535 0.499648
4206 1 0.56716 0.510814 0.502384
4778 1 0.624089 0.500039 0.500192
4427 1 0.674504 0.501543 0.499306
4434 1 0.69303 0.510383 0.499727
3947 1 0.708265 0.506819 0.500377
4141 1 0.734304 0.502373 0.501411
4442 1 0.734038 0.519926 0.49991
4170 1 0.749052 0.504295 0.502285
4146 1 0.743504 0.51501 0.502425
4106 1 0.760841 0.514502 0.502884
4320 1 0.765546 0.501007 0.503927
1471 1 0.776861 0.509263 0.504848
4534 1 0.770394 0.520422 0.504573
4403 1 0.790171 0.510543 0.506218
4102 1 0.803606 0.510038 0.503538
4306 1 0.816105 0.517647 0.502379
4116 1 0.817582 0.505486 0.501458
4458 1 0.830381 0.513966 0.500808
3945 1 0.863022 0.509024 0.500525
3976 1 0.881738 0.505365 0.500382
4199 1 0.872205 0.519873 0.500082
1165 1 0.502135 0.520268 0.502035
4565 1 0.511412 0.534386 0.502036
1675 1 0.522148 0.526195 0.502132
1812 1 0.531151 0.537518 0.502113
4138 1 0.540245 0.526697 0.50198
1174 1 0.541615 0.543325 0.501135
4087 1 0.552848 0.538347 0.50067
4921 1 0.553006 0.528277 0.502974
4851 1 0.601343 0.536037 0.499733
4288 1 0.625464 0.534997 0.499117
4082 1 0.657461 0.53247 0.501322
4506 1 0.678058 0.538673 0.500644
4091 1 0.694716 0.53684 0.499965
4232 1 0.708215 0.5318 0.500111
4219 1 0.734614 0.534782 0.501496
4355 1 0.720561 0.525519 0.500741
4028 1 0.746879 0.53069 0.501806
4240 1 0.758123 0.526494 0.502932
4186 1 0.750892 0.541138 0.501503
3960 1 0.775732 0.532052 0.503543
4377 1 0.764882 0.541638 0.502385
4584 1 0.78652 0.521406 0.503931
4731 1 0.800181 0.523851 0.503532
4514 1 0.7898 0.535609 0.503149
4324 1 0.802697 0.537477 0.504129
4254 1 0.811798 0.53017 0.503294
4380 1 0.824015 0.53983 0.50387
4235 1 0.829507 0.527094 0.501186
4664 1 0.884154 0.535223 0.498893
1308 1 0.50465 0.546435 0.501385
1456 1 0.517695 0.546456 0.502183
1377 1 0.510937 0.558572 0.50179
4423 1 0.531071 0.550646 0.502253
4341 1 0.541101 0.556996 0.500525
4567 1 0.524032 0.559596 0.50073
4282 1 0.555644 0.549444 0.499511
4062 1 0.549772 0.563843 0.499422
4646 1 0.578863 0.553813 0.500121
4289 1 0.607154 0.552338 0.501048
4507 1 0.591635 0.553233 0.501637
4078 1 0.613952 0.563982 0.501276
4928 1 0.624088 0.557608 0.500901
4714 1 0.630771 0.547158 0.500985
4430 1 0.642575 0.554017 0.501792
4227 1 0.653 0.544318 0.500377
4503 1 0.666259 0.547333 0.501342
4437 1 0.657224 0.55452 0.503539
4077 1 0.670435 0.561378 0.503374
4375 1 0.689641 0.547133 0.50157
4508 1 0.692286 0.563396 0.502842
4151 1 0.680288 0.553142 0.50197
4221 1 0.701081 0.55677 0.500731
4513 1 0.712031 0.561356 0.502201
4576 1 0.720814 0.546996 0.501382
4023 1 0.733016 0.556171 0.50191
3932 1 0.723469 0.564719 0.501576
3798 1 0.740395 0.546719 0.501208
4428 1 0.758699 0.55462 0.502113
4323 1 0.746452 0.558438 0.501963
4602 1 0.772566 0.552647 0.503625
4179 1 0.783358 0.547488 0.50265
4936 1 0.798024 0.55137 0.50363
4385 1 0.783188 0.560657 0.503812
4368 1 0.811543 0.547568 0.50393
4464 1 0.81965 0.558724 0.501776
4580 1 0.807217 0.560408 0.503497
4523 1 0.834105 0.555528 0.50019
4248 1 0.881053 0.550042 0.500231
1615 1 0.896829 0.544552 0.50079
4326 1 0.89264 0.560429 0.501289
1742 1 0.502813 0.570266 0.501225
4640 1 0.517198 0.571373 0.502268
1235 1 0.514838 0.584434 0.502116
1382 1 0.535939 0.569792 0.500545
2027 1 0.540656 0.584389 0.501107
1607 1 0.527412 0.579886 0.502668
4645 1 0.549988 0.577146 0.500051
4573 1 0.561654 0.573969 0.500754
1680 1 0.574224 0.579881 0.499577
4429 1 0.587295 0.576575 0.500191
4419 1 0.57359 0.567024 0.501036
1256 1 0.598673 0.566808 0.501599
4635 1 0.599542 0.583897 0.50242
5056 1 0.608267 0.576411 0.502486
4284 1 0.624438 0.56997 0.503004
4572 1 0.620427 0.581273 0.502937
4361 1 0.637017 0.56418 0.504557
4855 1 0.634028 0.577624 0.504075
4711 1 0.649303 0.569492 0.504277
4214 1 0.643505 0.584403 0.505239
4086 1 0.660162 0.566562 0.505055
4285 1 0.669637 0.572291 0.506115
4502 1 0.659727 0.58303 0.50433
4098 1 0.680604 0.568551 0.50351
3803 1 0.686515 0.579813 0.503281
4290 1 0.674271 0.583449 0.504269
4532 1 0.698057 0.57868 0.50233
4024 1 0.706015 0.586266 0.502712
4383 1 0.708517 0.5734 0.502263
4090 1 0.719679 0.576716 0.503402
4022 1 0.730561 0.580909 0.503529
4137 1 0.735531 0.568278 0.503264
4453 1 0.752587 0.569509 0.50178
4733 1 0.74359 0.577037 0.502762
4669 1 0.756165 0.584338 0.502973
4407 1 0.766069 0.57799 0.503382
4582 1 0.780042 0.571925 0.503483
4318 1 0.766522 0.566128 0.50335
4666 1 0.776411 0.582832 0.50333
4597 1 0.790465 0.580894 0.503061
4314 1 0.794083 0.566614 0.50356
4103 1 0.81421 0.573632 0.502497
4381 1 0.802434 0.57984 0.502985
4605 1 0.819522 0.585684 0.502092
4533 1 0.830205 0.57225 0.501767
4529 1 0.843733 0.568068 0.500431
4593 1 0.835242 0.586867 0.501771
4783 1 0.50423 0.608502 0.501732
1328 1 0.506345 0.593101 0.501675
4636 1 0.518853 0.597096 0.502146
1677 1 0.533708 0.608051 0.501794
4643 1 0.532076 0.593013 0.502514
1533 1 0.555103 0.588695 0.502182
4498 1 0.559259 0.601544 0.501848
4490 1 0.546973 0.599058 0.503373
4631 1 0.567874 0.593103 0.501196
4424 1 0.585477 0.592808 0.500461
4220 1 0.586628 0.605768 0.501539
5212 1 0.59978 0.595573 0.502408
5071 1 0.608997 0.601118 0.503349
4637 1 0.612992 0.590179 0.503556
4785 1 0.622079 0.60466 0.504237
4713 1 0.62783 0.591217 0.504301
4161 1 0.640001 0.595791 0.50607
4360 1 0.633212 0.606918 0.506481
4510 1 0.646455 0.605526 0.506525
4358 1 0.655864 0.595398 0.506446
4084 1 0.669845 0.595933 0.505689
4443 1 0.665286 0.608131 0.505653
4218 1 0.680945 0.596695 0.505361
4371 1 0.681217 0.609123 0.505184
4299 1 0.69216 0.593387 0.503611
4791 1 0.696393 0.607492 0.503336
4363 1 0.704288 0.598398 0.503459
4162 1 0.716565 0.587804 0.502227
4860 1 0.730336 0.59396 0.503824
4722 1 0.726586 0.608948 0.502675
4515 1 0.717395 0.599566 0.502275
4447 1 0.744034 0.589841 0.503958
4667 1 0.752777 0.597818 0.502521
4100 1 0.7409 0.606203 0.503155
4656 1 0.779626 0.596323 0.504183
4234 1 0.766743 0.594499 0.50438
4244 1 0.79387 0.59283 0.50285
4439 1 0.801884 0.607321 0.501554
4798 1 0.787314 0.607553 0.503853
4589 1 0.808361 0.592226 0.50147
4654 1 0.817775 0.600591 0.501866
4604 1 0.834371 0.609399 0.500959
4813 1 0.829821 0.598189 0.501685
4189 1 0.845186 0.594975 0.501656
4200 1 0.851825 0.604227 0.500692
4187 1 0.877011 0.607349 0.49974
4679 1 0.895483 0.608125 0.501177
4279 1 0.512259 0.624518 0.502467
4493 1 0.51703 0.611227 0.500936
1749 1 0.544885 0.61632 0.502348
1455 1 0.52983 0.622527 0.501652
4351 1 0.540325 0.63093 0.502183
4281 1 0.555446 0.615263 0.503068
4703 1 0.5534 0.626804 0.502532
4420 1 0.57104 0.6095 0.503476
4072 1 0.567454 0.624325 0.502855
4716 1 0.580681 0.618742 0.502393
4359 1 0.59116 0.625059 0.501928
4574 1 0.600353 0.612865 0.503514
5067 1 0.603738 0.630374 0.502769
5130 1 0.61367 0.614481 0.505339
4717 1 0.626609 0.616316 0.506288
5146 1 0.620964 0.628992 0.505604
4786 1 0.642591 0.616346 0.507065
4367 1 0.652828 0.629198 0.506847
4300 1 0.637659 0.630403 0.506777
4704 1 0.656112 0.616517 0.506035
5000 1 0.665943 0.624926 0.506682
4372 1 0.69178 0.620594 0.503579
5069 1 0.676532 0.621024 0.505722
4859 1 0.708269 0.610081 0.502102
4294 1 0.706236 0.623729 0.502538
4225 1 0.721683 0.630017 0.50156
4292 1 0.717619 0.617215 0.503439
4239 1 0.732736 0.621019 0.503056
4379 1 0.744965 0.620588 0.503151
4655 1 0.759213 0.623949 0.503362
4592 1 0.757217 0.610107 0.502472
4579 1 0.770336 0.608212 0.504636
4581 1 0.777544 0.620251 0.502461
4440 1 0.792547 0.619825 0.502265
4261 1 0.816485 0.615495 0.500299
4402 1 0.84379 0.617077 0.499847
1405 1 0.844058 0.62939 0.499431
4528 1 0.85856 0.625233 0.499644
4678 1 0.869088 0.619053 0.500267
4558 1 0.502021 0.635524 0.502664
4705 1 0.51195 0.650025 0.502395
4343 1 0.52026 0.636547 0.50181
4777 1 0.532846 0.641538 0.501917
4780 1 0.552335 0.638304 0.501189
4633 1 0.542994 0.64698 0.501154
4068 1 0.55869 0.649394 0.501376
4632 1 0.56618 0.637535 0.503169
1610 1 0.579044 0.633732 0.502214
4369 1 0.573525 0.648408 0.500382
4869 1 0.590073 0.640343 0.502692
4710 1 0.60321 0.642092 0.502979
4917 1 0.61705 0.641193 0.504486
5221 1 0.631463 0.642349 0.505138
4789 1 0.64682 0.642071 0.506073
4305 1 0.661173 0.636757 0.505892
4287 1 0.662112 0.646465 0.505399
4583 1 0.674949 0.648509 0.503625
5005 1 0.686374 0.632181 0.503571
5205 1 0.674574 0.634936 0.50455
4577 1 0.688698 0.647472 0.503597
4365 1 0.699347 0.632505 0.502301
5227 1 0.71191 0.642559 0.502904
4931 1 0.701292 0.649758 0.502924
4511 1 0.733135 0.633737 0.502124
4438 1 0.729111 0.645431 0.502508
5147 1 0.741896 0.647989 0.502471
5004 1 0.75961 0.638764 0.503356
4378 1 0.745694 0.635592 0.502354
4175 1 0.753421 0.653071 0.502948
4863 1 0.769179 0.633279 0.501524
4658 1 0.778025 0.646214 0.503007
4872 1 0.783885 0.632115 0.503316
4085 1 0.795932 0.634694 0.501261
4652 1 0.789801 0.650721 0.501374
4661 1 0.833811 0.649236 0.500116
4485 1 0.501082 0.657899 0.501969
4925 1 0.515439 0.664007 0.500829
4418 1 0.523652 0.653349 0.501342
4926 1 0.533476 0.658992 0.49951
4914 1 0.547359 0.658796 0.500579
4845 1 0.563362 0.661791 0.500397
4504 1 0.586479 0.653191 0.502095
5052 1 0.598053 0.655283 0.5027
5072 1 0.602411 0.667463 0.500987
4770 1 0.611577 0.656703 0.504005
4986 1 0.62423 0.652687 0.503472
4370 1 0.61958 0.667079 0.503177
4782 1 0.64315 0.653649 0.50494
4934 1 0.631756 0.663347 0.503265
4848 1 0.64867 0.667173 0.503407
4016 1 0.653973 0.657424 0.504747
4213 1 0.661147 0.671847 0.504216
5127 1 0.665891 0.659835 0.504247
4793 1 0.675224 0.671546 0.502348
4857 1 0.681352 0.659598 0.503645
5208 1 0.695917 0.663198 0.503257
5283 1 0.708248 0.662023 0.503383
4992 1 0.719661 0.654246 0.503338
4712 1 0.721357 0.668939 0.50341
5424 1 0.73273 0.658996 0.502652
5078 1 0.737343 0.670283 0.503256
5008 1 0.748151 0.664506 0.503416
4230 1 0.766368 0.650926 0.502968
4938 1 0.776369 0.672256 0.501945
5225 1 0.764592 0.664494 0.504108
4726 1 0.775051 0.659111 0.502564
4585 1 0.799027 0.661293 0.501841
4222 1 0.787882 0.663626 0.501087
4727 1 0.802418 0.673476 0.502704
4587 1 0.811835 0.662774 0.50116
4819 1 0.826847 0.660564 0.501126
4505 1 0.841282 0.670416 0.500311
4815 1 0.854695 0.670842 0.500261
4916 1 0.593803 0.675512 0.501662
4775 1 0.602176 0.686625 0.500938
4781 1 0.588695 0.688776 0.50036
4364 1 0.611071 0.675933 0.501326
5265 1 0.625205 0.678724 0.502087
4990 1 0.614153 0.689439 0.502262
5215 1 0.624196 0.697416 0.501004
4228 1 0.634205 0.690114 0.501589
4771 1 0.647612 0.695325 0.50219
4366 1 0.638029 0.673793 0.502163
5135 1 0.653071 0.680818 0.501519
4441 1 0.665031 0.683347 0.502399
5198 1 0.688281 0.67451 0.504077
5216 1 0.678027 0.682386 0.50333
5153 1 0.694297 0.686018 0.502375
5343 1 0.704994 0.688881 0.502849
4862 1 0.703696 0.674126 0.50353
5408 1 0.713985 0.680336 0.503304
5499 1 0.720079 0.690594 0.502723
4728 1 0.726916 0.680399 0.502066
5152 1 0.734012 0.689698 0.502981
4998 1 0.757763 0.673048 0.503411
5007 1 0.746426 0.681389 0.504631
5006 1 0.746284 0.692543 0.503688
4993 1 0.774242 0.683824 0.502439
5429 1 0.761553 0.685565 0.501457
4027 1 0.789659 0.676275 0.501731
4991 1 0.797301 0.685435 0.502741
4586 1 0.78526 0.690711 0.503467
5075 1 0.818795 0.674356 0.501598
5145 1 0.810449 0.684665 0.502996
4650 1 0.821241 0.692583 0.501436
4933 1 0.83247 0.695279 0.500379
5211 1 0.831039 0.681769 0.501582
4446 1 0.848258 0.682994 0.501294
4450 1 0.859416 0.687377 0.501102
4242 1 0.868816 0.677972 0.501112
4394 1 0.869282 0.691039 0.50262
4953 1 0.881706 0.688353 0.501561
4730 1 0.896265 0.686618 0.500695
4644 1 0.654012 0.705693 0.501445
4224 1 0.646768 0.716202 0.499146
4918 1 0.636731 0.705053 0.500336
5219 1 0.663483 0.694961 0.502492
5129 1 0.667706 0.708354 0.502709
5118 1 0.658728 0.715992 0.501598
5139 1 0.686332 0.696542 0.50195
4940 1 0.674888 0.697013 0.502279
4725 1 0.678366 0.709755 0.501705
5120 1 0.691964 0.714338 0.501941
4795 1 0.69793 0.702131 0.502277
5197 1 0.711054 0.701066 0.501453
5480 1 0.737137 0.701503 0.502904
5090 1 0.724128 0.702414 0.501867
5281 1 0.735133 0.7137 0.500923
5411 1 0.720517 0.714691 0.501276
5061 1 0.746641 0.708487 0.502615
5347 1 0.75874 0.698329 0.502014
5068 1 0.760724 0.712301 0.501848
4787 1 0.77275 0.698597 0.501749
5414 1 0.775572 0.711425 0.501625
4790 1 0.803354 0.713596 0.501935
4735 1 0.801081 0.699533 0.502757
5552 1 0.788485 0.702603 0.502167
4739 1 0.815225 0.702778 0.502946
4856 1 0.845823 0.695333 0.500328
5487 1 0.837947 0.708546 0.501512
4302 1 0.824281 0.71078 0.500946
4861 1 0.864348 0.70211 0.501495
4595 1 0.863165 0.715309 0.500742
4804 1 0.853569 0.704314 0.501081
5076 1 0.878248 0.700736 0.501435
4674 1 0.875696 0.713091 0.499954
4459 1 0.893735 0.70078 0.501177
4809 1 0.90231 0.710555 0.499883
4624 1 0.64932 0.729317 0.500076
4996 1 0.66148 0.729028 0.500644
5150 1 0.673549 0.736779 0.500198
5192 1 0.673476 0.723306 0.500034
4929 1 0.686573 0.723673 0.499837
5200 1 0.707055 0.718077 0.501041
5276 1 0.717852 0.726629 0.500555
5351 1 0.698469 0.727599 0.50202
5553 1 0.730454 0.726098 0.500149
5483 1 0.743079 0.729903 0.501705
5349 1 0.753069 0.723267 0.502865
5268 1 0.780542 0.723831 0.501689
5342 1 0.765913 0.727556 0.501155
5124 1 0.774159 0.736943 0.502714
5156 1 0.802963 0.728579 0.503773
4160 1 0.791612 0.735796 0.502735
5348 1 0.792175 0.718275 0.501527
5074 1 0.815259 0.718813 0.502468
5159 1 0.816928 0.730661 0.502677
5220 1 0.826636 0.723472 0.501308
4941 1 0.837102 0.734128 0.501337
4788 1 0.865723 0.738554 0.501183
4937 1 0.849798 0.726867 0.501562
4939 1 0.888979 0.730614 0.501345
5157 1 0.875843 0.726617 0.501267
5298 1 0.903354 0.734027 0.501394
4885 1 0.915304 0.7372 0.501676
4672 1 0.917382 0.724792 0.499473
5082 1 0.644711 0.74138 0.500584
5338 1 0.665861 0.746827 0.499953
5203 1 0.694381 0.745173 0.500009
5420 1 0.718275 0.739975 0.498923
5077 1 0.760534 0.739917 0.501351
5149 1 0.738985 0.74836 0.499498
5335 1 0.76835 0.750197 0.500296
4805 1 0.781195 0.760779 0.501742
5137 1 0.780455 0.74739 0.501633
5001 1 0.797625 0.749836 0.502307
4732 1 0.805285 0.740778 0.504653
5009 1 0.824245 0.740432 0.502515
5199 1 0.816117 0.747784 0.504256
5217 1 0.809221 0.759058 0.50421
5359 1 0.823696 0.756779 0.503544
4871 1 0.846614 0.757126 0.501808
5151 1 0.835315 0.748515 0.501534
5485 1 0.857824 0.748505 0.502985
5070 1 0.849116 0.740259 0.502334
5380 1 0.886082 0.742047 0.502344
5014 1 0.872917 0.756604 0.50219
5017 1 0.887106 0.755113 0.502789
5012 1 0.87398 0.746434 0.503908
5088 1 0.89929 0.747446 0.503235
4875 1 0.911966 0.750004 0.502969
4444 1 0.907208 0.762668 0.502699
4801 1 0.931061 0.747136 0.502238
4864 1 0.923177 0.757106 0.503397
5173 1 0.94136 0.742284 0.499316
4945 1 0.95531 0.754245 0.500087
4935 1 0.944612 0.758129 0.50106
5155 1 0.755083 0.768453 0.501371
5416 1 0.763459 0.779852 0.50138
5365 1 0.775145 0.774291 0.503074
5206 1 0.76703 0.763099 0.500776
5302 1 0.794806 0.762486 0.50225
5209 1 0.792471 0.773443 0.504182
4858 1 0.82148 0.767934 0.503332
5060 1 0.804098 0.774878 0.501426
2845 1 0.817322 0.781219 0.503516
5493 1 0.843095 0.77745 0.503567
4932 1 0.8355 0.765429 0.502431
4724 1 0.867582 0.778584 0.504418
4812 1 0.854396 0.771208 0.502095
5143 1 0.861872 0.761144 0.504808
5024 1 0.890858 0.774478 0.504626
5015 1 0.877164 0.768073 0.503378
4849 1 0.895071 0.76316 0.504718
4792 1 0.904406 0.773718 0.504046
4882 1 0.921912 0.770309 0.50331
4827 1 0.933966 0.763433 0.503227
4796 1 0.939584 0.773494 0.502759
5019 1 0.953135 0.771726 0.502421
5174 1 0.979988 0.768606 0.500402
5510 1 0.752391 0.797288 0.500525
5419 1 0.749812 0.784685 0.499869
5002 1 0.777563 0.787252 0.501087
5364 1 0.793928 0.78666 0.501563
5422 1 0.804446 0.803488 0.501052
4943 1 0.791867 0.801657 0.500586
5140 1 0.8062 0.78898 0.501869
4671 1 0.819222 0.794804 0.501174
5021 1 0.843877 0.793088 0.502734
4867 1 0.83272 0.797913 0.501588
5439 1 0.830417 0.782838 0.503372
5177 1 0.868715 0.793656 0.503126
5301 1 0.854728 0.80071 0.503077
5218 1 0.857253 0.78643 0.502499
5299 1 0.890037 0.787959 0.504512
5235 1 0.877318 0.784237 0.504244
4802 1 0.878957 0.798312 0.504741
4947 1 0.89751 0.798804 0.505198
4745 1 0.910533 0.797528 0.50494
1968 1 0.901269 0.785724 0.505861
4958 1 0.931047 0.783683 0.503791
4955 1 0.917501 0.781329 0.505677
5003 1 0.925012 0.794859 0.505216
5311 1 0.953065 0.802577 0.504093
4738 1 0.940529 0.800933 0.502501
4820 1 0.943807 0.787859 0.502641
4734 1 0.957729 0.787591 0.501886
4954 1 0.966751 0.803231 0.503696
4963 1 0.970439 0.790128 0.502356
2453 1 0.99916 0.788808 0.500812
2312 1 0.982076 0.785463 0.501074
4967 1 0.989389 0.795602 0.50261
5356 1 0.783668 0.812027 0.500024
5231 1 0.795364 0.814464 0.501366
5292 1 0.7866 0.824943 0.500916
5517 1 0.81612 0.808453 0.5
5222 1 0.810717 0.820143 0.500593
5023 1 0.845395 0.823782 0.501497
4951 1 0.842685 0.8107 0.50238
4803 1 0.828396 0.810828 0.500979
5314 1 0.832414 0.822852 0.502084
5011 1 0.864763 0.807217 0.503105
5144 1 0.856033 0.818083 0.502009
4946 1 0.866622 0.821216 0.503621
4748 1 0.890147 0.823209 0.50395
5013 1 0.876528 0.814857 0.502471
4868 1 0.887257 0.809361 0.504612
5246 1 0.903912 0.826697 0.504991
5160 1 0.902918 0.811894 0.504999
4878 1 0.916415 0.809176 0.50541
5108 1 0.933505 0.810997 0.503427
5388 1 0.921873 0.821172 0.505194
5039 1 0.936301 0.825849 0.503712
4960 1 0.94613 0.815853 0.503905
2666 1 0.961653 0.817956 0.504702
4969 1 0.976322 0.817758 0.504723
4886 1 0.990241 0.817123 0.505501
5035 1 0.981962 0.805685 0.504901
5360 1 0.734012 0.846154 0.501096
5291 1 0.724581 0.836428 0.500254
5084 1 0.747798 0.839245 0.500578
2933 1 0.76208 0.834305 0.500469
5089 1 0.778486 0.837617 0.501858
5555 1 0.774514 0.825448 0.500457
5081 1 0.792267 0.843581 0.501052
5412 1 0.79916 0.828539 0.502235
5083 1 0.809809 0.836535 0.501813
4729 1 0.820212 0.824253 0.501591
5238 1 0.824774 0.839672 0.502127
5096 1 0.835925 0.836253 0.501194
5242 1 0.850095 0.83676 0.501384
5029 1 0.865095 0.832755 0.501575
4952 1 0.871917 0.843509 0.502115
4870 1 0.87722 0.827663 0.503622
5036 1 0.884309 0.839203 0.503302
5387 1 0.896775 0.841541 0.502995
5092 1 0.91231 0.83502 0.50504
2032 1 0.908957 0.846633 0.505057
5030 1 0.925227 0.833979 0.505639
5165 1 0.920794 0.846407 0.504805
5034 1 0.935747 0.846757 0.506663
5095 1 0.952182 0.827286 0.503458
86 1 0.941807 0.836019 0.505528
4824 1 0.954271 0.842556 0.504528
2033 1 0.966797 0.8422 0.504588
2039 1 0.964944 0.830518 0.504307
4899 1 0.978695 0.832052 0.504878
5170 1 0.994827 0.845255 0.504507
2038 1 0.982229 0.844341 0.503841
5031 1 0.989882 0.832163 0.503961
5438 1 0.754758 0.862749 0.500423
4866 1 0.756656 0.848856 0.5009
5148 1 0.743611 0.855858 0.500772
4888 1 0.770146 0.851476 0.501466
5369 1 0.77015 0.865638 0.501288
4740 1 0.781769 0.851397 0.501878
5022 1 0.783211 0.866163 0.500823
5450 1 0.792407 0.856806 0.501293
2311 1 0.799418 0.868454 0.502422
5234 1 0.821678 0.851403 0.501391
5300 1 0.805873 0.850503 0.501538
5172 1 0.841742 0.867232 0.500346
4518 1 0.834792 0.850529 0.500724
5307 1 0.846923 0.850258 0.500254
5306 1 0.854196 0.861479 0.501031
5308 1 0.869196 0.856484 0.501602
5166 1 0.883297 0.854204 0.502286
5247 1 0.878969 0.866805 0.50107
5304 1 0.892349 0.866765 0.501859
5163 1 0.895286 0.852677 0.502907
84 1 0.905726 0.859037 0.50516
5389 1 0.929841 0.859388 0.506089
5175 1 0.917738 0.858284 0.50445
5028 1 0.919682 0.870262 0.505641
4892 1 0.942952 0.864815 0.505782
2049 1 0.945833 0.852927 0.505486
2523 1 0.954315 0.869734 0.506273
5103 1 0.959136 0.855206 0.504606
2673 1 0.970834 0.856653 0.504442
5040 1 0.964839 0.8675 0.505895
5244 1 0.987733 0.857444 0.503981
2133 1 0.977991 0.868355 0.504611
5085 1 0.759819 0.87691 0.501769
5352 1 0.746217 0.873962 0.500317
4949 1 0.773291 0.880504 0.502701
5377 1 0.793648 0.880782 0.500984
5448 1 0.785221 0.891193 0.500054
5444 1 0.818362 0.875412 0.50052
5243 1 0.80846 0.882862 0.501377
5230 1 0.823202 0.888744 0.500893
5232 1 0.843292 0.882958 0.50105
5382 1 0.832139 0.875669 0.501023
2242 1 0.85995 0.88285 0.501042
5237 1 0.864877 0.869902 0.501386
2452 1 0.871873 0.884022 0.501799
4895 1 0.882678 0.881192 0.499986
5026 1 0.906616 0.870202 0.504483
4893 1 0.899072 0.879761 0.503586
5449 1 0.913292 0.883669 0.506657
5313 1 0.924081 0.88107 0.505388
2596 1 0.937836 0.875628 0.506407
2601 1 0.952015 0.881451 0.507059
2527 1 0.964811 0.881392 0.505147
2749 1 0.994519 0.872944 0.503513
2313 1 0.977676 0.880353 0.504219
2178 1 0.992549 0.884576 0.504608
2899 1 0.644232 0.908852 0.499364
4942 1 0.771001 0.894864 0.500992
5102 1 0.799233 0.89691 0.501517
5236 1 0.815681 0.897471 0.500884
5025 1 0.806009 0.909743 0.5001
5385 1 0.820207 0.908736 0.502004
5357 1 0.834917 0.891933 0.500053
5100 1 0.861746 0.901604 0.501234
5316 1 0.847734 0.894007 0.501686
5454 1 0.851571 0.907852 0.500695
5368 1 0.883914 0.899667 0.499938
5312 1 0.871693 0.897799 0.500545
5527 1 0.871515 0.912864 0.5003
2598 1 0.893333 0.891677 0.501635
5457 1 0.89944 0.905592 0.50273
2522 1 0.9041 0.893462 0.504238
2524 1 0.931446 0.906919 0.504657
5447 1 0.918121 0.898056 0.504656
5176 1 0.914152 0.910273 0.503539
5168 1 0.928583 0.89224 0.505967
2382 1 0.940732 0.892661 0.505535
5032 1 0.94244 0.905447 0.504581
5374 1 0.955491 0.893849 0.505124
5106 1 0.977502 0.90676 0.503177
5245 1 0.962845 0.905655 0.503979
2457 1 0.969635 0.894664 0.504898
5105 1 0.981523 0.893971 0.504813
149 1 0.99309 0.899797 0.501694
2967 1 0.559361 0.934042 0.498976
2950 1 0.583389 0.932013 0.500329
2826 1 0.571062 0.931189 0.500312
5489 1 0.800498 0.92599 0.500971
5583 1 0.787479 0.927696 0.501078
5593 1 0.827084 0.919094 0.50022
5297 1 0.817666 0.931976 0.501862
5317 1 0.839743 0.919447 0.501218
5309 1 0.844062 0.932531 0.501887
5373 1 0.857474 0.918571 0.501125
5435 1 0.874574 0.928437 0.499487
5455 1 0.888927 0.926713 0.499765
5440 1 0.910283 0.923197 0.500933
2665 1 0.90168 0.932224 0.500496
5390 1 0.929746 0.919438 0.503225
5453 1 0.923764 0.930008 0.50057
2525 1 0.944351 0.921521 0.503463
2743 1 0.938066 0.93296 0.501737
5459 1 0.952939 0.912287 0.503749
5451 1 0.951925 0.934283 0.50265
2597 1 0.966 0.93253 0.50322
5104 1 0.962887 0.920402 0.503977
5094 1 0.974817 0.921394 0.502635
2531 1 0.988979 0.914859 0.501541
2599 1 0.986647 0.927849 0.50087
3019 1 0.504688 0.944227 0.501808
5537 1 0.507851 0.957195 0.504466
3014 1 0.516476 0.94284 0.498784
2817 1 0.531609 0.944682 0.500858
5434 1 0.791904 0.937814 0.500226
5226 1 0.807964 0.948858 0.500029
5428 1 0.837296 0.943208 0.500835
2927 1 0.829936 0.933162 0.501143
5224 1 0.84811 0.945475 0.499651
5433 1 0.905263 0.946881 0.500013
2843 1 0.892509 0.950985 0.499672
2670 1 0.920665 0.954155 0.499701
5315 1 0.945142 0.946666 0.500249
2744 1 0.970025 0.95323 0.499646
4968 1 0.977239 0.937411 0.501006
5310 1 0.96174 0.94333 0.501362
5358 1 0.983095 0.950731 0.499897
2879 1 0.519189 0.970134 0.505322
2885 1 0.505555 0.970654 0.505373
2807 1 0.522978 0.956372 0.502786
3307 1 0.529173 0.97532 0.503726
3016 1 0.536669 0.95889 0.501654
2835 1 0.554992 0.969341 0.500253
2913 1 0.544561 0.968154 0.502202
3177 1 0.567896 0.975697 0.500835
2846 1 0.813636 0.970999 0.499583
5154 1 0.84459 0.970327 0.500912
5582 1 0.828821 0.970278 0.50032
3059 1 0.836334 0.98011 0.499003
3063 1 0.842267 0.958405 0.501409
2731 1 0.858105 0.972612 0.500665
2912 1 0.856162 0.958292 0.501774
3064 1 0.938804 0.957313 0.499287
3152 1 0.511931 0.98212 0.505451
3304 1 0.512125 0.995151 0.504
208 1 0.535245 0.989834 0.503202
3087 1 0.522756 0.986474 0.504156
3013 1 0.54468 0.982232 0.503554
3395 1 0.557527 0.986131 0.501405
2896 1 0.549562 0.995124 0.502695
2806 1 0.567897 0.992108 0.500387
2952 1 0.582369 0.993163 0.5007
2852 1 0.630787 0.99735 0.499951
5564 1 0.781346 0.990094 0.501287
5161 1 0.794945 0.987609 0.501103
3062 1 0.803898 1.00189 0.500471
2981 1 0.814603 0.994826 0.499223
3187 1 0.805415 0.983865 0.500741
5290 1 0.819546 0.981194 0.500936
3274 1 0.829218 0.989882 0.499795
3053 1 0.847435 0.984355 0.501032
2910 1 0.859909 0.986498 0.500733
3263 1 0.869067 0.992426 0.500259
5027 1 0.914181 0.98658 0.500131
