ITEM: TIMESTEP
399800
ITEM: NUMBER OF ATOMS
5600
ITEM: BOX BOUNDS pp pp pp
-3.4335000000000008e+01 3.4335000000000008e+01
-3.3982836844501406e+01 3.3982836844501406e+01
-5.8860000000000014e+01 5.8860000000000014e+01
ITEM: ATOMS id type xs ys zs
1275 1 0.103025 0.491832 0.449043
1268 1 0.156626 0.487166 0.449652
1433 1 0.168729 0.494116 0.448758
1206 1 0.217754 0.431494 0.461782
1267 1 0.146215 0.451086 0.459827
1070 1 0.169214 0.453861 0.45676
994 1 0.156275 0.441205 0.459931
1002 1 0.173258 0.434897 0.461156
1056 1 0.184762 0.441666 0.458842
992 1 0.201019 0.436394 0.460233
1366 1 0.19946 0.451637 0.459952
1431 1 0.214587 0.445424 0.460324
1443 1 0.227831 0.452722 0.459136
1436 1 0.230751 0.441888 0.461358
1218 1 0.242837 0.446335 0.461961
1342 1 0.049442 0.472357 0.461842
1403 1 0.0687926 0.474969 0.461273
4407 1 0.0768499 0.463917 0.46233
1338 1 0.0900034 0.467657 0.460332
4401 1 0.105691 0.46639 0.456782
4198 1 0.120958 0.469812 0.456611
4186 1 0.116839 0.457489 0.460629
1278 1 0.110426 0.478138 0.453546
1477 1 0.131755 0.458513 0.459769
1204 1 0.142898 0.463469 0.456936
1208 1 0.133567 0.476575 0.452148
1350 1 0.146728 0.476489 0.452822
1281 1 0.161211 0.471975 0.453671
1064 1 0.1583 0.46089 0.457137
1137 1 0.172683 0.46907 0.454831
999 1 0.182012 0.458584 0.458172
1265 1 0.18819 0.475723 0.454564
1271 1 0.194593 0.462918 0.457164
1073 1 0.203327 0.472073 0.456345
1432 1 0.212104 0.460645 0.458362
1357 1 0.222884 0.466569 0.45783
1435 1 0.233841 0.473787 0.458025
1362 1 0.239517 0.462133 0.459335
1515 1 0.250326 0.475737 0.45906
1226 1 0.251227 0.458008 0.461588
1384 1 0.262016 0.470018 0.462156
1800 1 0.28072 0.471683 0.461822
1307 1 0.29599 0.473174 0.461756
1304 1 0.322816 0.465778 0.461617
1368 1 0.334099 0.473485 0.461284
4404 1 0.0166484 0.494986 0.455656
1479 1 0.0112801 0.481391 0.461725
4541 1 0.00400003 0.490225 0.457677
4399 1 0.0313634 0.494808 0.455756
4479 1 0.0404112 0.48262 0.459065
4332 1 0.0241539 0.483136 0.458606
1544 1 0.0490486 0.496247 0.454782
4263 1 0.0583159 0.484665 0.458252
1341 1 0.0851053 0.479042 0.457416
1541 1 0.072272 0.48884 0.454256
1135 1 0.0867706 0.488972 0.451068
1263 1 0.0984121 0.481824 0.455696
1409 1 0.115665 0.49561 0.450082
1339 1 0.122181 0.485657 0.452249
1196 1 0.129635 0.498241 0.450158
1406 1 0.141157 0.48908 0.451185
1351 1 0.175283 0.482045 0.454192
1505 1 0.185891 0.494106 0.451194
1430 1 0.21352 0.479365 0.456342
1426 1 0.199997 0.485803 0.453666
1354 1 0.210759 0.491709 0.454555
1133 1 0.225591 0.488237 0.456797
1503 1 0.240559 0.488312 0.458223
1513 1 0.255709 0.487715 0.459393
1288 1 0.26723 0.482531 0.460644
1222 1 0.269848 0.497374 0.458109
1437 1 0.283785 0.487029 0.46049
1453 1 0.300675 0.485504 0.459518
1382 1 0.289141 0.499496 0.459509
1647 1 0.317636 0.480251 0.459309
1378 1 0.318833 0.494548 0.456514
1585 1 0.330502 0.483198 0.457386
1525 1 0.336236 0.498457 0.454435
1094 1 0.344614 0.483481 0.458446
1313 1 0.365358 0.485929 0.457619
1242 1 0.352288 0.495671 0.454552
1161 1 0.377944 0.482926 0.461674
1660 1 0.376315 0.494236 0.455913
1379 1 0.391765 0.492561 0.459306
1870 1 0.412114 0.495078 0.461816
1154 1 0.214499 0.37574 0.474895
1060 1 0.219311 0.388523 0.47282
1139 1 0.230164 0.379037 0.474548
926 1 0.232376 0.38986 0.47072
985 1 0.243733 0.386507 0.473726
1475 1 0.163025 0.408454 0.473457
914 1 0.177108 0.408567 0.468727
1007 1 0.194713 0.403147 0.469144
989 1 0.18018 0.397509 0.474468
1071 1 0.202029 0.392429 0.473153
1297 1 0.206715 0.407625 0.466773
1205 1 0.215507 0.397152 0.468991
993 1 0.230696 0.402823 0.467834
1150 1 0.24367 0.399051 0.471308
990 1 0.255331 0.409615 0.468552
4059 1 0.106276 0.426198 0.473468
1214 1 0.117931 0.423158 0.473546
1266 1 0.135983 0.426055 0.471649
1061 1 0.14402 0.433428 0.466401
1195 1 0.152684 0.421356 0.47103
1059 1 0.164722 0.419748 0.468164
1065 1 0.156927 0.431177 0.464212
1134 1 0.189342 0.429042 0.462552
1199 1 0.175288 0.424147 0.46452
1132 1 0.192627 0.414785 0.465852
1062 1 0.204565 0.421428 0.462545
995 1 0.22073 0.414105 0.465087
1203 1 0.230586 0.418899 0.463974
1361 1 0.237423 0.430822 0.464601
1210 1 0.241118 0.41439 0.466898
1069 1 0.250269 0.425035 0.466563
1365 1 0.263482 0.420144 0.470632
1232 1 0.276199 0.431237 0.471009
1086 1 0.29039 0.432259 0.47174
4189 1 0.0386371 0.451143 0.472353
4253 1 0.0239342 0.453626 0.472908
4403 1 0.0558348 0.449606 0.470429
4184 1 0.0472591 0.44104 0.474359
4329 1 0.0817659 0.435028 0.473988
4120 1 0.0654029 0.442421 0.47405
4191 1 0.0705656 0.455571 0.468144
1332 1 0.0791384 0.444976 0.469286
1545 1 0.088751 0.45144 0.465362
4324 1 0.0954122 0.437032 0.470548
1405 1 0.106691 0.446917 0.465156
1331 1 0.111617 0.437505 0.469242
4266 1 0.12195 0.447038 0.46394
1131 1 0.126277 0.435671 0.468608
1127 1 0.135511 0.446531 0.463833
1419 1 0.251262 0.438889 0.465527
1211 1 0.265812 0.435094 0.466805
1286 1 0.262936 0.450262 0.464385
1358 1 0.278719 0.444316 0.46735
1490 1 0.295912 0.446122 0.466969
1207 1 0.306194 0.436758 0.472412
1230 1 0.309965 0.448521 0.469518
1166 1 0.320924 0.443078 0.473717
1531 1 0.320675 0.454802 0.46754
1303 1 0.333001 0.447242 0.471496
1314 1 0.367176 0.452439 0.47245
1360 1 0.356071 0.447093 0.47421
4325 1 0.0208156 0.47051 0.463239
4261 1 0.00422402 0.473365 0.46637
4256 1 0.0143465 0.464608 0.469403
4262 1 0.0312763 0.461729 0.467009
4320 1 0.035409 0.473059 0.463602
4259 1 0.0461829 0.460398 0.467295
1336 1 0.06262 0.462313 0.464669
1333 1 0.100949 0.458135 0.462833
1364 1 0.273584 0.459123 0.464347
1376 1 0.288159 0.457689 0.465635
1383 1 0.309538 0.470048 0.462972
1657 1 0.30457 0.459848 0.466254
1352 1 0.335552 0.457217 0.466361
1301 1 0.347425 0.470303 0.465901
1374 1 0.359207 0.477185 0.462509
1447 1 0.348836 0.457193 0.469975
1369 1 0.361033 0.465398 0.467625
1092 1 0.376485 0.46175 0.470933
1312 1 0.372612 0.470759 0.465398
1371 1 0.386361 0.467893 0.470615
1316 1 0.404588 0.464073 0.472737
1306 1 0.397753 0.472981 0.468811
1529 1 0.412131 0.476067 0.470347
1158 1 0.39329 0.458677 0.474044
1520 1 0.423389 0.472826 0.472449
1467 1 0.438358 0.476163 0.474999
1302 1 0.388034 0.480584 0.465881
1518 1 0.402179 0.483219 0.465799
1380 1 0.419122 0.484139 0.465634
1308 1 0.431723 0.485531 0.470226
1305 1 0.426371 0.498602 0.464318
1528 1 0.449704 0.487142 0.472007
1593 1 0.4551 0.497825 0.468536
1953 1 0.438352 0.49534 0.466579
1318 1 0.465033 0.489286 0.472053
4343 1 0.479118 0.491741 0.472969
938 1 0.225082 0.344964 0.486721
934 1 0.189255 0.363476 0.481781
921 1 0.176726 0.365688 0.484579
650 1 0.199762 0.355522 0.484445
859 1 0.205401 0.364677 0.479565
1149 1 0.214471 0.350047 0.484523
936 1 0.218894 0.360033 0.479492
1144 1 0.231668 0.355866 0.483004
998 1 0.228782 0.368757 0.478163
1209 1 0.253564 0.367143 0.483915
1072 1 0.240193 0.365464 0.480918
933 1 0.245789 0.356058 0.486015
4333 1 0.126843 0.383038 0.483701
4122 1 0.13797 0.389035 0.480699
4188 1 0.147728 0.37693 0.48494
930 1 0.150929 0.386461 0.480301
996 1 0.165204 0.376762 0.481818
1141 1 0.189738 0.386684 0.47543
1009 1 0.175273 0.38562 0.479903
1136 1 0.186084 0.377013 0.479456
1287 1 0.199955 0.379316 0.476465
1152 1 0.243488 0.375877 0.477559
792 1 0.255114 0.377878 0.48007
1215 1 0.266161 0.384307 0.481737
865 1 0.267233 0.371498 0.486901
1213 1 0.279399 0.379716 0.48643
4339 1 0.0571223 0.410456 0.486904
4129 1 0.0822783 0.401815 0.487154
4268 1 0.0940671 0.406366 0.483964
4190 1 0.101318 0.397585 0.487412
4340 1 0.114697 0.392422 0.485245
4258 1 0.10993 0.40486 0.481979
4405 1 0.125203 0.400834 0.480495
1192 1 0.114045 0.413034 0.476787
1402 1 0.138363 0.401792 0.478847
1335 1 0.145848 0.411863 0.475675
918 1 0.155759 0.39818 0.478501
4269 1 0.169192 0.395757 0.477375
1349 1 0.255036 0.393386 0.476145
864 1 0.268897 0.405503 0.475228
1001 1 0.275148 0.394927 0.480256
1292 1 0.285454 0.392091 0.485559
1279 1 0.283945 0.406776 0.481146
1143 1 0.296274 0.398442 0.487065
1082 1 0.298736 0.40827 0.481794
1220 1 0.324613 0.404 0.485086
1289 1 0.310489 0.410321 0.481896
1231 1 0.339793 0.408301 0.485578
4112 1 0.0402785 0.431719 0.482317
3981 1 0.024094 0.432472 0.48409
4183 1 0.0331796 0.421056 0.487322
4192 1 0.0566855 0.431727 0.480222
4264 1 0.0493735 0.42186 0.485838
1473 1 0.0842046 0.415652 0.482783
4335 1 0.0713196 0.427023 0.479928
4187 1 0.0717731 0.416664 0.48426
1126 1 0.0896355 0.425125 0.477421
4409 1 0.10031 0.415507 0.479524
1130 1 0.130546 0.415776 0.476721
1359 1 0.278686 0.416964 0.476199
1299 1 0.297554 0.42042 0.476953
1153 1 0.321322 0.430215 0.476996
1355 1 0.310485 0.423974 0.47778
1298 1 0.325236 0.41908 0.480365
1651 1 0.334512 0.432456 0.47697
1293 1 0.339937 0.421541 0.482771
1015 1 0.351736 0.432426 0.480693
1448 1 0.352861 0.419699 0.48499
1163 1 0.366492 0.425533 0.484665
1321 1 0.389533 0.428452 0.4858
1540 1 0.404639 0.432967 0.487251
4247 1 0.0160216 0.444284 0.479302
4251 1 0.000653027 0.447281 0.482351
4321 1 0.0109439 0.435594 0.48641
4391 1 0.0299889 0.441289 0.477782
1088 1 0.343648 0.445071 0.476578
1233 1 0.363179 0.436764 0.479183
1294 1 0.382855 0.453874 0.475758
1091 1 0.378962 0.435357 0.481955
1387 1 0.388229 0.445541 0.4802
1370 1 0.374271 0.444258 0.478202
1173 1 0.396217 0.438923 0.482193
1516 1 0.403185 0.45224 0.478822
1241 1 0.411255 0.444217 0.484628
1388 1 0.431289 0.452755 0.48358
1390 1 0.423602 0.442595 0.487327
1450 1 0.420348 0.453346 0.479832
1680 1 0.445368 0.450563 0.48601
1468 1 0.458308 0.453337 0.485379
1609 1 0.472434 0.455981 0.486784
4245 1 0.00932185 0.456595 0.475777
4207 1 0.417745 0.463041 0.476039
1532 1 0.431454 0.462658 0.477157
1539 1 0.444505 0.462181 0.480667
1469 1 0.453213 0.476115 0.475325
1535 1 0.460899 0.46653 0.481674
1319 1 0.476009 0.466974 0.483378
1461 1 0.492459 0.470239 0.484654
1391 1 0.485946 0.458362 0.486237
1465 1 0.468878 0.479253 0.478131
1393 1 0.48356 0.479277 0.479381
1324 1 0.495362 0.490432 0.475614
932 1 0.219133 0.324843 0.49668
584 1 0.236591 0.322973 0.497075
872 1 0.249773 0.324283 0.496854
1011 1 0.267909 0.322701 0.497279
919 1 0.149653 0.34166 0.499742
922 1 0.164393 0.345738 0.494253
923 1 0.164579 0.335243 0.498463
860 1 0.175867 0.342413 0.493167
1008 1 0.186463 0.336891 0.496555
866 1 0.193336 0.339227 0.490737
1063 1 0.177355 0.329676 0.499646
1006 1 0.206518 0.330582 0.4951
1076 1 0.204909 0.342131 0.489029
863 1 0.217197 0.335907 0.490665
652 1 0.229241 0.331737 0.491447
1221 1 0.240154 0.343731 0.488717
1090 1 0.243058 0.332138 0.492508
940 1 0.253166 0.343038 0.490944
812 1 0.258281 0.332904 0.495448
1074 1 0.272561 0.33706 0.496808
1155 1 0.282088 0.347035 0.497299
983 1 0.0982149 0.362964 0.498786
987 1 0.107853 0.35526 0.499209
916 1 0.120474 0.363269 0.493695
1124 1 0.120631 0.353036 0.499859
4124 1 0.109153 0.36942 0.493765
1058 1 0.135722 0.357523 0.495069
1055 1 0.144416 0.364458 0.490346
1128 1 0.153503 0.35534 0.494801
1367 1 0.157008 0.363241 0.488264
928 1 0.168474 0.35682 0.489775
857 1 0.18484 0.349833 0.487853
1216 1 0.25906 0.358214 0.490007
1291 1 0.26595 0.348867 0.493753
884 1 0.274442 0.356852 0.492713
997 1 0.281222 0.369242 0.492047
1290 1 0.300594 0.347872 0.499463
1499 1 0.291586 0.355719 0.495981
1148 1 0.297919 0.36803 0.493955
1234 1 0.307716 0.358655 0.498078
1223 1 0.320081 0.36614 0.496182
944 1 0.338096 0.362029 0.499845
4194 1 0.0546693 0.390169 0.497579
4199 1 0.0655405 0.382608 0.496081
1261 1 0.078923 0.383325 0.494787
1191 1 0.102209 0.383981 0.491377
1057 1 0.0939682 0.374079 0.495473
4195 1 0.116052 0.377857 0.48984
4267 1 0.13181 0.372295 0.488417
1138 1 0.292824 0.380454 0.491469
1212 1 0.310516 0.376083 0.494757
1068 1 0.307053 0.390906 0.490039
1421 1 0.32034 0.384139 0.493517
1156 1 0.330294 0.372328 0.494557
1016 1 0.344266 0.373928 0.497099
1162 1 0.335676 0.384333 0.493467
1089 1 0.359724 0.378733 0.49984
1164 1 0.351247 0.385781 0.492333
3973 1 0.0118316 0.410782 0.495642
4048 1 0.0271941 0.409867 0.494205
4116 1 0.039621 0.409862 0.492092
4050 1 0.0364042 0.392202 0.499827
4051 1 0.0545269 0.39939 0.492655
4338 1 0.0863539 0.39183 0.49147
1407 1 0.0710481 0.406106 0.488889
3980 1 0.0708294 0.393522 0.492998
1000 1 0.312382 0.401716 0.487564
1295 1 0.322949 0.394241 0.489654
1157 1 0.33528 0.393603 0.488304
1097 1 0.364301 0.393069 0.491858
1236 1 0.351381 0.399699 0.488808
1093 1 0.364343 0.412232 0.488216
1224 1 0.383516 0.39908 0.495171
1167 1 0.372323 0.403751 0.491925
1174 1 0.390346 0.41063 0.492096
959 1 0.404298 0.411355 0.496207
1102 1 0.398375 0.400887 0.499267
3768 1 7.01516e-05 0.414077 0.499611
4042 1 0.00309596 0.424974 0.493481
4046 1 0.0171846 0.423117 0.491298
946 1 0.376844 0.416667 0.489141
1300 1 0.398862 0.420161 0.489896
1049 1 0.412198 0.420602 0.493513
1109 1 0.419444 0.41415 0.498603
1098 1 0.418002 0.432599 0.490689
1454 1 0.427116 0.426554 0.495327
1240 1 0.4422 0.420493 0.499249
1114 1 0.44289 0.430338 0.493527
1587 1 0.456711 0.431145 0.496266
1309 1 0.473207 0.43426 0.496123
1381 1 0.434624 0.438989 0.490584
1239 1 0.454003 0.44186 0.489696
1523 1 0.467711 0.442442 0.491283
4201 1 0.494905 0.447078 0.491547
1596 1 0.482125 0.443863 0.490097
1389 1 0.487803 0.435111 0.496311
723 1 0.210389 0.29646 0.511348
1003 1 0.197746 0.301269 0.508369
600 1 0.223453 0.290397 0.51126
924 1 0.232663 0.302561 0.507834
725 1 0.239796 0.291415 0.508944
870 1 0.253107 0.286736 0.510563
582 1 0.250808 0.299916 0.505182
1010 1 0.264038 0.294242 0.507815
1084 1 0.277577 0.300085 0.507668
868 1 0.289142 0.295316 0.512026
830 1 0.30132 0.297599 0.511942
1081 1 0.316601 0.30431 0.512481
991 1 0.145327 0.323619 0.510708
1075 1 0.157796 0.319483 0.511002
1054 1 0.170075 0.31438 0.511104
847 1 0.165831 0.325731 0.505559
718 1 0.181573 0.307191 0.510925
846 1 0.181975 0.318379 0.505297
724 1 0.21465 0.307621 0.506604
789 1 0.195833 0.31314 0.5053
576 1 0.210024 0.318872 0.500665
1146 1 0.224069 0.313791 0.501269
867 1 0.241355 0.311697 0.501649
1014 1 0.254249 0.314186 0.500206
727 1 0.265385 0.308092 0.502459
1083 1 0.277701 0.314287 0.501831
1087 1 0.289766 0.306858 0.506205
1078 1 0.293344 0.321302 0.503698
1012 1 0.304842 0.315667 0.508364
1085 1 0.323325 0.316271 0.509302
4196 1 0.0984514 0.338355 0.509514
3918 1 0.107924 0.342807 0.503148
4123 1 0.095978 0.347245 0.505177
988 1 0.129375 0.328193 0.508656
3847 1 0.115205 0.330065 0.510321
986 1 0.124553 0.341649 0.504835
984 1 0.139191 0.331797 0.505883
1005 1 0.136715 0.345449 0.500112
917 1 0.152682 0.329802 0.504294
851 1 0.194884 0.326272 0.500579
1217 1 0.281241 0.327242 0.500347
1079 1 0.302373 0.332511 0.504882
1225 1 0.29216 0.336242 0.500389
1140 1 0.314952 0.327511 0.508129
1147 1 0.322675 0.341063 0.506035
1151 1 0.313073 0.343745 0.502371
1296 1 0.32773 0.329736 0.509654
1026 1 0.338969 0.339307 0.51112
1401 1 0.0603416 0.369538 0.507763
4193 1 0.0811441 0.353538 0.508192
1334 1 0.0686847 0.355853 0.511951
3988 1 0.0755077 0.363246 0.505485
1262 1 0.0862926 0.358099 0.501763
1228 1 0.321938 0.354367 0.500117
1227 1 0.334041 0.349142 0.504671
1080 1 0.347807 0.354342 0.508106
1159 1 0.36011 0.359858 0.511004
948 1 0.350195 0.366281 0.504447
4118 1 0.0127614 0.38648 0.512423
3913 1 0.0408423 0.382629 0.504855
3979 1 0.0292482 0.379075 0.510363
4197 1 0.0233585 0.389775 0.505835
1471 1 0.0457332 0.37259 0.51102
912 1 0.0526324 0.378539 0.502164
4128 1 0.0665511 0.374758 0.501586
1122 1 0.0802904 0.37254 0.500351
1025 1 0.365035 0.373503 0.50646
1027 1 0.375736 0.38188 0.507566
1181 1 0.383748 0.370366 0.512388
954 1 0.372688 0.388957 0.500231
1044 1 0.393618 0.384719 0.509651
4047 1 0.0108877 0.394853 0.50697
4052 1 0.0213165 0.401574 0.501196
3836 1 0.00341953 0.403704 0.503138
1022 1 0.389345 0.392467 0.502711
1237 1 0.404079 0.394115 0.508311
1238 1 0.410241 0.401911 0.502576
1252 1 0.423339 0.401746 0.507379
1244 1 0.433709 0.410529 0.503134
1032 1 0.41539 0.392499 0.512041
1377 1 0.437646 0.401253 0.512334
1310 1 0.44834 0.408183 0.508816
1178 1 0.461834 0.411661 0.509398
1040 1 0.486552 0.40559 0.512195
1172 1 0.454946 0.418379 0.502078
977 1 0.475921 0.416798 0.505905
1460 1 0.46629 0.423933 0.500692
1249 1 0.481968 0.425053 0.500381
1113 1 0.499625 0.430018 0.501965
1253 1 0.492252 0.419449 0.507083
659 1 0.258076 0.254883 0.524854
794 1 0.272651 0.253824 0.52482
810 1 0.285657 0.259865 0.523264
717 1 0.185295 0.282408 0.520851
786 1 0.19936 0.2771 0.522056
657 1 0.214583 0.271628 0.522437
661 1 0.231116 0.262759 0.523478
1145 1 0.236952 0.282559 0.514122
587 1 0.23442 0.270452 0.517276
800 1 0.223144 0.278318 0.516942
795 1 0.245491 0.263336 0.521337
588 1 0.247536 0.275998 0.515093
655 1 0.260585 0.265004 0.51987
654 1 0.274268 0.269254 0.519839
790 1 0.264884 0.278404 0.51364
1229 1 0.296782 0.271246 0.520599
879 1 0.286997 0.281414 0.516044
893 1 0.309895 0.275366 0.519645
802 1 0.319882 0.271691 0.522729
958 1 0.333994 0.279891 0.522034
858 1 0.142742 0.303633 0.520511
791 1 0.171678 0.287969 0.520547
1053 1 0.157785 0.29606 0.521522
793 1 0.171066 0.301194 0.516787
732 1 0.183762 0.293037 0.514884
797 1 0.196922 0.287426 0.51566
721 1 0.21153 0.283894 0.515744
806 1 0.276543 0.28551 0.512797
947 1 0.301814 0.28567 0.515785
1142 1 0.313377 0.292187 0.516656
1099 1 0.321707 0.283457 0.519323
1036 1 0.329329 0.295541 0.518404
882 1 0.34706 0.295975 0.522161
3989 1 0.0866587 0.322391 0.522741
3987 1 0.0992315 0.319031 0.519803
1121 1 0.117876 0.319524 0.516796
3710 1 0.109211 0.31335 0.523554
656 1 0.128511 0.308896 0.520411
849 1 0.14397 0.314834 0.516011
4056 1 0.132777 0.319385 0.51428
920 1 0.155369 0.308337 0.515827
897 1 0.327917 0.309684 0.515101
1171 1 0.341162 0.30754 0.519143
1160 1 0.337191 0.323353 0.515117
1235 1 0.350806 0.318029 0.520464
1168 1 0.368413 0.322916 0.524782
1018 1 0.360703 0.306932 0.52332
3626 1 0.0343118 0.345063 0.524078
4053 1 0.0621122 0.337265 0.522595
4057 1 0.060505 0.347552 0.517361
1264 1 0.0479523 0.346835 0.519907
843 1 0.072627 0.343994 0.515695
4126 1 0.0764826 0.332333 0.520483
4060 1 0.0846462 0.341091 0.513739
3846 1 0.10571 0.327912 0.514463
1125 1 0.0924517 0.329225 0.517097
1169 1 0.347594 0.333122 0.516239
1110 1 0.356824 0.347534 0.514508
1100 1 0.36214 0.332766 0.520297
1034 1 0.374089 0.345297 0.519706
3971 1 0.0144445 0.367882 0.523695
3764 1 0.0265086 0.360448 0.521888
1129 1 0.0408323 0.357657 0.5172
3911 1 0.0341363 0.368581 0.515251
4119 1 0.0547078 0.358259 0.513253
878 1 0.371106 0.368337 0.512783
894 1 0.389449 0.348035 0.523688
1035 1 0.370518 0.355603 0.516343
1028 1 0.382846 0.359711 0.518841
1108 1 0.402383 0.357799 0.521031
1170 1 0.409794 0.368717 0.521431
3772 1 0.0194626 0.375741 0.516057
3908 1 0.00454907 0.378838 0.516352
1165 1 0.396321 0.371239 0.517174
1104 1 0.406694 0.381596 0.515083
1177 1 0.426777 0.370546 0.524007
1024 1 0.419954 0.383133 0.519215
1048 1 0.427915 0.390942 0.515594
1180 1 0.435081 0.38266 0.521924
3781 1 0.45068 0.378518 0.524201
1183 1 0.466586 0.38716 0.520797
908 1 0.499852 0.389308 0.522494
3646 1 0.489253 0.380521 0.524504
4061 1 0.445065 0.392252 0.519088
1111 1 0.456053 0.398097 0.514745
1179 1 0.470175 0.400981 0.514212
1175 1 0.482214 0.392172 0.518488
1042 1 0.493026 0.397899 0.517559
202 1 0.407057 0.00073471 0.53572
203 1 0.432389 0.00747686 0.536982
127 1 0.447923 0.00544004 0.533045
269 1 0.456024 0.0158514 0.535984
2942 1 0.462016 0.0017041 0.530235
280 1 0.471121 0.0142011 0.534344
273 1 0.475493 0.00247602 0.529747
416 1 0.487321 0.0139253 0.530563
2872 1 0.490278 0.00189686 0.525364
3223 1 0.496014 0.022401 0.533389
5540 1 0.481107 0.0241357 0.537161
1004 1 0.238631 0.239088 0.53364
598 1 0.248985 0.230623 0.534828
945 1 0.264139 0.231997 0.533189
662 1 0.278501 0.234794 0.53362
731 1 0.291564 0.237932 0.536149
734 1 0.306529 0.238381 0.535428
572 1 0.199443 0.248959 0.537326
645 1 0.211589 0.2509 0.532693
862 1 0.217702 0.260412 0.526645
580 1 0.221913 0.240034 0.535124
796 1 0.22893 0.251138 0.529482
523 1 0.255367 0.244773 0.529867
666 1 0.242976 0.249235 0.526218
735 1 0.269223 0.242989 0.528709
1219 1 0.297174 0.25699 0.526285
747 1 0.286085 0.245339 0.528501
730 1 0.301832 0.247013 0.530743
736 1 0.319633 0.239446 0.535161
869 1 0.312638 0.253978 0.530924
675 1 0.328193 0.249023 0.532651
880 1 0.336544 0.257835 0.530962
807 1 0.34412 0.250123 0.536129
824 1 0.37501 0.2587 0.535209
913 1 0.128221 0.273853 0.536033
712 1 0.112758 0.278786 0.535658
856 1 0.141865 0.272518 0.537111
850 1 0.141149 0.280862 0.532185
726 1 0.155484 0.277864 0.531419
3990 1 0.155835 0.265965 0.536197
720 1 0.167928 0.270166 0.532454
370 1 0.190636 0.270064 0.528021
647 1 0.183168 0.26415 0.534222
788 1 0.175351 0.276711 0.527703
658 1 0.196032 0.261276 0.53326
1067 1 0.205137 0.265071 0.527833
871 1 0.30924 0.263544 0.525052
877 1 0.324707 0.262973 0.527601
822 1 0.338476 0.268863 0.527612
1096 1 0.351479 0.262321 0.532246
1020 1 0.353342 0.276424 0.527702
1101 1 0.364633 0.268522 0.533895
949 1 0.377767 0.274228 0.535231
4200 1 0.0878634 0.303387 0.533743
3914 1 0.0992555 0.291621 0.535369
853 1 0.104803 0.302135 0.530387
649 1 0.117571 0.302313 0.526036
3986 1 0.113728 0.29025 0.532615
729 1 0.128413 0.284692 0.531828
452 1 0.130742 0.296053 0.525119
586 1 0.146327 0.290566 0.52642
854 1 0.162918 0.286001 0.526917
1019 1 0.345 0.285257 0.525026
952 1 0.359408 0.293753 0.526547
955 1 0.365977 0.283786 0.531163
892 1 0.369611 0.297948 0.530718
891 1 0.379067 0.29051 0.535506
828 1 0.391137 0.297423 0.536613
3841 1 0.0269392 0.325618 0.537454
3631 1 0.0525913 0.316758 0.535879
4054 1 0.0675076 0.314493 0.534304
3778 1 0.0823868 0.316065 0.528844
1123 1 0.0943169 0.311613 0.527683
957 1 0.369057 0.311956 0.528738
1017 1 0.382384 0.309422 0.532541
1037 1 0.382456 0.32234 0.529034
1021 1 0.410111 0.308341 0.536586
1023 1 0.394009 0.311207 0.534711
834 1 0.399327 0.322648 0.532758
898 1 0.413 0.321336 0.533457
817 1 0.423788 0.317009 0.53672
902 1 0.43687 0.325237 0.536313
3983 1 0.0120139 0.330402 0.536107
3696 1 0.00873631 0.343084 0.532151
841 1 0.0216446 0.338692 0.531453
4058 1 0.0416052 0.326401 0.533411
3562 1 0.033894 0.335981 0.530482
3848 1 0.0571746 0.326099 0.530118
3844 1 0.0480103 0.335195 0.526303
4130 1 0.0709733 0.326999 0.527963
1030 1 0.379496 0.333409 0.525274
975 1 0.39294 0.333713 0.528117
1247 1 0.409422 0.336633 0.530468
1029 1 0.40319 0.346048 0.525698
963 1 0.423288 0.330741 0.531747
1039 1 0.419397 0.344728 0.527981
820 1 0.435419 0.342609 0.532194
3647 1 0.449894 0.345589 0.532556
910 1 0.450139 0.330808 0.533888
962 1 0.461894 0.337816 0.535548
973 1 0.475377 0.346052 0.536363
3837 1 0.00962077 0.355515 0.525982
1194 1 0.0218009 0.347952 0.525703
1103 1 0.415609 0.356457 0.52563
1033 1 0.432246 0.356578 0.527954
960 1 0.446345 0.359009 0.531612
1046 1 0.457891 0.364835 0.531281
3579 1 0.462598 0.353476 0.534783
3641 1 0.473 0.364981 0.532422
3508 1 0.482766 0.354443 0.535777
3580 1 0.495947 0.359759 0.534791
3645 1 0.485051 0.366369 0.52964
966 1 0.441303 0.370145 0.52829
1031 1 0.477417 0.37706 0.526006
1251 1 0.463763 0.375241 0.527357
3643 1 0.499102 0.373223 0.528646
2786 1 0.339499 0.00555259 0.54996
2648 1 0.35837 0.000427341 0.54523
62 1 0.377757 0.00198615 0.541454
333 1 0.370755 0.00899195 0.546575
55 1 0.389028 0.0105644 0.543039
54 1 0.378498 0.0188919 0.548311
2713 1 0.400998 0.0118355 0.541315
274 1 0.412314 0.0193141 0.54517
60 1 0.416885 0.0104953 0.538606
408 1 0.428218 0.0190242 0.541582
335 1 0.442293 0.0171511 0.539169
2787 1 0.396126 0.0235539 0.547686
267 1 0.411201 0.029193 0.549722
464 1 0.424656 0.0295023 0.547701
394 1 0.437896 0.0297174 0.545151
270 1 0.450264 0.0300635 0.542767
483 1 0.463425 0.0239256 0.539878
410 1 0.458911 0.0360286 0.546865
277 1 0.473758 0.0331787 0.5424
210 1 0.494637 0.0345813 0.537621
209 1 0.485738 0.0398956 0.542043
406 1 0.44658 0.0437831 0.549679
268 1 0.458539 0.0527701 0.548682
66 1 0.470618 0.0473443 0.545822
271 1 0.46895 0.0627074 0.549677
135 1 0.484769 0.0519462 0.545304
344 1 0.480825 0.0628379 0.546763
418 1 0.497058 0.0477167 0.54267
417 1 0.496261 0.0603726 0.546415
2793 1 0.489618 0.0728707 0.549616
714 1 0.193864 0.212319 0.549988
567 1 0.206735 0.215892 0.548792
585 1 0.221116 0.213701 0.547454
642 1 0.238132 0.208946 0.547461
380 1 0.223135 0.203114 0.549741
440 1 0.253005 0.21377 0.544156
513 1 0.251995 0.201104 0.549597
518 1 0.26686 0.213494 0.544634
386 1 0.27998 0.210989 0.54392
524 1 0.265746 0.200585 0.548048
520 1 0.278656 0.202282 0.549256
511 1 0.29105 0.205526 0.548314
516 1 0.294313 0.216677 0.544838
591 1 0.30594 0.20709 0.549626
667 1 0.319726 0.211987 0.546193
519 1 0.334534 0.214292 0.545695
671 1 0.339113 0.199859 0.549298
741 1 0.351941 0.210228 0.546299
939 1 0.365549 0.20762 0.548626
941 1 0.355523 0.197657 0.549074
881 1 0.380199 0.206893 0.549728
784 1 0.144902 0.229271 0.549031
772 1 0.13229 0.237341 0.548934
929 1 0.159326 0.238869 0.546228
3780 1 0.169857 0.228758 0.548572
845 1 0.15647 0.221132 0.549684
716 1 0.17939 0.219281 0.54854
911 1 0.18131 0.237397 0.545415
444 1 0.192178 0.22455 0.546777
848 1 0.205573 0.225214 0.543699
925 1 0.208491 0.236949 0.538618
722 1 0.195675 0.236061 0.540133
515 1 0.221015 0.228215 0.542743
728 1 0.234453 0.230359 0.537676
651 1 0.234115 0.218888 0.544072
371 1 0.244709 0.222826 0.540802
583 1 0.259269 0.224919 0.539233
660 1 0.274358 0.225108 0.53893
653 1 0.289032 0.225184 0.53985
733 1 0.30912 0.218021 0.543588
663 1 0.304625 0.227572 0.54009
574 1 0.323137 0.226366 0.540605
1077 1 0.333005 0.238182 0.539707
737 1 0.336746 0.225817 0.541027
536 1 0.349757 0.222772 0.541957
943 1 0.363236 0.217854 0.543467
670 1 0.364426 0.230077 0.543355
874 1 0.3519 0.237382 0.540786
808 1 0.375116 0.22085 0.546539
819 1 0.388746 0.22287 0.54905
609 1 0.375868 0.232811 0.543456
805 1 0.387325 0.235934 0.544347
876 1 0.401589 0.231686 0.548001
751 1 0.423473 0.237092 0.549772
499 1 0.10604 0.249569 0.547574
780 1 0.0900785 0.252867 0.549012
3920 1 0.119574 0.241586 0.549639
781 1 0.121745 0.254292 0.546639
4055 1 0.133198 0.24876 0.545083
861 1 0.146914 0.243883 0.544866
3849 1 0.145728 0.259016 0.54205
799 1 0.168254 0.25563 0.537531
855 1 0.16054 0.252789 0.543844
842 1 0.173022 0.244799 0.543979
644 1 0.185402 0.250517 0.538889
1013 1 0.359838 0.255046 0.537841
816 1 0.3673 0.243337 0.540045
942 1 0.383791 0.24729 0.540438
803 1 0.394797 0.255735 0.540899
470 1 0.398233 0.242558 0.544625
542 1 0.410393 0.258242 0.542741
883 1 0.411547 0.241479 0.547234
798 1 0.432378 0.245195 0.548425
953 1 0.419132 0.25391 0.547358
887 1 0.444059 0.254935 0.548674
3709 1 0.05036 0.281911 0.547359
982 1 0.0592506 0.2702 0.549676
3984 1 0.0662313 0.278153 0.546753
703 1 0.07745 0.264508 0.547568
3919 1 0.0837052 0.278602 0.543722
915 1 0.107209 0.26228 0.545148
778 1 0.0937365 0.263575 0.546354
3777 1 0.104211 0.273529 0.540517
3985 1 0.0951175 0.280994 0.539007
3850 1 0.120289 0.266329 0.539981
931 1 0.13258 0.262472 0.541425
951 1 0.389508 0.266947 0.539056
744 1 0.408664 0.281207 0.541094
961 1 0.402353 0.268902 0.540829
680 1 0.420211 0.270906 0.543911
833 1 0.431455 0.262205 0.546203
896 1 0.433772 0.276878 0.5443
766 1 0.447337 0.268338 0.547809
1043 1 0.445876 0.281895 0.545606
886 1 0.457867 0.276864 0.5485
774 1 0.00723645 0.294159 0.547505
773 1 0.0218391 0.289588 0.548704
3704 1 0.0385156 0.290343 0.546526
3912 1 0.0311538 0.302621 0.544113
3910 1 0.0579188 0.291027 0.543832
3776 1 0.0459915 0.300828 0.543021
981 1 0.0747788 0.302052 0.539065
3915 1 0.0706323 0.290604 0.542754
1051 1 0.0853429 0.291163 0.538977
888 1 0.391575 0.283593 0.539222
825 1 0.405316 0.296624 0.537984
964 1 0.420876 0.286486 0.542699
967 1 0.418937 0.299738 0.539441
764 1 0.433216 0.292384 0.542661
900 1 0.447128 0.300468 0.542178
1038 1 0.469586 0.283486 0.549101
1106 1 0.458824 0.292263 0.546891
1176 1 0.470517 0.298784 0.546877
965 1 0.482343 0.293072 0.549827
3916 1 0.0160424 0.304672 0.545195
3559 1 0.0012398 0.319491 0.541284
3632 1 0.0186441 0.316277 0.541353
3707 1 0.00178691 0.306541 0.544199
3982 1 0.0367411 0.314003 0.540384
3633 1 0.0628369 0.3045 0.541189
821 1 0.432529 0.309331 0.538928
956 1 0.447665 0.315482 0.540267
899 1 0.46026 0.306636 0.544586
1041 1 0.472427 0.317035 0.54568
968 1 0.461855 0.322881 0.538873
3571 1 0.486382 0.308872 0.548255
3718 1 0.499259 0.319309 0.547885
969 1 0.47489 0.332797 0.53843
1112 1 0.485933 0.326427 0.546676
3715 1 0.48747 0.339452 0.541437
3572 1 0.498476 0.334393 0.545462
3716 1 0.495927 0.349141 0.540336
2752 1 0.0060177 0.0183777 0.560369
2758 1 0.012762 0.00289418 0.556966
97 1 0.0223207 0.015626 0.560387
2747 1 0.0377043 0.00984211 0.56179
21 1 0.0286807 0.00296376 0.558273
319 1 0.26067 0.021526 0.562246
47 1 0.271084 0.000320084 0.559504
48 1 0.274114 0.0178894 0.559987
124 1 0.286899 0.00722291 0.557211
33 1 0.291485 0.0202195 0.557786
2781 1 0.303587 0.0131932 0.556457
190 1 0.298558 0.000794124 0.555666
193 1 0.312822 0.00537895 0.554189
2784 1 0.319472 0.0192337 0.557264
258 1 0.342878 0.0172582 0.554843
52 1 0.327607 0.00984595 0.553697
263 1 0.355363 0.0127109 0.550281
259 1 0.367131 0.0209655 0.552104
80 1 0.020615 0.0280055 0.560905
187 1 0.268427 0.0320505 0.56101
2622 1 0.282938 0.0303589 0.559891
254 1 0.295131 0.0358095 0.559718
126 1 0.30693 0.0288605 0.559006
184 1 0.310157 0.0434182 0.560423
262 1 0.323756 0.0374525 0.558586
340 1 0.331895 0.0249392 0.558184
329 1 0.342743 0.0339181 0.559492
59 1 0.35293 0.0271187 0.556608
320 1 0.355664 0.0433131 0.559481
265 1 0.369525 0.0325774 0.553063
338 1 0.383523 0.0311249 0.551035
611 1 0.397774 0.0385477 0.551457
337 1 0.43218 0.0412487 0.550285
336 1 0.415867 0.0415447 0.551842
57 1 0.296355 0.0474687 0.562422
318 1 0.283017 0.0582448 0.562082
121 1 0.283255 0.0448346 0.559974
2788 1 0.31236 0.0547942 0.562242
327 1 0.324628 0.0516334 0.561159
125 1 0.338455 0.0462644 0.56074
401 1 0.350499 0.0561248 0.561561
266 1 0.369274 0.0461454 0.558037
525 1 0.363929 0.059527 0.560166
331 1 0.383564 0.043698 0.555392
326 1 0.378462 0.0588205 0.558928
540 1 0.392045 0.0550492 0.556339
207 1 0.403847 0.0489538 0.55362
341 1 0.426359 0.0535154 0.55312
475 1 0.415862 0.0577437 0.5549
132 1 0.438686 0.0553351 0.55102
272 1 0.450076 0.0637862 0.55298
324 1 0.35652 0.0751033 0.562359
397 1 0.368854 0.0825463 0.559892
479 1 0.389589 0.0677593 0.558182
462 1 0.372398 0.0708478 0.560953
544 1 0.384105 0.0829453 0.560856
549 1 0.405717 0.0667371 0.555013
400 1 0.397617 0.080436 0.559336
411 1 0.412441 0.083057 0.557694
414 1 0.418254 0.0721861 0.555247
409 1 0.429798 0.0838349 0.556324
481 1 0.432046 0.0682028 0.554373
3013 1 0.443783 0.0772494 0.555616
420 1 0.474701 0.0734155 0.552997
485 1 0.458564 0.075049 0.553484
2892 1 0.498657 0.0830424 0.55073
619 1 0.484982 0.0851094 0.552568
407 1 0.35767 0.0923233 0.562361
339 1 0.375298 0.0965484 0.562025
465 1 0.404402 0.0929444 0.558764
466 1 0.392291 0.0958701 0.559705
412 1 0.407125 0.107356 0.559541
415 1 0.418071 0.0979705 0.558475
548 1 0.434661 0.101286 0.55667
134 1 0.443689 0.0903404 0.557486
419 1 0.455383 0.0909892 0.555731
757 1 0.448461 0.106127 0.559549
343 1 0.46254 0.102876 0.556335
3229 1 0.468335 0.0879294 0.555332
551 1 0.478297 0.0995458 0.554604
3152 1 0.493102 0.0985771 0.552767
174 1 0.281222 0.115002 0.561904
322 1 0.288573 0.126241 0.562374
469 1 0.327751 0.12723 0.562261
395 1 0.364804 0.123116 0.562366
264 1 0.351061 0.118105 0.561909
403 1 0.365527 0.109562 0.561954
332 1 0.381413 0.121861 0.561004
482 1 0.380334 0.109356 0.560694
537 1 0.394092 0.110344 0.561153
393 1 0.399926 0.123235 0.559605
539 1 0.422359 0.111224 0.558096
809 1 0.414779 0.121172 0.558507
402 1 0.428371 0.128045 0.557812
413 1 0.437497 0.114689 0.557859
347 1 0.455018 0.11844 0.556742
473 1 0.442024 0.127093 0.558292
342 1 0.469127 0.112974 0.555904
763 1 0.465605 0.128482 0.556235
478 1 0.478143 0.126254 0.554313
484 1 0.496947 0.113033 0.554824
612 1 0.484138 0.115003 0.555131
456 1 0.257501 0.148995 0.561869
436 1 0.270903 0.145288 0.561543
253 1 0.279042 0.13398 0.561736
457 1 0.292481 0.142134 0.561824
460 1 0.30609 0.148965 0.562266
399 1 0.319218 0.151025 0.562087
404 1 0.33956 0.131565 0.560612
528 1 0.329179 0.143639 0.561726
463 1 0.346439 0.145396 0.560362
601 1 0.356412 0.13444 0.559885
530 1 0.362689 0.148236 0.55907
605 1 0.373974 0.137846 0.5601
674 1 0.390297 0.132675 0.559424
679 1 0.383004 0.147727 0.558114
669 1 0.408838 0.134798 0.557575
606 1 0.396711 0.144202 0.557685
533 1 0.411404 0.148235 0.556318
602 1 0.42562 0.139457 0.556526
815 1 0.437653 0.141931 0.555227
604 1 0.451657 0.137977 0.555557
608 1 0.464258 0.140466 0.556314
755 1 0.492739 0.13178 0.555779
745 1 0.478424 0.143564 0.555889
756 1 0.493644 0.146867 0.555288
379 1 0.140406 0.171984 0.560873
508 1 0.200574 0.171528 0.559765
439 1 0.205371 0.159018 0.561712
387 1 0.222987 0.165468 0.561098
453 1 0.239219 0.165192 0.560439
592 1 0.253464 0.163783 0.558614
454 1 0.270471 0.161486 0.558288
248 1 0.282347 0.167515 0.559759
455 1 0.283361 0.152777 0.560697
180 1 0.296932 0.158667 0.561622
593 1 0.29883 0.173456 0.560055
317 1 0.311671 0.165047 0.560573
526 1 0.325362 0.163676 0.560081
398 1 0.339245 0.162966 0.560456
603 1 0.352061 0.157734 0.558763
873 1 0.36278 0.166339 0.556639
801 1 0.372487 0.15696 0.557371
677 1 0.377401 0.168165 0.555397
814 1 0.387741 0.160034 0.557122
811 1 0.400723 0.158205 0.554948
678 1 0.406158 0.168433 0.553805
472 1 0.427862 0.152992 0.554171
742 1 0.417774 0.162432 0.554306
597 1 0.430016 0.166986 0.554065
477 1 0.440879 0.153766 0.553984
547 1 0.455482 0.153165 0.554505
471 1 0.44469 0.166417 0.553768
616 1 0.458268 0.16847 0.553729
681 1 0.470336 0.155722 0.555322
895 1 0.474591 0.169346 0.555172
690 1 0.498341 0.163237 0.554132
534 1 0.485646 0.15807 0.556886
569 1 0.112743 0.193637 0.561365
302 1 0.127333 0.187309 0.558238
298 1 0.126153 0.174087 0.560543
646 1 0.111978 0.179926 0.56183
568 1 0.141165 0.184351 0.55831
639 1 0.151498 0.177276 0.559729
634 1 0.145347 0.195093 0.555584
514 1 0.166376 0.175639 0.561188
648 1 0.157367 0.187236 0.557897
433 1 0.175902 0.191621 0.557179
505 1 0.179176 0.176201 0.560153
446 1 0.189162 0.183368 0.558254
787 1 0.205083 0.186802 0.556539
935 1 0.214114 0.178009 0.558276
442 1 0.218348 0.189824 0.553611
373 1 0.227429 0.175242 0.556857
522 1 0.233654 0.185773 0.554153
739 1 0.23699 0.194782 0.550989
673 1 0.259867 0.175826 0.555267
391 1 0.246581 0.175206 0.556056
719 1 0.249219 0.186682 0.551659
740 1 0.271335 0.176601 0.556032
449 1 0.274431 0.189749 0.552019
517 1 0.262432 0.188399 0.551337
527 1 0.287869 0.182417 0.558108
384 1 0.290164 0.195598 0.552399
599 1 0.302622 0.186144 0.55474
665 1 0.316045 0.193033 0.55287
532 1 0.31746 0.179303 0.558178
804 1 0.347496 0.173944 0.557764
610 1 0.330392 0.189785 0.554624
668 1 0.332676 0.178328 0.557649
664 1 0.345717 0.18574 0.553747
613 1 0.362296 0.181801 0.554988
950 1 0.368893 0.192528 0.551775
538 1 0.386429 0.193076 0.552919
937 1 0.379072 0.180394 0.552512
746 1 0.408777 0.183445 0.5543
596 1 0.393095 0.17596 0.553342
676 1 0.400916 0.193324 0.552747
468 1 0.42074 0.179777 0.55349
832 1 0.423048 0.193706 0.552585
672 1 0.437499 0.179013 0.554262
535 1 0.449656 0.181475 0.554229
405 1 0.447475 0.193998 0.553773
607 1 0.460234 0.194296 0.556274
687 1 0.462818 0.180048 0.555147
829 1 0.475406 0.185046 0.555252
546 1 0.489301 0.17587 0.555234
621 1 0.491574 0.189803 0.556623
3206 1 0.0461083 0.216079 0.559694
496 1 0.0581134 0.204912 0.56169
565 1 0.0720304 0.206368 0.561708
427 1 0.0854254 0.217267 0.558706
502 1 0.0983879 0.201415 0.561206
844 1 0.0974436 0.214652 0.558745
783 1 0.109511 0.208523 0.557753
708 1 0.12625 0.211977 0.555269
641 1 0.12343 0.201285 0.558976
927 1 0.134633 0.202282 0.55637
785 1 0.148853 0.209478 0.554063
512 1 0.160137 0.199051 0.555708
713 1 0.166812 0.211449 0.551961
581 1 0.181824 0.203661 0.552809
636 1 0.193014 0.197299 0.554878
521 1 0.207033 0.201619 0.552416
578 1 0.324797 0.200967 0.550277
682 1 0.392918 0.205118 0.55057
875 1 0.40297 0.216731 0.551361
752 1 0.409889 0.20395 0.553305
743 1 0.424256 0.209466 0.552905
545 1 0.435241 0.196099 0.552727
750 1 0.439515 0.209472 0.552606
890 1 0.452656 0.206806 0.553728
694 1 0.465571 0.206487 0.557184
3507 1 0.478348 0.214182 0.555583
543 1 0.479193 0.199162 0.556273
696 1 0.494029 0.208517 0.556064
701 1 0.0171609 0.239092 0.559441
3359 1 0.0159922 0.224406 0.560343
3360 1 0.00398111 0.236849 0.561732
355 1 0.0315498 0.218022 0.560942
495 1 0.0313846 0.231017 0.559733
635 1 0.0467229 0.228643 0.558159
494 1 0.0592578 0.218062 0.558239
782 1 0.0612264 0.231496 0.55627
428 1 0.0729161 0.220854 0.558262
501 1 0.0761022 0.232853 0.555276
589 1 0.0879644 0.234659 0.551342
510 1 0.0968421 0.225873 0.554245
504 1 0.113917 0.23258 0.552654
638 1 0.112577 0.21915 0.554591
715 1 0.125973 0.224726 0.550595
707 1 0.140455 0.21859 0.551344
813 1 0.417245 0.224887 0.550422
826 1 0.433195 0.224712 0.550662
889 1 0.44223 0.233938 0.550365
753 1 0.447841 0.220046 0.552106
683 1 0.458657 0.234222 0.55093
827 1 0.462414 0.221284 0.554778
885 1 0.473806 0.230938 0.553724
835 1 0.497277 0.238486 0.555033
754 1 0.486897 0.224989 0.555543
3565 1 0.00460867 0.250052 0.557818
631 1 0.0220744 0.251745 0.555085
562 1 0.0371626 0.25402 0.553957
633 1 0.0359966 0.24119 0.556086
3144 1 0.0527419 0.257262 0.552489
637 1 0.0493826 0.244746 0.555243
776 1 0.0629012 0.245713 0.554417
425 1 0.0773746 0.248593 0.551952
564 1 0.0659284 0.25873 0.55083
579 1 0.100919 0.24048 0.550721
818 1 0.454328 0.247518 0.551204
971 1 0.459552 0.260836 0.550609
749 1 0.467744 0.24691 0.551771
769 1 0.476496 0.256159 0.55223
823 1 0.481116 0.243809 0.554518
767 1 0.493126 0.253746 0.55311
704 1 0.0128159 0.277194 0.55043
632 1 0.0121159 0.263845 0.554747
709 1 0.0333145 0.279435 0.550042
710 1 0.0285714 0.265707 0.552648
852 1 0.044876 0.266987 0.551283
758 1 0.473425 0.270894 0.551736
760 1 0.499397 0.272387 0.552235
761 1 0.483583 0.278803 0.55194
762 1 0.486304 0.265008 0.55332
698 1 0.499124 0.301744 0.550142
970 1 0.496369 0.287284 0.550876
163 1 0.0535749 0.0119336 0.564988
2760 1 0.0747276 0.000573123 0.564119
91 1 0.0675586 0.00994557 0.566898
16 1 0.0862611 0.00903925 0.56827
160 1 0.100368 0.0108551 0.569237
229 1 0.11181 0.00243638 0.571282
2748 1 0.119271 0.0148977 0.57336
313 1 0.12822 0.00452212 0.573142
44 1 0.199537 0.00977236 0.57418
378 1 0.215015 0.01087 0.569779
116 1 0.227663 0.00084555 0.565612
2697 1 0.228486 0.0146453 0.568842
2770 1 0.255011 0.0101052 0.562667
246 1 0.241862 0.0144484 0.564439
5 1 0.00394676 0.031689 0.5636
82 1 0.0153412 0.0404507 0.565177
2753 1 0.0339048 0.0235316 0.563113
291 1 0.0330386 0.0359363 0.564645
101 1 0.0472627 0.0277191 0.563561
245 1 0.0580112 0.0247605 0.567022
18 1 0.0496335 0.0391382 0.566045
2677 1 0.0636013 0.036123 0.568604
2755 1 0.0736059 0.0248791 0.568957
224 1 0.0812413 0.0385359 0.571773
212 1 0.106194 0.0278469 0.572362
218 1 0.0899739 0.0233113 0.571393
23 1 0.0946414 0.0430271 0.573647
325 1 0.208532 0.0217722 0.573464
103 1 0.208069 0.0369916 0.573714
123 1 0.22338 0.0279394 0.571137
181 1 0.235697 0.0286023 0.56658
182 1 0.247382 0.0252354 0.564956
321 1 0.257401 0.0373119 0.564195
144 1 0.0127061 0.0534594 0.566241
2735 1 0.00133749 0.0607369 0.567385
88 1 0.0274059 0.0494604 0.565064
353 1 0.0288983 0.0649693 0.56706
14 1 0.0437065 0.052938 0.565945
2937 1 0.058894 0.054139 0.567676
213 1 0.0746622 0.0627273 0.571181
296 1 0.0719626 0.0487347 0.5702
3150 1 0.0846445 0.0508097 0.574495
185 1 0.213773 0.0566006 0.572918
388 1 0.202606 0.0493497 0.57369
239 1 0.218198 0.0440898 0.571661
2685 1 0.230254 0.0446893 0.567681
257 1 0.227134 0.0567556 0.571406
243 1 0.245272 0.0446668 0.566187
104 1 0.240091 0.0570327 0.567867
46 1 0.256183 0.0529279 0.563193
375 1 0.252113 0.063246 0.565087
252 1 0.271038 0.0479297 0.563063
330 1 0.269033 0.0640983 0.563257
40 1 0.297082 0.0625843 0.563561
179 1 0.334828 0.0589731 0.562675
216 1 0.0067477 0.0772518 0.569918
149 1 0.0138858 0.0654888 0.568396
81 1 0.0197455 0.0762897 0.568929
2543 1 0.0430207 0.0706306 0.567533
281 1 0.0333587 0.0786095 0.570426
147 1 0.0610661 0.0678409 0.569483
27 1 0.0503724 0.080014 0.571178
3077 1 0.0681692 0.0789632 0.571388
3148 1 0.0806566 0.0768557 0.573749
249 1 0.188899 0.0799465 0.574691
170 1 0.199448 0.0659083 0.574543
312 1 0.205741 0.0806026 0.571457
250 1 0.215574 0.0710675 0.571596
41 1 0.220376 0.0844917 0.567631
458 1 0.227743 0.0692314 0.569164
38 1 0.232994 0.0819445 0.566484
244 1 0.243627 0.0727517 0.566831
445 1 0.25003 0.0827772 0.566336
98 1 0.259964 0.0751016 0.564112
507 1 0.272277 0.0795364 0.5649
260 1 0.282469 0.0721616 0.564057
459 1 0.295254 0.0766184 0.563926
114 1 0.322731 0.0658608 0.56325
183 1 0.315519 0.0796306 0.564098
112 1 0.309366 0.0679993 0.562501
392 1 0.344899 0.0690942 0.563738
129 1 0.346698 0.0849325 0.564337
467 1 0.332484 0.0781001 0.564182
220 1 0.00156415 0.0886732 0.570569
3079 1 0.000611931 0.105264 0.57348
78 1 0.0132701 0.0915781 0.571592
361 1 0.0172159 0.104739 0.571831
3008 1 0.0266025 0.0898811 0.572003
3003 1 0.0403565 0.0885768 0.57259
357 1 0.0325297 0.101625 0.572158
85 1 0.0585881 0.0913725 0.572207
285 1 0.0474083 0.103578 0.573441
152 1 0.0734701 0.0935363 0.574715
362 1 0.0690954 0.106712 0.572238
365 1 0.085907 0.103146 0.573706
167 1 0.185787 0.0965244 0.573135
109 1 0.197147 0.0893292 0.573211
293 1 0.196355 0.10565 0.569495
305 1 0.2133 0.0963772 0.569763
311 1 0.229835 0.0988561 0.568141
240 1 0.241707 0.0914411 0.567623
448 1 0.252185 0.0990171 0.56646
308 1 0.26541 0.0914662 0.565718
381 1 0.278616 0.102482 0.564503
328 1 0.263996 0.108652 0.564905
197 1 0.283583 0.0889409 0.564121
376 1 0.295068 0.0972357 0.565853
255 1 0.303085 0.0875224 0.564302
256 1 0.291168 0.108107 0.564331
323 1 0.318661 0.0956061 0.563672
334 1 0.307537 0.104065 0.56435
128 1 0.324166 0.10828 0.564709
531 1 0.333007 0.0950685 0.563747
461 1 0.350066 0.104259 0.564524
214 1 0.0097115 0.11745 0.573425
3219 1 0.0248016 0.115776 0.573575
3215 1 0.0394257 0.115563 0.573119
432 1 0.0352493 0.128161 0.572355
3006 1 0.0570251 0.112749 0.571408
435 1 0.04916 0.1247 0.571993
232 1 0.0673173 0.124643 0.570959
295 1 0.0826252 0.118191 0.572301
235 1 0.0987545 0.113683 0.57452
228 1 0.0959697 0.128851 0.572749
429 1 0.111714 0.125459 0.574604
168 1 0.124598 0.120931 0.573399
450 1 0.139083 0.116755 0.573933
506 1 0.139639 0.129656 0.57166
577 1 0.156677 0.126772 0.571225
154 1 0.182481 0.109872 0.571972
166 1 0.175873 0.122584 0.570443
310 1 0.192435 0.122194 0.568914
237 1 0.207691 0.114168 0.570758
297 1 0.207424 0.128129 0.567448
309 1 0.220922 0.111206 0.568275
382 1 0.237233 0.123986 0.568068
234 1 0.222 0.125226 0.569183
389 1 0.242532 0.108909 0.567867
316 1 0.253535 0.1207 0.566239
447 1 0.27173 0.123636 0.563025
529 1 0.299675 0.119135 0.564561
595 1 0.312828 0.12222 0.562695
396 1 0.336311 0.113203 0.563834
3220 1 0.00397094 0.132532 0.57255
3290 1 0.0180445 0.130949 0.572458
284 1 0.0117918 0.144942 0.571686
426 1 0.0261259 0.142622 0.569084
498 1 0.0424687 0.14017 0.570081
367 1 0.0579711 0.136893 0.571034
571 1 0.0539098 0.151159 0.569169
497 1 0.0839626 0.13221 0.570034
354 1 0.0743824 0.137539 0.569022
292 1 0.0822058 0.149561 0.566688
492 1 0.0686122 0.150926 0.569461
430 1 0.0958434 0.144544 0.569163
360 1 0.110475 0.139376 0.570847
369 1 0.125426 0.135776 0.573454
368 1 0.123469 0.151533 0.568177
294 1 0.138387 0.146589 0.569994
307 1 0.151688 0.141995 0.569431
643 1 0.167764 0.138082 0.570511
372 1 0.164857 0.150554 0.567281
238 1 0.194608 0.137227 0.567402
377 1 0.181486 0.135472 0.569526
738 1 0.179315 0.1513 0.566143
438 1 0.194517 0.150066 0.564352
441 1 0.206864 0.143446 0.56544
314 1 0.219957 0.138512 0.567471
299 1 0.234915 0.138992 0.566664
509 1 0.248175 0.135498 0.565473
383 1 0.244048 0.151518 0.563172
385 1 0.261607 0.133274 0.564251
594 1 0.300225 0.13403 0.562992
390 1 0.315798 0.134075 0.56272
3429 1 0.00515145 0.157464 0.56971
286 1 0.00978444 0.170691 0.566655
356 1 0.0207898 0.159065 0.567396
3289 1 0.0354171 0.155455 0.566918
422 1 0.034383 0.170547 0.56641
225 1 0.0498298 0.164099 0.568
1052 1 0.0633561 0.164908 0.566731
434 1 0.0798109 0.163757 0.567118
431 1 0.107151 0.154725 0.566755
570 1 0.095701 0.15942 0.565322
172 1 0.103079 0.171815 0.564853
640 1 0.116394 0.164301 0.565091
590 1 0.133461 0.16077 0.565479
358 1 0.149942 0.154514 0.566512
575 1 0.156906 0.166624 0.563297
451 1 0.170929 0.161787 0.564043
300 1 0.188439 0.165015 0.562575
443 1 0.216349 0.15332 0.563202
573 1 0.228564 0.154211 0.565053
3140 1 0.00753127 0.182684 0.565048
3145 1 0.0214278 0.176226 0.565156
561 1 0.0196124 0.194 0.565468
3283 1 0.00412773 0.195358 0.566107
352 1 0.0351238 0.189156 0.565113
423 1 0.0480764 0.175789 0.566075
493 1 0.0616766 0.178941 0.564741
779 1 0.0502133 0.191567 0.564522
500 1 0.065577 0.191755 0.565116
711 1 0.0821102 0.190962 0.5641
563 1 0.0748629 0.176549 0.5654
566 1 0.0910119 0.174633 0.564291
437 1 0.0961824 0.189124 0.563963
3353 1 0.0149945 0.207882 0.562878
424 1 0.000489378 0.216213 0.563026
351 1 0.0304322 0.205062 0.56371
3285 1 0.0453708 0.204136 0.562535
165 1 0.0850322 0.206087 0.563165
28 1 0.141423 0.011454 0.575402
283 1 0.134546 0.0203876 0.576568
178 1 0.158591 0.00933857 0.575228
2762 1 0.173147 0.0162064 0.577508
251 1 0.185691 0.0104922 0.575818
19 1 0.120503 0.0286829 0.575738
3216 1 0.113022 0.0411058 0.575207
162 1 0.152146 0.022364 0.578474
148 1 0.131477 0.0353946 0.579053
315 1 0.142489 0.0330795 0.579684
176 1 0.168599 0.0334714 0.579037
289 1 0.153939 0.0369526 0.580734
2687 1 0.180728 0.0296647 0.578971
25 1 0.192223 0.0384493 0.576441
2696 1 0.19584 0.0256598 0.575464
155 1 0.0874833 0.0642004 0.575154
227 1 0.102534 0.0563781 0.575395
157 1 0.127683 0.0475474 0.579302
90 1 0.118214 0.0572059 0.578621
3212 1 0.149231 0.0593785 0.580229
215 1 0.142434 0.0477714 0.580717
222 1 0.132815 0.0606504 0.580511
94 1 0.160332 0.0490676 0.580541
241 1 0.160464 0.0652011 0.581023
22 1 0.176674 0.0441042 0.578701
36 1 0.191058 0.054277 0.57736
92 1 0.174829 0.0585963 0.579449
95 1 0.0919947 0.0844076 0.577476
359 1 0.0984667 0.0735092 0.576192
287 1 0.109899 0.0832066 0.578276
226 1 0.110058 0.0686936 0.57782
304 1 0.12177 0.0732738 0.578269
231 1 0.135467 0.0733776 0.579428
236 1 0.149497 0.073653 0.578289
164 1 0.14267 0.0863192 0.577402
107 1 0.159591 0.0832303 0.578382
171 1 0.171357 0.0734742 0.579006
230 1 0.174946 0.0851896 0.576786
87 1 0.183498 0.0685492 0.577281
364 1 0.0989777 0.0966684 0.575869
3287 1 0.113555 0.0967578 0.578123
503 1 0.126879 0.0895032 0.579206
290 1 0.125046 0.105077 0.576754
233 1 0.138837 0.102167 0.57603
242 1 0.151321 0.0985591 0.577101
301 1 0.171141 0.0992551 0.575424
366 1 0.111755 0.111245 0.575587
303 1 0.151882 0.113464 0.575569
306 1 0.165641 0.112066 0.575199
1542 1 0.00674058 0.57137 0.434734
1683 1 0.0144073 0.582163 0.434824
1692 1 0.000156204 0.583575 0.434212
1551 1 0.0187131 0.566051 0.436322
1690 1 0.0352553 0.57019 0.437187
1485 1 0.0254089 0.577717 0.434498
1489 1 0.0456264 0.583245 0.436888
1410 1 0.00380629 0.594525 0.431633
1202 1 0.0206395 0.593227 0.433146
1821 1 0.0145933 0.608029 0.428535
1547 1 0.0341019 0.591363 0.434608
1556 1 0.0355463 0.607685 0.432474
1483 1 0.0487466 0.601322 0.435222
1572 1 0.0625149 0.596119 0.437165
1761 1 0.0740094 0.603251 0.437476
1478 1 0.00788482 0.624234 0.428177
1689 1 0.0241874 0.620842 0.431689
1562 1 0.0363227 0.623438 0.433189
1276 1 0.0622844 0.609503 0.43731
1687 1 0.0513149 0.616026 0.434674
4539 1 0.00347284 0.636549 0.426364
4543 1 0.0166902 0.646103 0.428227
4605 1 0.0206798 0.633553 0.429785
4682 1 0.00226399 0.648527 0.426902
1623 1 0.0348097 0.636225 0.432465
1969 1 0.029669 0.647307 0.429756
1838 1 0.0502896 0.630591 0.435993
1694 1 0.0463364 0.642589 0.432863
1757 1 0.0590132 0.644068 0.436909
1837 1 0.014418 0.660829 0.428126
4759 1 0.0270515 0.659 0.430682
1626 1 0.0376771 0.671247 0.433394
1917 1 0.0426614 0.657362 0.431685
4620 1 0.0548535 0.657125 0.43466
1695 1 0.0498476 0.670984 0.436311
1831 1 0.0125154 0.674348 0.429343
1828 1 0.00877218 0.690708 0.4294
1976 1 0.0224559 0.687199 0.432507
1699 1 0.0257933 0.674336 0.431944
1760 1 0.0379982 0.684962 0.435082
1762 1 0.0171653 0.703832 0.43312
1967 1 0.00299854 0.703992 0.430538
1693 1 0.0318017 0.698099 0.435735
1752 1 0.0252535 0.71347 0.437382
1912 1 0.011678 0.720685 0.435324
1546 1 0.0109578 0.516799 0.449624
4410 1 0.039471 0.518833 0.446176
4473 1 0.0258683 0.519035 0.446834
4265 1 0.0529589 0.520097 0.444072
1472 1 0.0486157 0.507777 0.448771
1413 1 0.0657627 0.513486 0.447755
4337 1 0.0766569 0.501621 0.448288
1408 1 0.0780733 0.514551 0.446765
1482 1 0.0929755 0.518135 0.446076
1200 1 0.104884 0.507951 0.446646
1201 1 0.0914762 0.502092 0.447221
1481 1 0.108923 0.520426 0.442204
1491 1 0.122337 0.50969 0.44519
1495 1 0.135058 0.509596 0.444654
1658 1 0.150367 0.514898 0.444976
1066 1 0.14424 0.500506 0.446943
1423 1 0.166259 0.519381 0.445588
1273 1 0.158221 0.503812 0.446961
1583 1 0.17279 0.506826 0.449092
1506 1 0.180992 0.520381 0.44725
4548 1 0.011005 0.523032 0.443941
1404 1 0.00373263 0.541545 0.440214
1543 1 0.0163114 0.536383 0.441036
1613 1 0.0279597 0.527455 0.442672
1198 1 0.041977 0.532651 0.442334
1480 1 0.0304271 0.543345 0.439524
1343 1 0.057065 0.537467 0.441603
1615 1 0.0688133 0.52562 0.443142
1614 1 0.0832694 0.526461 0.443828
1344 1 0.0711377 0.540693 0.441596
1280 1 0.0860485 0.543343 0.442696
4270 1 0.0990378 0.530708 0.44286
1347 1 0.104544 0.543133 0.441524
1197 1 0.12315 0.523233 0.443828
1340 1 0.116062 0.53661 0.4418
1496 1 0.132013 0.53866 0.443945
1277 1 0.139181 0.524032 0.445059
1345 1 0.146614 0.537703 0.442819
1373 1 0.154473 0.528945 0.44449
1455 1 0.168676 0.532072 0.44396
1420 1 0.187936 0.532187 0.447523
1418 1 0.202179 0.536347 0.449746
1439 1 0.197649 0.524108 0.44893
1662 1 0.376754 0.541819 0.449877
1557 1 0.00376745 0.558791 0.437943
1412 1 0.0146216 0.551283 0.438814
1270 1 0.0278998 0.55737 0.437902
1416 1 0.0426143 0.556541 0.438898
1688 1 0.0478032 0.544622 0.439715
1549 1 0.0614376 0.555455 0.439424
1282 1 0.0781796 0.555004 0.440823
1353 1 0.0949241 0.556401 0.440779
1348 1 0.109888 0.555909 0.440623
1414 1 0.122391 0.547361 0.440526
1284 1 0.123499 0.561302 0.441324
1494 1 0.13762 0.551499 0.44151
1272 1 0.150388 0.554618 0.442634
1422 1 0.141348 0.564343 0.440515
1488 1 0.163263 0.544893 0.443575
1438 1 0.161625 0.559468 0.442553
1570 1 0.194362 0.551764 0.447511
1501 1 0.179816 0.544179 0.443698
1639 1 0.176226 0.560956 0.445023
1511 1 0.207025 0.548082 0.449198
1502 1 0.204131 0.563533 0.448712
1564 1 0.0528401 0.569286 0.439622
1484 1 0.0615562 0.582267 0.438093
1550 1 0.0768852 0.585593 0.439008
1548 1 0.070725 0.567568 0.439019
1474 1 0.0857985 0.569917 0.438856
1487 1 0.100763 0.570136 0.43906
1424 1 0.094314 0.586428 0.438803
1274 1 0.110346 0.585798 0.439773
1575 1 0.11573 0.571579 0.439026
1510 1 0.123227 0.585365 0.441464
1642 1 0.130683 0.573455 0.440424
1833 1 0.143669 0.581169 0.441749
1417 1 0.152447 0.570817 0.44058
1434 1 0.159282 0.583361 0.44385
1568 1 0.168978 0.5719 0.443876
1638 1 0.180868 0.579713 0.444094
1711 1 0.188234 0.568591 0.446486
1640 1 0.197079 0.578296 0.449847
1569 1 0.209887 0.580749 0.449747
1463 1 0.379122 0.570713 0.449797
1730 1 0.381089 0.585399 0.449294
1732 1 0.392733 0.574896 0.449627
1882 1 0.41896 0.582161 0.448747
4204 1 0.435845 0.578852 0.449491
1329 1 0.448192 0.579141 0.447963
1538 1 0.465308 0.576403 0.449454
1500 1 0.0866304 0.603175 0.439462
1767 1 0.10052 0.599126 0.440673
1428 1 0.116887 0.601439 0.441358
1691 1 0.133917 0.592582 0.44263
1707 1 0.148451 0.59803 0.444686
1555 1 0.130744 0.605476 0.442832
1565 1 0.160225 0.600466 0.445863
1346 1 0.171459 0.591423 0.44623
1714 1 0.174153 0.605783 0.448669
1577 1 0.185086 0.594095 0.448451
1852 1 0.19979 0.594871 0.449566
1736 1 0.405411 0.593845 0.449721
2015 1 0.392818 0.595058 0.449452
2008 1 0.405479 0.607676 0.448179
1601 1 0.417512 0.595265 0.448061
1808 1 0.431419 0.592147 0.448724
1666 1 0.434348 0.604162 0.445748
4693 1 0.446037 0.593105 0.446105
1947 1 0.460304 0.58763 0.446331
1811 1 0.460084 0.604086 0.444702
1749 1 0.476589 0.596926 0.446643
4341 1 0.489858 0.594568 0.447865
1827 1 0.0642677 0.628348 0.437793
1356 1 0.076623 0.620209 0.43958
1486 1 0.0894113 0.615034 0.440863
1629 1 0.105504 0.625606 0.443227
1493 1 0.103238 0.611513 0.442346
1559 1 0.119256 0.618488 0.443786
1427 1 0.145253 0.610963 0.446081
1759 1 0.134743 0.61792 0.445528
1755 1 0.148044 0.624087 0.446345
1560 1 0.160119 0.615303 0.448049
1785 1 0.173719 0.621069 0.449991
1661 1 0.411419 0.623871 0.447175
1537 1 0.422454 0.612107 0.447434
1885 1 0.423938 0.6302 0.448039
2092 1 0.434342 0.620365 0.446155
1667 1 0.44572 0.610635 0.444624
1670 1 0.448483 0.627034 0.446019
1600 1 0.460003 0.620626 0.444526
1607 1 0.47287 0.615108 0.443608
1675 1 0.48813 0.610295 0.445409
1608 1 0.483961 0.623968 0.444298
4624 1 0.499555 0.618638 0.445948
1553 1 0.07392 0.636461 0.438466
1825 1 0.071705 0.650849 0.438784
1561 1 0.0875955 0.647588 0.439826
1617 1 0.0887039 0.632505 0.440828
1558 1 0.103691 0.643174 0.44156
1696 1 0.120387 0.635968 0.443525
1914 1 0.128193 0.647464 0.447601
1622 1 0.111565 0.649794 0.444824
1552 1 0.137119 0.631747 0.447352
1563 1 0.147154 0.63992 0.449488
1943 1 0.387753 0.645861 0.449601
2159 1 0.40268 0.64977 0.448895
2083 1 0.41261 0.639792 0.44875
2163 1 0.428498 0.645189 0.446334
2028 1 0.438917 0.637086 0.44732
2166 1 0.444065 0.650262 0.445699
4692 1 0.45561 0.638423 0.445048
1673 1 0.468642 0.632761 0.442921
1746 1 0.468957 0.648144 0.443512
2170 1 0.483338 0.638231 0.44222
1820 1 0.49295 0.649909 0.441051
1812 1 0.495859 0.633845 0.442787
1758 1 0.0663451 0.666776 0.439421
1498 1 0.0819524 0.661372 0.440717
1907 1 0.0974882 0.658546 0.44343
1846 1 0.0950622 0.671479 0.442815
1920 1 0.109294 0.664395 0.445567
1986 1 0.124242 0.661317 0.447623
2030 1 0.407121 0.665524 0.449272
1534 1 0.416606 0.655726 0.448083
1886 1 0.423319 0.673653 0.449296
1889 1 0.429313 0.660617 0.448161
2026 1 0.441725 0.663692 0.447902
1813 1 0.453679 0.67261 0.445147
4769 1 0.458019 0.65795 0.444811
4696 1 0.470116 0.664497 0.444778
4694 1 0.481664 0.656934 0.442157
1817 1 0.491848 0.667182 0.440417
4760 1 0.052528 0.68361 0.438702
1770 1 0.0648322 0.693553 0.441091
1824 1 0.0450091 0.694877 0.439095
1684 1 0.0843805 0.677308 0.443119
1992 1 0.0692188 0.681093 0.440533
1635 1 0.0825899 0.692142 0.44568
1697 1 0.0971877 0.687343 0.448219
1627 1 0.107224 0.678134 0.446851
1641 1 0.121905 0.675269 0.449463
2239 1 0.423263 0.68884 0.449387
4556 1 0.436287 0.677332 0.447917
4764 1 0.448404 0.684937 0.446957
1883 1 0.466102 0.679824 0.444894
2164 1 0.464211 0.692638 0.446263
1960 1 0.481583 0.675201 0.442572
4762 1 0.479379 0.692359 0.443284
1741 1 0.495151 0.679811 0.439815
4905 1 0.491996 0.693323 0.441171
1990 1 0.039779 0.707398 0.440344
1768 1 0.0552144 0.70348 0.444049
2057 1 0.0636488 0.714254 0.44668
1993 1 0.0720746 0.70269 0.447298
1887 1 0.449754 0.700965 0.449865
2021 1 0.436965 0.707717 0.449412
4841 1 0.461813 0.708584 0.449142
1956 1 0.475854 0.705879 0.44514
4909 1 0.488425 0.707182 0.441528
1830 1 0.00590519 0.736196 0.437644
1971 1 0.0217136 0.728444 0.440342
1765 1 0.0355124 0.723894 0.443304
1898 1 0.0425857 0.733076 0.445668
1700 1 0.0467377 0.717721 0.443184
1991 1 0.0564629 0.727255 0.447238
4989 1 0.475791 0.735258 0.449659
2310 1 0.466002 0.723866 0.447779
4836 1 0.475834 0.719558 0.446012
2100 1 0.490343 0.719111 0.443138
4840 1 0.488287 0.730133 0.446863
1984 1 0.0157846 0.743275 0.442367
2117 1 0.00697984 0.75971 0.44338
1892 1 0.000918292 0.749128 0.438713
1841 1 0.0293236 0.739362 0.445049
2113 1 0.0218689 0.753877 0.446799
1977 1 0.0376105 0.751461 0.447166
4901 1 0.496688 0.742228 0.446722
4975 1 0.483614 0.744174 0.449674
4983 1 0.495038 0.75586 0.447967
1973 1 0.01389 0.767031 0.448068
1975 1 0.0310857 0.765214 0.449966
1908 1 0.00341047 0.785583 0.449317
1415 1 0.00864794 0.506466 0.452805
4408 1 0.0225153 0.507074 0.451507
4336 1 0.0344463 0.50674 0.452818
4472 1 0.0615914 0.500898 0.451796
1285 1 0.19073 0.511034 0.45066
1584 1 0.207424 0.516153 0.452869
1504 1 0.202154 0.501538 0.452855
1283 1 0.218251 0.503585 0.454123
1444 1 0.223397 0.514686 0.454327
1440 1 0.231598 0.50289 0.455782
1579 1 0.238918 0.516586 0.454074
1507 1 0.245084 0.501028 0.45766
1372 1 0.250916 0.514632 0.456152
1375 1 0.258636 0.502726 0.457708
1646 1 0.267676 0.511832 0.455198
1655 1 0.277939 0.508304 0.456755
1581 1 0.288429 0.516051 0.455048
1588 1 0.301962 0.515882 0.456532
1659 1 0.314619 0.513124 0.455972
1713 1 0.306609 0.500277 0.457506
1311 1 0.330714 0.513385 0.454881
1521 1 0.340498 0.521493 0.452825
1592 1 0.348862 0.511631 0.454563
1645 1 0.364801 0.506545 0.45563
1445 1 0.386485 0.506513 0.456544
1652 1 0.373818 0.516442 0.453987
1522 1 0.399729 0.505408 0.458344
1665 1 0.407375 0.517577 0.456059
1519 1 0.391768 0.517663 0.454289
1457 1 0.417659 0.508716 0.458998
1396 1 0.435594 0.51041 0.460704
1363 1 0.212761 0.528987 0.450722
1429 1 0.219313 0.542296 0.451915
1725 1 0.228026 0.526894 0.453661
1780 1 0.231241 0.540325 0.453025
1644 1 0.240098 0.529172 0.455737
1449 1 0.253877 0.533417 0.455336
1653 1 0.264168 0.528031 0.456235
1589 1 0.279218 0.524822 0.454927
1773 1 0.272825 0.539038 0.456316
1848 1 0.295231 0.531841 0.454352
1441 1 0.287621 0.543215 0.455197
1582 1 0.308213 0.530022 0.454853
1451 1 0.324433 0.526698 0.454604
1783 1 0.305274 0.543108 0.454741
1729 1 0.336332 0.536364 0.451934
1594 1 0.35881 0.522177 0.453734
1802 1 0.350421 0.53356 0.452616
1591 1 0.366922 0.531958 0.452294
1874 1 0.382158 0.528328 0.453994
1805 1 0.395309 0.53231 0.452189
1599 1 0.409099 0.53069 0.455233
1735 1 0.42218 0.525351 0.456876
1610 1 0.420514 0.542578 0.453306
1597 1 0.434837 0.537128 0.454831
1530 1 0.436162 0.522609 0.458333
1248 1 0.44518 0.531397 0.458866
4411 1 0.456037 0.538324 0.458559
1810 1 0.468924 0.5413 0.45816
1734 1 0.466635 0.527218 0.462272
1806 1 0.483309 0.541525 0.460377
1679 1 0.494531 0.53108 0.462462
1442 1 0.216704 0.557274 0.450021
1446 1 0.230517 0.553566 0.452691
1637 1 0.242636 0.546748 0.455124
1512 1 0.245463 0.559297 0.455838
1508 1 0.261363 0.548469 0.456819
1514 1 0.261023 0.56236 0.456492
1718 1 0.275371 0.553673 0.456706
1720 1 0.286769 0.56425 0.459213
1788 1 0.297286 0.554103 0.457182
1385 1 0.320411 0.544362 0.455026
1578 1 0.313309 0.560519 0.454599
1779 1 0.332884 0.54924 0.453984
1524 1 0.346479 0.548236 0.451885
1728 1 0.342738 0.561543 0.454822
1586 1 0.360079 0.544536 0.451037
1868 1 0.354646 0.558356 0.451503
1595 1 0.385872 0.55806 0.450306
1243 1 0.371054 0.556035 0.451094
1804 1 0.389612 0.545446 0.450577
1876 1 0.401346 0.562627 0.450585
1877 1 0.403928 0.546156 0.451337
4277 1 0.414444 0.557082 0.452823
1878 1 0.432858 0.550022 0.453026
1533 1 0.44773 0.548247 0.453488
4344 1 0.441924 0.563529 0.450782
4275 1 0.456134 0.563879 0.451725
1527 1 0.460835 0.55385 0.454504
1536 1 0.476144 0.552629 0.456748
1674 1 0.487881 0.558057 0.458363
4413 1 0.497831 0.548933 0.460358
1959 1 0.499863 0.563694 0.457069
1634 1 0.219012 0.571289 0.451461
1509 1 0.232797 0.568257 0.452436
1517 1 0.231063 0.58546 0.45134
1717 1 0.246958 0.572061 0.45434
1706 1 0.26062 0.578873 0.455297
1703 1 0.274072 0.569124 0.458919
1777 1 0.284825 0.577585 0.45722
1942 1 0.299381 0.571214 0.456419
1710 1 0.29321 0.585558 0.458881
1724 1 0.318701 0.578375 0.453573
1847 1 0.305634 0.583318 0.454453
1649 1 0.328011 0.565877 0.454182
1654 1 0.336071 0.575638 0.45265
1664 1 0.35063 0.576777 0.452237
1799 1 0.368776 0.582416 0.450908
1452 1 0.362833 0.568733 0.45247
1668 1 0.40349 0.580252 0.450504
1879 1 0.414714 0.56993 0.450909
1737 1 0.42882 0.566895 0.45079
4276 1 0.470489 0.566135 0.45307
1958 1 0.478615 0.581466 0.451284
1676 1 0.494681 0.583654 0.451849
1605 1 0.485282 0.572853 0.455284
1843 1 0.216379 0.595468 0.451259
1849 1 0.202653 0.605499 0.451858
1774 1 0.230047 0.599691 0.45342
1708 1 0.243001 0.587153 0.452606
1643 1 0.258685 0.59278 0.453139
1778 1 0.242463 0.599251 0.453617
1781 1 0.254327 0.605219 0.45522
1580 1 0.275576 0.588011 0.456869
1705 1 0.267216 0.601419 0.455286
2136 1 0.284201 0.598525 0.457454
1782 1 0.300287 0.599045 0.457345
1940 1 0.314871 0.593541 0.453314
1576 1 0.321154 0.605916 0.455333
1792 1 0.327422 0.58952 0.45363
2003 1 0.3435 0.588313 0.454033
1867 1 0.332961 0.599395 0.454588
1794 1 0.349416 0.60674 0.454205
1526 1 0.355347 0.592392 0.452658
1456 1 0.370027 0.596953 0.45145
2011 1 0.381063 0.605489 0.450512
1554 1 0.157213 0.629589 0.450917
1567 1 0.188034 0.609001 0.452287
1636 1 0.189347 0.623343 0.451522
1851 1 0.204125 0.619082 0.453272
1857 1 0.216117 0.610119 0.454702
1574 1 0.229573 0.614004 0.454633
1704 1 0.222105 0.625071 0.456265
1797 1 0.236406 0.629202 0.456618
1719 1 0.244764 0.61572 0.455011
1776 1 0.252711 0.629889 0.456942
1796 1 0.258809 0.617645 0.457756
1842 1 0.274389 0.614212 0.4562
1934 1 0.283892 0.627434 0.45641
1929 1 0.291427 0.61397 0.457946
1871 1 0.307421 0.610021 0.455779
1656 1 0.304627 0.622303 0.456338
1731 1 0.321374 0.624275 0.455543
1650 1 0.332783 0.616829 0.454483
1807 1 0.352421 0.623153 0.452849
2020 1 0.366947 0.612962 0.451282
1955 1 0.381914 0.618552 0.451324
1880 1 0.391991 0.609425 0.451522
2160 1 0.396958 0.620274 0.452035
1715 1 0.169151 0.635024 0.453139
1702 1 0.159715 0.645947 0.453594
1573 1 0.172014 0.649307 0.456241
1425 1 0.180867 0.636317 0.452993
4550 1 0.187447 0.650141 0.457508
1845 1 0.192876 0.635995 0.454683
1722 1 0.209845 0.631507 0.453954
1712 1 0.213648 0.647082 0.457044
1923 1 0.200244 0.651624 0.459615
1648 1 0.225846 0.638395 0.456793
1855 1 0.233601 0.64953 0.459524
2013 1 0.242646 0.638993 0.458582
1721 1 0.258852 0.639843 0.458976
1844 1 0.269341 0.631849 0.457989
1723 1 0.27559 0.643985 0.456938
1938 1 0.26568 0.64994 0.461
1869 1 0.287681 0.64092 0.458052
2007 1 0.296737 0.631144 0.457036
2024 1 0.301661 0.643866 0.457458
1946 1 0.312734 0.634568 0.4569
1865 1 0.313833 0.64791 0.457249
1872 1 0.33677 0.631883 0.455255
1590 1 0.327272 0.640979 0.454374
1873 1 0.343291 0.649567 0.455478
1459 1 0.364319 0.631668 0.451779
1875 1 0.351143 0.638191 0.453039
4202 1 0.368726 0.645263 0.452608
1803 1 0.381124 0.634154 0.450639
1945 1 0.396325 0.633296 0.450528
1619 1 0.137874 0.656556 0.451927
1497 1 0.150927 0.655461 0.452971
1628 1 0.148028 0.669677 0.454538
1709 1 0.135261 0.670625 0.453294
1632 1 0.163551 0.663732 0.457199
1919 1 0.179305 0.660627 0.459321
1686 1 0.191833 0.666686 0.46164
1701 1 0.174868 0.672531 0.459876
1863 1 0.208755 0.661355 0.46215
1726 1 0.223198 0.65681 0.458855
1866 1 0.235688 0.663203 0.46175
1716 1 0.249148 0.653015 0.46185
1798 1 0.277872 0.66217 0.461539
1795 1 0.292467 0.655851 0.459311
2018 1 0.303945 0.660837 0.457503
2093 1 0.289046 0.671325 0.46244
2153 1 0.302513 0.673275 0.46028
2223 1 0.316549 0.664569 0.45683
1949 1 0.345697 0.665445 0.454975
2089 1 0.329565 0.656814 0.456015
1948 1 0.358141 0.654246 0.453177
1663 1 0.368742 0.662634 0.453053
2165 1 0.357298 0.67102 0.453048
2076 1 0.378608 0.654077 0.452377
1881 1 0.379064 0.670306 0.453382
1884 1 0.392128 0.662284 0.450478
2061 1 0.113498 0.686162 0.451693
1988 1 0.12838 0.68279 0.455238
1925 1 0.143767 0.684226 0.456192
1862 1 0.154211 0.691881 0.460576
1997 1 0.158173 0.67827 0.458476
1772 1 0.171106 0.685675 0.461984
1839 1 0.186085 0.681458 0.462297
2293 1 0.301541 0.68731 0.462025
2161 1 0.316612 0.680089 0.459245
2370 1 0.331712 0.674154 0.456659
1861 1 0.344055 0.681146 0.454909
2229 1 0.331206 0.687106 0.457056
2090 1 0.345317 0.695541 0.458107
2019 1 0.357237 0.685309 0.453815
1727 1 0.369245 0.681205 0.451103
2025 1 0.35948 0.695169 0.455435
1801 1 0.384256 0.685009 0.453818
1944 1 0.373104 0.694781 0.454668
2169 1 0.394455 0.678185 0.451454
2097 1 0.409189 0.679878 0.451294
4903 1 0.396544 0.691164 0.454239
4837 1 0.436618 0.690477 0.4504
1921 1 0.0806668 0.713446 0.451455
1987 1 0.0888499 0.703476 0.450864
1620 1 0.102569 0.700772 0.451764
2059 1 0.0970628 0.714882 0.455619
1630 1 0.110923 0.710247 0.455451
1924 1 0.119186 0.699531 0.454374
1633 1 0.125296 0.712054 0.459429
2284 1 0.13693 0.698056 0.457765
2080 1 0.31622 0.69584 0.461973
2010 1 0.33026 0.701826 0.460797
2235 1 0.340994 0.713626 0.461246
1950 1 0.35378 0.708655 0.459186
1954 1 0.385018 0.701636 0.454603
2017 1 0.370178 0.707776 0.456914
2085 1 0.381272 0.715212 0.456715
2095 1 0.411215 0.696418 0.451651
2148 1 0.396742 0.707314 0.453839
2157 1 0.40919 0.708799 0.453523
4902 1 0.423566 0.702995 0.4506
2167 1 0.423888 0.717232 0.45363
4907 1 0.448285 0.717271 0.450537
2064 1 0.0617804 0.739046 0.452925
2131 1 0.0701278 0.723734 0.45219
1916 1 0.0851072 0.726049 0.456658
1922 1 0.0758746 0.737817 0.454958
1566 1 0.0960084 0.731263 0.461318
2060 1 0.110999 0.722485 0.460132
2023 1 0.362324 0.718226 0.460042
2156 1 0.349718 0.725796 0.461642
2154 1 0.360946 0.732384 0.462332
2094 1 0.374426 0.724802 0.458991
1952 1 0.388812 0.730163 0.458935
2226 1 0.393759 0.720235 0.454956
4832 1 0.401737 0.736581 0.457859
1951 1 0.407194 0.720927 0.454211
2087 1 0.418494 0.730178 0.456166
2168 1 0.433573 0.732966 0.455151
4622 1 0.436502 0.721883 0.452635
2098 1 0.447076 0.733113 0.453197
5041 1 0.458785 0.733947 0.451044
1901 1 0.0407713 0.757628 0.45262
1766 1 0.0496446 0.74338 0.450833
1832 1 0.0522915 0.755071 0.453746
1763 1 0.0634258 0.751515 0.456461
2195 1 0.0744483 0.751871 0.460862
1980 1 0.0855616 0.740881 0.461172
2374 1 0.386669 0.746872 0.460212
1809 1 0.402063 0.752269 0.462162
2096 1 0.414216 0.74763 0.458447
4919 1 0.426633 0.745211 0.457237
4906 1 0.430096 0.76027 0.46034
4831 1 0.441406 0.747045 0.457652
1738 1 0.452881 0.749198 0.454712
4911 1 0.467053 0.745276 0.45241
5123 1 0.480471 0.759233 0.452154
2043 1 0.019441 0.780529 0.451733
2033 1 0.0339566 0.779687 0.453758
1896 1 0.0451469 0.768727 0.456443
1840 1 0.0559631 0.774567 0.462229
1985 1 0.0590534 0.76336 0.459177
1739 1 0.417537 0.762458 0.462033
4845 1 0.445622 0.762678 0.458437
4908 1 0.454329 0.775383 0.460798
2236 1 0.439774 0.774205 0.461522
4987 1 0.463673 0.761363 0.456759
4915 1 0.468743 0.778372 0.458731
4917 1 0.479511 0.770532 0.456485
4773 1 0.491682 0.766469 0.451094
4980 1 0.494903 0.780652 0.455315
2042 1 0.00952061 0.794635 0.454698
2176 1 0.0266872 0.791973 0.455054
4899 1 0.0374576 0.793951 0.459558
2049 1 0.0468865 0.784254 0.458361
4979 1 0.476057 0.797639 0.459989
4973 1 0.482869 0.783674 0.458048
4914 1 0.490029 0.797535 0.456778
1970 1 0.0158358 0.804687 0.459037
5032 1 0.00196312 0.806455 0.45832
2041 1 0.0307486 0.805331 0.462286
5052 1 0.499456 0.808526 0.456446
5192 1 0.498776 0.823864 0.460417
5259 1 0.48689 0.811734 0.45961
4272 1 0.450138 0.518989 0.462797
1386 1 0.445587 0.505461 0.465073
1464 1 0.46192 0.511682 0.465398
1394 1 0.475586 0.513636 0.465315
4208 1 0.472447 0.50022 0.468277
4140 1 0.487616 0.504831 0.468912
4131 1 0.496345 0.515962 0.466037
4273 1 0.48226 0.524917 0.46377
1998 1 0.220971 0.672177 0.464027
1994 1 0.249085 0.66673 0.463949
2009 1 0.260955 0.663674 0.463318
1989 1 0.204501 0.675732 0.463381
2145 1 0.198251 0.689007 0.46433
1791 1 0.215884 0.688149 0.46607
1927 1 0.233179 0.674966 0.465714
1859 1 0.227259 0.688223 0.465958
1860 1 0.256998 0.678371 0.464791
1930 1 0.24336 0.683678 0.466459
1939 1 0.251842 0.694818 0.466217
1935 1 0.273621 0.675166 0.465535
1941 1 0.26895 0.690833 0.465431
2005 1 0.28624 0.685558 0.464426
1787 1 0.137948 0.716039 0.463272
2149 1 0.14849 0.706191 0.462691
1631 1 0.165564 0.699277 0.464015
2137 1 0.162809 0.711982 0.466523
1793 1 0.185415 0.697111 0.464828
2146 1 0.178037 0.707541 0.467251
2069 1 0.193829 0.705396 0.467402
2277 1 0.188774 0.717194 0.470071
2063 1 0.211541 0.702792 0.468064
2201 1 0.205783 0.713462 0.470666
1937 1 0.223291 0.700806 0.46882
2289 1 0.22005 0.714594 0.471343
2360 1 0.234314 0.710256 0.467945
1786 1 0.237116 0.695936 0.466397
2001 1 0.249872 0.710171 0.469173
1933 1 0.265396 0.708187 0.468341
1995 1 0.279338 0.71458 0.467732
2016 1 0.278894 0.700412 0.466768
2091 1 0.292088 0.702202 0.465155
1931 1 0.292751 0.715068 0.467081
2081 1 0.321052 0.712748 0.463923
2002 1 0.305414 0.702839 0.46469
2147 1 0.307006 0.716905 0.465881
1571 1 0.124071 0.726227 0.462701
1915 1 0.113777 0.737054 0.464083
1790 1 0.147333 0.722324 0.467994
1775 1 0.133397 0.731084 0.468301
2067 1 0.148546 0.734431 0.47116
2073 1 0.160694 0.723917 0.469561
2065 1 0.165602 0.73462 0.473063
2292 1 0.175502 0.720091 0.471461
2141 1 0.203607 0.723419 0.474992
2359 1 0.214337 0.730913 0.473857
2213 1 0.230274 0.72574 0.471881
2428 1 0.231098 0.738381 0.474388
2074 1 0.245242 0.723602 0.470352
1996 1 0.256042 0.734178 0.471642
1864 1 0.261992 0.71997 0.469153
2000 1 0.272031 0.727943 0.470807
2155 1 0.298658 0.726488 0.468533
2084 1 0.286576 0.728525 0.470106
2441 1 0.304666 0.737685 0.470778
1932 1 0.313671 0.727523 0.466482
2291 1 0.329848 0.722478 0.463226
2234 1 0.340087 0.734945 0.465629
2082 1 0.326268 0.737498 0.466714
2271 1 0.0916309 0.751974 0.464286
1913 1 0.101078 0.74535 0.466272
1918 1 0.0997403 0.758692 0.470201
2058 1 0.122963 0.741794 0.469826
2132 1 0.111514 0.749466 0.470006
2071 1 0.137505 0.743094 0.472902
2205 1 0.153719 0.745599 0.473078
1854 1 0.244373 0.740313 0.47315
2431 1 0.264448 0.744955 0.474143
2150 1 0.277499 0.74258 0.472526
2220 1 0.281872 0.755868 0.473407
2012 1 0.29112 0.740519 0.472068
2286 1 0.29876 0.752414 0.472503
2301 1 0.314253 0.7431 0.469468
2077 1 0.316002 0.754248 0.473865
2079 1 0.340753 0.748046 0.468668
2217 1 0.328004 0.74927 0.471025
2227 1 0.350659 0.74017 0.46542
2014 1 0.363392 0.745893 0.46516
2086 1 0.356329 0.752111 0.469103
2305 1 0.377221 0.73973 0.462615
2233 1 0.374903 0.755195 0.464192
1911 1 0.0716343 0.763123 0.463856
2050 1 0.0672608 0.776568 0.465892
1983 1 0.0784649 0.775931 0.470666
1926 1 0.0874068 0.763322 0.468294
2143 1 0.093309 0.771833 0.47446
2225 1 0.347677 0.7609 0.471919
2290 1 0.327078 0.763956 0.474541
1936 1 0.339274 0.770547 0.473969
2300 1 0.355193 0.771713 0.472134
2303 1 0.366319 0.76285 0.46861
2158 1 0.380164 0.770545 0.467504
2435 1 0.369681 0.774708 0.471503
2231 1 0.389231 0.761139 0.463098
2022 1 0.4009 0.767755 0.463862
2027 1 0.392848 0.775714 0.466465
5044 1 0.42694 0.771683 0.464061
4838 1 0.414701 0.775811 0.465448
1906 1 0.0471435 0.797006 0.466071
1905 1 0.0585795 0.789033 0.466382
1982 1 0.063693 0.799276 0.472101
2051 1 0.07261 0.787904 0.471568
2237 1 0.385007 0.78317 0.468915
5043 1 0.373561 0.787851 0.474399
4834 1 0.387567 0.796247 0.472119
4971 1 0.401666 0.787216 0.467837
2306 1 0.403119 0.800665 0.472153
4974 1 0.427946 0.784599 0.464973
5046 1 0.414657 0.793778 0.46822
5047 1 0.430506 0.802405 0.468488
5121 1 0.435386 0.793211 0.464898
5117 1 0.448035 0.785694 0.462646
5049 1 0.446763 0.800584 0.464818
2240 1 0.461418 0.79002 0.462599
1964 1 0.00849493 0.814909 0.46301
2183 1 0.0225634 0.817778 0.463523
1764 1 0.0410977 0.813715 0.468609
1974 1 0.0293173 0.825015 0.46965
2461 1 0.0546035 0.809375 0.473817
2263 1 0.0449809 0.824234 0.474501
2376 1 0.408092 0.813842 0.473902
2363 1 0.418143 0.805978 0.470053
5042 1 0.427007 0.817815 0.473394
2378 1 0.437904 0.814769 0.467743
5050 1 0.450702 0.816052 0.467974
2308 1 0.463175 0.805328 0.462884
4842 1 0.474972 0.81543 0.463572
4978 1 0.463391 0.821772 0.465942
4898 1 0.0136063 0.829666 0.467867
5109 1 0.0102849 0.839557 0.473462
2173 1 0.000513648 0.827027 0.463867
2188 1 0.023463 0.835558 0.474765
5125 1 0.450488 0.828201 0.470643
4976 1 0.436238 0.829265 0.474745
5193 1 0.459804 0.837345 0.470907
5119 1 0.473052 0.835217 0.467989
5051 1 0.484738 0.828815 0.464085
4913 1 0.490812 0.840117 0.463889
5185 1 0.482231 0.845114 0.469483
5124 1 0.470558 0.849028 0.473114
5475 1 0.491352 0.854493 0.469657
5198 1 0.482649 0.863172 0.473454
5463 1 0.49712 0.870288 0.472019
5472 1 0.487776 0.8787 0.474726
2004 1 0.179935 0.735452 0.475286
2210 1 0.192135 0.730072 0.475692
2203 1 0.20485 0.735398 0.478733
2135 1 0.127483 0.752167 0.475688
2054 1 0.112875 0.760189 0.475551
2275 1 0.143719 0.756295 0.477137
1999 1 0.159533 0.753905 0.480008
1789 1 0.16716 0.746462 0.476161
2200 1 0.170509 0.759329 0.484405
2066 1 0.188106 0.759033 0.484894
1784 1 0.178218 0.749308 0.480692
2413 1 0.191551 0.743034 0.478689
2288 1 0.204373 0.752036 0.481296
2218 1 0.216511 0.742586 0.479495
2196 1 0.220353 0.758294 0.482927
2279 1 0.233167 0.752389 0.477422
2078 1 0.251047 0.751954 0.475077
2198 1 0.105025 0.771009 0.478184
1858 1 0.108461 0.780532 0.484035
2335 1 0.120507 0.77028 0.480419
1850 1 0.132788 0.765166 0.47896
2206 1 0.148576 0.765052 0.482907
2068 1 0.134762 0.774681 0.486628
2129 1 0.205864 0.764746 0.486789
2355 1 0.229206 0.768927 0.48488
2212 1 0.23891 0.778184 0.48603
2278 1 0.237708 0.765944 0.480353
2503 1 0.252267 0.768137 0.478721
2219 1 0.253026 0.778321 0.484117
2427 1 0.268481 0.761795 0.475381
2075 1 0.279129 0.76932 0.477552
2151 1 0.264804 0.775231 0.479324
2518 1 0.29578 0.76349 0.475417
2505 1 0.288132 0.777935 0.479433
2364 1 0.303894 0.774586 0.479215
2579 1 0.308501 0.764362 0.47519
2299 1 0.320546 0.772668 0.478089
2285 1 0.346708 0.780339 0.476047
2294 1 0.33202 0.780869 0.479806
2125 1 0.08612 0.785121 0.475584
1771 1 0.0786982 0.798336 0.478658
2268 1 0.0895318 0.796176 0.483516
2124 1 0.0970796 0.784874 0.480907
2425 1 0.266954 0.786278 0.481476
2727 1 0.275178 0.796154 0.486605
2361 1 0.279879 0.78677 0.481146
2511 1 0.296227 0.787623 0.482973
2369 1 0.31403 0.78696 0.483081
2368 1 0.323379 0.793978 0.485945
2358 1 0.336141 0.794367 0.484201
2302 1 0.360704 0.786657 0.477365
2444 1 0.350383 0.795559 0.481631
2304 1 0.365538 0.800529 0.480688
1910 1 0.0582089 0.820138 0.478451
2070 1 0.0672899 0.824945 0.485965
2120 1 0.0666686 0.805522 0.477714
2053 1 0.0709427 0.811493 0.48305
2273 1 0.0837684 0.809421 0.485203
2006 1 0.345211 0.805398 0.485501
2162 1 0.355662 0.812428 0.483761
2437 1 0.36816 0.816909 0.483019
2307 1 0.377904 0.805649 0.47776
2088 1 0.38235 0.818243 0.480513
5055 1 0.391645 0.809485 0.475608
5183 1 0.398616 0.821341 0.477723
4982 1 0.415333 0.82483 0.476026
2038 1 0.0176159 0.84715 0.479334
2118 1 0.0351481 0.830954 0.477685
2171 1 0.0297938 0.845347 0.481747
2036 1 0.0518088 0.829387 0.483126
2191 1 0.0477706 0.841635 0.485279
2373 1 0.375304 0.831905 0.485452
5188 1 0.388585 0.830646 0.48183
5403 1 0.405904 0.832507 0.478824
2379 1 0.397021 0.839811 0.483552
5182 1 0.412954 0.841509 0.481833
2447 1 0.424808 0.837227 0.477651
4981 1 0.448985 0.840478 0.476018
2238 1 0.437919 0.84586 0.479154
2107 1 0.00320028 0.855879 0.480271
2480 1 0.00772221 0.861595 0.486338
2177 1 0.0229594 0.857512 0.485242
5252 1 0.397956 0.852587 0.486028
5184 1 0.425805 0.850096 0.48206
5253 1 0.414142 0.85655 0.486565
2297 1 0.425821 0.862485 0.486197
5264 1 0.449139 0.856996 0.481103
5270 1 0.438109 0.861925 0.482263
5330 1 0.458603 0.84925 0.476003
4977 1 0.461105 0.863654 0.478494
5191 1 0.471093 0.860884 0.475457
5400 1 0.451511 0.873468 0.483651
5186 1 0.466685 0.879281 0.481325
5112 1 0.475445 0.874103 0.477355
5474 1 0.464083 0.889853 0.486241
5122 1 0.479029 0.888349 0.480515
5410 1 0.478706 0.901738 0.484811
5189 1 0.494438 0.892392 0.477188
5181 1 0.493977 0.905465 0.481175
5465 1 0.496566 0.919422 0.483147
2056 1 0.124077 0.782309 0.487668
2134 1 0.150178 0.777797 0.49113
1928 1 0.160405 0.768771 0.488032
1853 1 0.161929 0.777436 0.492448
1856 1 0.176816 0.770817 0.490027
2347 1 0.191033 0.772011 0.489195
2072 1 0.189857 0.781418 0.496685
2216 1 0.216178 0.773124 0.488317
2500 1 0.204014 0.777984 0.491578
2209 1 0.228731 0.781918 0.490588
2202 1 0.103214 0.793562 0.48881
2338 1 0.114326 0.790189 0.489216
2345 1 0.125452 0.796962 0.495875
2214 1 0.110371 0.803634 0.494432
2139 1 0.139403 0.784992 0.492087
2140 1 0.141298 0.794845 0.497616
2138 1 0.157147 0.788077 0.497667
2272 1 0.17518 0.782751 0.49686
2495 1 0.212599 0.798066 0.499565
2152 1 0.202599 0.791761 0.497403
2483 1 0.214581 0.783147 0.493405
2287 1 0.225829 0.792532 0.496607
2215 1 0.238276 0.802023 0.497253
2283 1 0.258214 0.78802 0.48803
2436 1 0.253647 0.797629 0.493284
2499 1 0.242717 0.788798 0.492658
2501 1 0.265938 0.801381 0.491412
2442 1 0.290674 0.800765 0.488097
2367 1 0.306396 0.800674 0.487826
1981 1 0.078787 0.822536 0.490229
2269 1 0.0967771 0.806343 0.490545
2055 1 0.0914193 0.817656 0.494715
2144 1 0.10463 0.8148 0.497451
2337 1 0.122786 0.811343 0.499681
2488 1 0.250561 0.808849 0.498069
2207 1 0.278744 0.82164 0.498203
2448 1 0.279714 0.807596 0.492917
2352 1 0.266935 0.811422 0.497484
2639 1 0.290759 0.814927 0.49566
2433 1 0.301825 0.822435 0.497977
2365 1 0.300351 0.807976 0.491528
2440 1 0.319249 0.805092 0.490337
2498 1 0.312381 0.813293 0.494321
2567 1 0.31501 0.825904 0.498523
2228 1 0.33516 0.808502 0.490089
2296 1 0.328089 0.817713 0.493539
2377 1 0.344131 0.817434 0.490824
2224 1 0.3599 0.824278 0.488187
2189 1 0.0612417 0.836884 0.489589
2194 1 0.066407 0.846565 0.495929
2341 1 0.0732832 0.833452 0.493611
2130 1 0.0848462 0.838954 0.49946
2344 1 0.0916006 0.830016 0.499286
2371 1 0.343775 0.839567 0.497577
2295 1 0.339312 0.828104 0.496109
4972 1 0.366983 0.837992 0.491722
2222 1 0.35327 0.833011 0.493204
2221 1 0.356954 0.845682 0.494714
5111 1 0.38243 0.842857 0.48803
2111 1 0.0381936 0.853186 0.488902
2115 1 0.0335482 0.862522 0.49018
2199 1 0.054356 0.848424 0.491126
2122 1 0.0601105 0.858466 0.498778
2121 1 0.0480978 0.860463 0.493552
2232 1 0.361992 0.857886 0.499343
2439 1 0.374287 0.851026 0.494146
2298 1 0.388427 0.856277 0.491306
5113 1 0.377641 0.864452 0.496689
5321 1 0.402152 0.865441 0.490739
4895 1 0.0186819 0.870781 0.490571
2245 1 0.00293079 0.888717 0.4994
2393 1 0.0177893 0.88044 0.496763
2181 1 0.00732027 0.878813 0.493382
2047 1 0.0423659 0.87003 0.497635
1968 1 0.0311834 0.873389 0.494648
2517 1 0.400809 0.883151 0.499604
5048 1 0.407833 0.874164 0.494857
2449 1 0.392299 0.87058 0.497241
5260 1 0.4172 0.870179 0.490859
2588 1 0.416744 0.885472 0.497264
2372 1 0.427824 0.883514 0.493871
5254 1 0.452246 0.887116 0.489168
2574 1 0.437466 0.876469 0.48875
5258 1 0.442092 0.891053 0.492689
2515 1 0.43122 0.894169 0.498183
2507 1 0.449407 0.902207 0.495743
5464 1 0.470533 0.908446 0.490191
2516 1 0.459767 0.900144 0.491205
5255 1 0.461709 0.925936 0.499311
5462 1 0.473563 0.921244 0.493052
5115 1 0.474443 0.932037 0.496958
5256 1 0.461928 0.914361 0.494867
5473 1 0.484732 0.917277 0.487871
2730 1 0.488508 0.929688 0.490626
2877 1 0.491949 0.94077 0.497025
2282 1 0.155154 0.803984 0.501428
2133 1 0.173329 0.795931 0.500295
2128 1 0.187409 0.795004 0.5003
2569 1 0.19989 0.803205 0.503022
2408 1 0.114733 0.82032 0.503085
2123 1 0.134804 0.819185 0.505098
2190 1 0.137805 0.807489 0.501177
2418 1 0.148007 0.816347 0.506179
2274 1 0.167795 0.808448 0.505038
2421 1 0.163176 0.820436 0.510287
2414 1 0.182545 0.805398 0.503899
2281 1 0.178488 0.817946 0.51022
2062 1 0.194193 0.815291 0.506172
2700 1 0.191959 0.825665 0.510782
2426 1 0.21188 0.812897 0.504539
2637 1 0.206131 0.823681 0.509959
2493 1 0.221621 0.821156 0.506966
2354 1 0.237617 0.815655 0.503628
2142 1 0.225489 0.806991 0.50215
2705 1 0.249922 0.820901 0.503135
2353 1 0.262608 0.821148 0.501665
2211 1 0.098324 0.839812 0.503874
2484 1 0.105651 0.828056 0.502597
2396 1 0.124637 0.826382 0.506382
2127 1 0.110706 0.838074 0.507072
2265 1 0.150594 0.828182 0.512373
2204 1 0.136958 0.830361 0.510391
2565 1 0.234144 0.826872 0.5079
2627 1 0.219569 0.831456 0.512451
2640 1 0.248584 0.836775 0.509072
2280 1 0.263249 0.831141 0.506112
2504 1 0.275708 0.831575 0.50495
2510 1 0.27598 0.84222 0.5108
2572 1 0.290572 0.826114 0.502272
2357 1 0.288071 0.836535 0.505509
2230 1 0.302513 0.841369 0.507741
2423 1 0.289273 0.846694 0.511611
2496 1 0.307198 0.833478 0.502436
5116 1 0.318681 0.837801 0.505706
5120 1 0.325653 0.846509 0.50946
5187 1 0.333854 0.842475 0.502741
2375 1 0.328023 0.83114 0.500144
2119 1 0.0753403 0.848472 0.501059
2052 1 0.06958 0.860415 0.503006
1979 1 0.0803296 0.861716 0.507553
2046 1 0.103324 0.850316 0.508891
2126 1 0.0886889 0.848839 0.505185
2193 1 0.0929748 0.857918 0.510952
2646 1 0.31292 0.848176 0.510977
2380 1 0.337819 0.856725 0.506809
2519 1 0.34443 0.867327 0.508777
2434 1 0.348422 0.853028 0.500676
2577 1 0.358105 0.866377 0.504554
2109 1 0.0302198 0.883788 0.501303
2250 1 0.0405544 0.889146 0.50956
2197 1 0.0420725 0.880224 0.502938
2342 1 0.0546123 0.869864 0.502
2323 1 0.0535282 0.882545 0.508405
2044 1 0.0679857 0.87231 0.506697
2583 1 0.362275 0.881336 0.508127
2590 1 0.350756 0.878148 0.51146
5268 1 0.370339 0.873572 0.50218
5251 1 0.382528 0.877781 0.501659
2508 1 0.377755 0.888763 0.50767
2636 1 0.390671 0.889372 0.5059
2256 1 0.0162191 0.891683 0.502407
2180 1 5.83717e-05 0.89843 0.503868
2251 1 0.0116492 0.900463 0.50797
2262 1 0.0289224 0.893241 0.506617
5324 1 0.402058 0.898228 0.506903
2520 1 0.413448 0.896005 0.50131
2445 1 0.41473 0.908968 0.507722
2659 1 0.426031 0.901801 0.503578
5393 1 0.438885 0.906334 0.502769
5322 1 0.411912 0.918561 0.512043
2729 1 0.427704 0.914807 0.50627
5470 1 0.424357 0.927024 0.510668
2450 1 0.437912 0.921484 0.505518
2366 1 0.450345 0.916288 0.501581
2514 1 0.450185 0.931234 0.504592
5394 1 0.434573 0.934888 0.510397
2802 1 0.448902 0.944628 0.511136
2446 1 0.462546 0.941128 0.50441
5118 1 0.473212 0.941793 0.502654
2718 1 0.463856 0.954262 0.51025
5325 1 0.476528 0.955001 0.508117
5534 1 0.484276 0.94637 0.501348
2587 1 0.474732 0.967238 0.512494
5398 1 0.491151 0.958535 0.503456
2945 1 0.48839 0.968475 0.508658
2332 1 0.124163 0.840092 0.512538
2346 1 0.138117 0.840312 0.515256
2485 1 0.152094 0.839089 0.516835
2773 1 0.163644 0.832894 0.515724
2276 1 0.171336 0.842811 0.520973
2362 1 0.177848 0.828359 0.513593
2429 1 0.186576 0.837391 0.51779
2417 1 0.202949 0.83324 0.515121
2634 1 0.217365 0.84328 0.51894
2348 1 0.200693 0.840691 0.521045
2560 1 0.233367 0.83884 0.513613
2422 1 0.233278 0.847351 0.521165
2563 1 0.248032 0.846037 0.517235
2430 1 0.262986 0.843536 0.513071
2208 1 0.104374 0.862293 0.516379
2340 1 0.114687 0.852039 0.513717
2336 1 0.128913 0.851235 0.518891
2395 1 0.11962 0.862981 0.521683
2412 1 0.143198 0.852044 0.518518
2415 1 0.134065 0.860256 0.524055
2356 1 0.151033 0.856137 0.524899
2351 1 0.160288 0.850604 0.520635
2331 1 0.171269 0.859252 0.524825
2411 1 0.186633 0.848821 0.52258
2481 1 0.243016 0.857263 0.521624
119 1 0.259249 0.866721 0.52491
2568 1 0.26323 0.854865 0.519292
2502 1 0.275453 0.851933 0.516181
2420 1 0.273557 0.863077 0.522819
2709 1 0.289097 0.858872 0.51976
2438 1 0.299657 0.85351 0.514977
2509 1 0.306338 0.860817 0.517946
2641 1 0.321063 0.858788 0.513735
2513 1 0.333165 0.865948 0.512952
2249 1 0.0640739 0.885058 0.514377
2409 1 0.0759189 0.873486 0.512932
2407 1 0.0766626 0.886942 0.517502
2192 1 0.0897862 0.870932 0.515308
2264 1 0.088959 0.884724 0.518197
2270 1 0.0999288 0.877098 0.519032
2410 1 0.101698 0.886977 0.524196
2339 1 0.115616 0.877418 0.523903
2566 1 0.303275 0.869717 0.522563
2309 1 0.317148 0.869809 0.518265
2721 1 0.307768 0.881272 0.524925
2805 1 0.322899 0.881155 0.519231
2578 1 0.336972 0.878011 0.516452
2586 1 0.348588 0.889138 0.516971
2320 1 0.0108893 0.910197 0.515089
2114 1 0.0237224 0.903263 0.513102
2253 1 0.0365173 0.902505 0.514214
2459 1 0.0348367 0.912357 0.519516
2110 1 0.0501442 0.895251 0.515203
2254 1 0.0498397 0.905959 0.519433
2390 1 0.0636205 0.912742 0.523275
2460 1 0.066541 0.898649 0.518644
2467 1 0.0772419 0.902944 0.523502
2535 1 0.0857794 0.893816 0.523483
2497 1 0.317289 0.891358 0.524775
2706 1 0.332274 0.89401 0.521899
2576 1 0.36182 0.89193 0.513999
2506 1 0.349121 0.902393 0.520794
5466 1 0.361225 0.902944 0.519081
2655 1 0.369388 0.91146 0.51923
2581 1 0.386977 0.89958 0.51349
2647 1 0.373295 0.893439 0.514
2722 1 0.378191 0.906249 0.516946
130 1 0.396199 0.910692 0.512952
2534 1 0.00888142 0.920185 0.520652
2184 1 0.0214783 0.917584 0.519216
2179 1 0.0075935 0.933019 0.52495
2389 1 0.0334115 0.924269 0.524915
2260 1 0.0496308 0.916147 0.524524
2777 1 0.355298 0.915109 0.523182
136 1 0.360801 0.927492 0.52433
2720 1 0.384463 0.916975 0.517945
2644 1 0.372329 0.92609 0.522636
2719 1 0.38641 0.930844 0.519933
2789 1 0.398818 0.922913 0.517123
138 1 0.412877 0.931958 0.51646
2651 1 0.38107 0.942318 0.523417
2796 1 0.401239 0.935965 0.519519
2800 1 0.411833 0.950209 0.520088
2807 1 0.395165 0.947921 0.522421
133 1 0.423576 0.943845 0.515479
348 1 0.429337 0.954693 0.519547
2725 1 0.436875 0.95012 0.514081
131 1 0.417989 0.964414 0.524045
553 1 0.433806 0.969865 0.5241
2443 1 0.45095 0.956912 0.515915
2946 1 0.439554 0.961887 0.519891
2941 1 0.448697 0.970114 0.521034
2723 1 0.460318 0.968359 0.517916
5546 1 0.469889 0.977339 0.519132
2652 1 0.496969 0.978199 0.512895
2799 1 0.458677 0.981674 0.523562
2726 1 0.484801 0.978925 0.516017
2875 1 0.478932 0.989786 0.52348
2724 1 0.494425 0.989298 0.520242
2424 1 0.144426 0.867915 0.528096
2343 1 0.160568 0.864394 0.527095
2475 1 0.18428 0.863791 0.528858
2562 1 0.207313 0.853366 0.525153
2553 1 0.196397 0.858608 0.527169
2419 1 0.20811 0.867603 0.530213
2558 1 0.221114 0.852524 0.525959
2550 1 0.231291 0.861839 0.528027
2486 1 0.220389 0.865821 0.531924
2489 1 0.245684 0.869443 0.526122
2333 1 0.129115 0.88659 0.529263
2349 1 0.131232 0.872069 0.526162
2557 1 0.140734 0.881002 0.531979
2691 1 0.157117 0.876863 0.532931
2552 1 0.170627 0.874268 0.531065
2252 1 0.170984 0.888425 0.535853
2479 1 0.152537 0.889907 0.535788
2328 1 0.183737 0.878726 0.531036
2404 1 0.195372 0.872851 0.530859
2490 1 0.184533 0.891271 0.535945
2561 1 0.207286 0.878911 0.534166
2703 1 0.198139 0.886349 0.535025
2633 1 0.219722 0.879667 0.535192
2643 1 0.232266 0.876343 0.533198
2492 1 0.258234 0.879026 0.529363
2416 1 0.242525 0.881461 0.531049
49 1 0.275551 0.87615 0.527378
2771 1 0.269196 0.888555 0.531769
2559 1 0.289583 0.872451 0.52726
2710 1 0.282884 0.886011 0.531362
2575 1 0.296547 0.883458 0.528502
2400 1 0.0846891 0.907736 0.5296
2325 1 0.0940005 0.899584 0.528648
2466 1 0.107481 0.90103 0.531509
2545 1 0.0956544 0.911589 0.535529
2324 1 0.115566 0.892095 0.52903
2048 1 0.125181 0.900741 0.534884
2186 1 0.134917 0.894883 0.536152
2631 1 0.228396 0.892269 0.537096
2714 1 0.256336 0.891346 0.533134
2642 1 0.242873 0.891453 0.537452
2491 1 0.277471 0.90043 0.534334
118 1 0.264484 0.899675 0.536827
2707 1 0.29337 0.894181 0.53237
2580 1 0.30259 0.913002 0.53475
2629 1 0.285861 0.910282 0.536024
2432 1 0.30776 0.897103 0.529733
2584 1 0.315142 0.907934 0.530679
2704 1 0.326498 0.904118 0.527217
2638 1 0.336652 0.911406 0.526828
2322 1 0.0203047 0.929112 0.525057
2610 1 0.0442136 0.927825 0.530557
2533 1 0.0577645 0.922279 0.529847
2542 1 0.0550193 0.934233 0.53619
2539 1 0.0715905 0.91759 0.529858
2537 1 0.0833497 0.922068 0.535084
2531 1 0.0704283 0.929963 0.535617
2589 1 0.324735 0.915521 0.531815
2657 1 0.314666 0.922015 0.535775
53 1 0.324668 0.933071 0.536693
2582 1 0.335104 0.923647 0.531737
2660 1 0.34676 0.923267 0.527852
2570 1 0.341025 0.934576 0.533752
2776 1 0.354942 0.934702 0.529425
2469 1 0.000818539 0.941025 0.528355
2457 1 0.015553 0.939769 0.530702
2620 1 0.00312853 0.951371 0.534561
2679 1 0.0160865 0.948748 0.535219
2454 1 0.0294067 0.935369 0.530674
2540 1 0.040202 0.940109 0.536441
2468 1 0.0276877 0.943823 0.53685
2650 1 0.348883 0.946776 0.534683
2656 1 0.360918 0.948454 0.530298
2512 1 0.371163 0.942965 0.526812
2943 1 0.386952 0.95572 0.526858
61 1 0.360206 0.959886 0.535115
2782 1 0.368439 0.977137 0.537423
5391 1 0.373776 0.956795 0.528836
2585 1 0.376366 0.968866 0.533072
64 1 0.388311 0.967533 0.53012
2794 1 0.401436 0.9607 0.525049
196 1 0.403249 0.973101 0.52858
192 1 0.418515 0.977447 0.527317
63 1 0.388968 0.980651 0.533041
194 1 0.39098 0.998336 0.537149
137 1 0.403678 0.987498 0.532419
200 1 0.415889 0.98897 0.531736
2645 1 0.429705 0.984277 0.529306
188 1 0.420255 0.999845 0.535028
56 1 0.443616 0.98012 0.527747
201 1 0.437271 0.995287 0.531104
199 1 0.451067 0.992586 0.528263
2873 1 0.466739 0.990105 0.525625
2394 1 0.116208 0.907803 0.537692
2326 1 0.128747 0.909242 0.54066
2334 1 0.143189 0.9018 0.540741
2405 1 0.1608 0.902086 0.539056
2487 1 0.173726 0.904413 0.54019
2329 1 0.187624 0.905948 0.541691
2765 1 0.212306 0.892676 0.53898
2258 1 0.201739 0.902042 0.539602
2767 1 0.21273 0.910304 0.543615
2259 1 0.225733 0.903027 0.541387
2711 1 0.238341 0.905107 0.541137
117 1 0.251546 0.904258 0.539883
2702 1 0.271331 0.911502 0.541649
2751 1 0.0961774 0.922851 0.542228
2402 1 0.107648 0.928429 0.545001
2618 1 0.108129 0.915628 0.541635
2476 1 0.119486 0.927676 0.549343
2678 1 0.12353 0.921202 0.543474
2474 1 0.13951 0.917021 0.54433
2548 1 0.148414 0.930009 0.548721
2401 1 0.152618 0.91418 0.543133
2330 1 0.169508 0.9159 0.543828
2463 1 0.160852 0.923766 0.546108
2321 1 0.182174 0.915529 0.543502
2551 1 0.176279 0.929915 0.5491
2478 1 0.187692 0.922934 0.54798
2397 1 0.199614 0.916554 0.544584
2625 1 0.22735 0.914184 0.546381
2698 1 0.240372 0.917335 0.54575
2628 1 0.256643 0.929363 0.54936
2546 1 0.256361 0.917144 0.54454
2701 1 0.242131 0.930819 0.549998
2769 1 0.268704 0.927237 0.545217
2712 1 0.282028 0.9233 0.542671
2654 1 0.298704 0.923643 0.539711
2635 1 0.310055 0.934021 0.540404
2398 1 0.0383263 0.955972 0.543433
10 1 0.0511337 0.948664 0.542358
2688 1 0.0637503 0.954067 0.546467
2471 1 0.0684418 0.943845 0.539576
2527 1 0.0818393 0.935342 0.541591
2692 1 0.0807178 0.948482 0.548254
2544 1 0.0952156 0.937478 0.545648
2780 1 0.280529 0.936177 0.544808
45 1 0.276046 0.947707 0.549195
115 1 0.263417 0.942601 0.549265
2778 1 0.295556 0.936688 0.544152
2653 1 0.291727 0.952743 0.546358
191 1 0.306879 0.949637 0.544937
2494 1 0.322131 0.948112 0.542144
2571 1 0.33353 0.945407 0.53754
2756 1 0.0115498 0.960738 0.539583
17 1 0.00694954 0.974563 0.542878
2601 1 0.0179833 0.970811 0.54707
2680 1 0.0231129 0.957011 0.541769
2611 1 0.0334886 0.967512 0.547713
24 1 0.0510288 0.960727 0.548115
122 1 0.277611 0.961301 0.549873
189 1 0.299933 0.963417 0.547893
51 1 0.316268 0.961493 0.546165
2790 1 0.324447 0.971163 0.544549
58 1 0.309151 0.973849 0.549344
2728 1 0.329666 0.960665 0.542262
2792 1 0.340246 0.973146 0.543559
2573 1 0.341429 0.959129 0.538098
2715 1 0.354062 0.972433 0.539608
2745 1 0.0144494 0.983445 0.548662
2785 1 0.319422 0.98263 0.548403
2649 1 0.332143 0.985412 0.54758
2783 1 0.347847 0.993096 0.54801
2717 1 0.355477 0.984473 0.542535
261 1 0.366401 0.991652 0.540466
198 1 0.378655 0.987091 0.537718
2529 1 0.134429 0.93095 0.550125
2257 1 0.163409 0.934235 0.551883
2266 1 0.212827 0.921918 0.550047
2482 1 0.202496 0.929432 0.55077
2772 1 0.227419 0.929879 0.550542
106 1 0.0961463 0.948245 0.550626
105 1 0.105837 0.955898 0.555494
2763 1 0.109394 0.942968 0.550631
2477 1 0.12263 0.94053 0.553917
2403 1 0.11813 0.952084 0.557566
2406 1 0.133751 0.955394 0.558805
2609 1 0.135148 0.943491 0.555472
2555 1 0.147627 0.951574 0.558637
2267 1 0.14775 0.939689 0.554071
2613 1 0.162907 0.945848 0.557369
2619 1 0.173812 0.952136 0.560237
2399 1 0.190135 0.937803 0.551529
2614 1 0.178943 0.943957 0.55342
2327 1 0.190775 0.952802 0.556111
2350 1 0.20321 0.942521 0.554759
2261 1 0.203581 0.954101 0.558598
2554 1 0.215173 0.937984 0.552531
2699 1 0.220005 0.947357 0.557303
2774 1 0.231272 0.94477 0.553886
2564 1 0.248184 0.944621 0.552582
2695 1 0.240673 0.95641 0.557282
50 1 0.26327 0.956321 0.552922
31 1 0.0453982 0.970981 0.551693
247 1 0.0596654 0.977107 0.555632
2689 1 0.0639997 0.965997 0.552245
99 1 0.0776037 0.960077 0.553082
2615 1 0.0736865 0.973073 0.557908
175 1 0.0865882 0.972049 0.558551
2547 1 0.0918828 0.961265 0.554024
108 1 0.102386 0.967508 0.560011
110 1 0.114521 0.966025 0.5617
2473 1 0.187551 0.961522 0.561507
37 1 0.214863 0.962104 0.560364
2708 1 0.199071 0.965326 0.562235
2632 1 0.227829 0.959899 0.55709
2768 1 0.225436 0.977429 0.561729
2556 1 0.237992 0.972437 0.559811
120 1 0.250315 0.964701 0.557744
186 1 0.26541 0.970344 0.556315
2779 1 0.288812 0.969713 0.552312
2453 1 0.00521938 0.997806 0.551
2676 1 0.0204248 0.991764 0.55354
173 1 0.0290072 0.979326 0.55245
2683 1 0.0365195 0.990343 0.557162
29 1 0.0429276 0.980367 0.555934
20 1 0.058336 0.996217 0.562433
2686 1 0.0455379 0.998777 0.56005
96 1 0.0535522 0.987049 0.558323
34 1 0.0680426 0.985467 0.561141
26 1 0.0813631 0.985408 0.561318
100 1 0.236978 0.98768 0.561821
111 1 0.250505 0.980143 0.558865
35 1 0.256342 0.99572 0.561176
2791 1 0.277992 0.97941 0.555823
2621 1 0.264814 0.985047 0.55751
374 1 0.287089 0.991321 0.556556
2761 1 0.299914 0.982739 0.553568
2716 1 0.310622 0.990697 0.551292
195 1 0.326285 0.997002 0.550725
2626 1 0.12658 0.96916 0.563975
2616 1 0.143275 0.963709 0.563756
2684 1 0.14087 0.977137 0.569009
2693 1 0.157863 0.957396 0.562551
2624 1 0.155245 0.971264 0.565712
30 1 0.171778 0.967028 0.565167
2630 1 0.186264 0.976666 0.565706
2759 1 0.209179 0.977875 0.5631
32 1 0.0911921 0.995053 0.566733
2754 1 0.0967452 0.982113 0.562851
15 1 0.106275 0.990865 0.567857
102 1 0.112556 0.979792 0.565957
93 1 0.1273 0.980262 0.567752
161 1 0.121316 0.992697 0.57054
2764 1 0.147188 0.997709 0.572958
2694 1 0.15069 0.983226 0.570416
177 1 0.136038 0.992375 0.572142
39 1 0.16913 0.98002 0.569024
2775 1 0.160614 0.993377 0.572652
2690 1 0.171481 0.999853 0.574316
2549 1 0.190421 0.996266 0.571772
42 1 0.180343 0.985141 0.570627
2617 1 0.213182 0.991222 0.565702
2623 1 0.198989 0.987238 0.569011
2766 1 0.205743 0.998464 0.570286
43 1 0.224304 0.987953 0.564211
113 1 0.240795 0.999824 0.563716
4092 1 0.808583 0.499574 0.459815
4100 1 0.824309 0.498382 0.455927
4302 1 0.842516 0.496884 0.455764
4166 1 0.852008 0.488039 0.462446
4303 1 0.861303 0.495424 0.457221
4388 1 0.890185 0.492021 0.459368
4379 1 0.876805 0.485471 0.461368
4380 1 0.878154 0.497963 0.456281
4386 1 0.903443 0.494089 0.459563
4515 1 0.917572 0.492735 0.460586
4327 1 0.934143 0.49182 0.461881
4394 1 0.947455 0.492276 0.459109
4393 1 0.964086 0.491214 0.459664
4396 1 0.975773 0.499077 0.455647
4402 1 0.986687 0.491679 0.458834
4330 1 0.995153 0.484076 0.461338
4452 1 0.994146 0.499286 0.454135
4179 1 0.84327 0.468375 0.473221
4150 1 0.844404 0.477864 0.466516
4517 1 0.855599 0.473546 0.469862
4246 1 0.864835 0.465492 0.474517
4442 1 0.889699 0.474564 0.471843
4444 1 0.872351 0.474298 0.468979
4108 1 0.879195 0.464685 0.474825
4454 1 0.903795 0.476735 0.471189
4390 1 0.91875 0.474613 0.47294
4609 1 0.933776 0.47755 0.470787
4176 1 0.946386 0.47069 0.472851
4178 1 0.974714 0.476094 0.468539
4252 1 0.958221 0.471847 0.470294
4450 1 0.966232 0.465009 0.473725
4326 1 0.990399 0.475065 0.46594
4322 1 0.998935 0.464367 0.473738
4316 1 0.983222 0.465279 0.472531
4099 1 0.788967 0.493375 0.470098
4368 1 0.803633 0.490048 0.466042
4168 1 0.816386 0.482898 0.469131
4173 1 0.822116 0.490528 0.462766
4458 1 0.83585 0.487225 0.462978
4106 1 0.82889 0.478267 0.468915
4314 1 0.863737 0.480133 0.464824
4037 1 0.883904 0.481027 0.466328
4375 1 0.912937 0.483327 0.465995
4317 1 0.897449 0.484688 0.464169
4459 1 0.925316 0.481376 0.465008
4318 1 0.948492 0.482243 0.466514
4397 1 0.977204 0.483794 0.462778
4323 1 0.962535 0.482131 0.465609
4177 1 0.850041 0.453098 0.483999
3965 1 0.864137 0.454067 0.481485
4310 1 0.860426 0.445311 0.486634
4043 1 0.878762 0.456099 0.481019
4109 1 0.876328 0.447005 0.486713
4111 1 0.910987 0.455839 0.480395
4172 1 0.894888 0.452568 0.481345
4381 1 0.921812 0.452534 0.484595
3906 1 0.953307 0.450767 0.484891
4181 1 0.936148 0.448258 0.486851
4182 1 0.968244 0.446594 0.486778
4115 1 0.962761 0.455952 0.477846
4248 1 0.977418 0.454842 0.480058
4038 1 0.985791 0.447617 0.485095
4387 1 0.992729 0.455871 0.478276
1733 1 0.508599 0.469522 0.486964
4297 1 0.803422 0.475892 0.483108
4241 1 0.823071 0.467025 0.482798
4169 1 0.81098 0.469229 0.486539
4238 1 0.815687 0.474595 0.477259
4244 1 0.82909 0.457161 0.487495
4443 1 0.831074 0.47117 0.475684
4372 1 0.836997 0.460844 0.480816
4102 1 0.851996 0.463532 0.477771
4040 1 0.89352 0.463643 0.477304
4462 1 0.90769 0.467404 0.475595
4384 1 0.933232 0.469516 0.475864
4249 1 0.930404 0.460725 0.480836
4382 1 0.920826 0.46423 0.477396
4036 1 0.942854 0.460054 0.48118
4039 1 0.953236 0.46408 0.477541
4138 1 0.50002 0.481194 0.482534
1598 1 0.520593 0.479472 0.486177
4133 1 0.509597 0.48858 0.48012
4279 1 0.525336 0.492577 0.479754
4062 1 0.536175 0.481412 0.486059
1957 1 0.537683 0.494917 0.481798
1678 1 0.548541 0.490359 0.485994
1744 1 0.563134 0.484423 0.48745
4136 1 0.560592 0.499085 0.482695
4349 1 0.585424 0.493695 0.486792
4137 1 0.575673 0.48695 0.486296
4481 1 0.630104 0.497581 0.484953
3935 1 0.670684 0.494684 0.486349
1259 1 0.683482 0.495435 0.483533
4081 1 0.695987 0.493167 0.48514
3670 1 0.708808 0.492663 0.485001
4142 1 0.714372 0.499508 0.479285
4164 1 0.734859 0.495064 0.478779
4008 1 0.723592 0.488397 0.484334
3740 1 0.760273 0.485837 0.485843
4013 1 0.741913 0.487026 0.48433
4024 1 0.752213 0.494573 0.479592
4104 1 0.781774 0.492136 0.476993
4107 1 0.77453 0.486299 0.484214
3958 1 0.767547 0.495648 0.479913
4307 1 0.803701 0.482301 0.475422
4308 1 0.788268 0.480908 0.482607
4242 1 0.891077 0.432372 0.496521
3967 1 0.922086 0.432509 0.496516
4049 1 0.935825 0.424994 0.4991
4378 1 0.949752 0.432455 0.49745
3900 1 0.961777 0.425713 0.499379
3907 1 0.973915 0.430986 0.494962
3905 1 0.986518 0.419014 0.497168
4257 1 0.988695 0.432335 0.494729
1466 1 0.504931 0.438923 0.496469
1398 1 0.511394 0.452867 0.493215
4203 1 0.522367 0.442985 0.499686
4002 1 0.551757 0.451591 0.498228
3886 1 0.766705 0.452015 0.498777
4167 1 0.807513 0.450029 0.495315
3821 1 0.81848 0.440764 0.499626
3896 1 0.817403 0.455008 0.491779
3970 1 0.825575 0.446571 0.494478
4311 1 0.841505 0.443514 0.497342
4239 1 0.841159 0.449402 0.489307
4236 1 0.833675 0.436183 0.499879
4243 1 0.852923 0.441234 0.494405
4096 1 0.866355 0.437459 0.494145
4035 1 0.879251 0.439443 0.49242
3888 1 0.905914 0.435933 0.494689
4377 1 0.893409 0.444676 0.488389
4029 1 0.908871 0.444225 0.487837
4250 1 0.920637 0.443589 0.491504
4312 1 0.935536 0.437779 0.49415
4313 1 0.949324 0.443158 0.491392
3969 1 0.962313 0.439271 0.493107
4110 1 0.996931 0.439405 0.490194
4044 1 0.979113 0.439709 0.490185
1315 1 0.501994 0.45745 0.489046
1317 1 0.519353 0.465266 0.490807
1470 1 0.525499 0.457198 0.495664
4271 1 0.531593 0.471621 0.491481
1399 1 0.538918 0.459658 0.494247
4205 1 0.548112 0.466652 0.492102
1322 1 0.561227 0.464954 0.496371
1184 1 0.55134 0.475588 0.487737
4551 1 0.566159 0.475199 0.492423
4016 1 0.578088 0.461123 0.499595
4139 1 0.578647 0.471348 0.493281
1330 1 0.594257 0.468688 0.498271
4420 1 0.604687 0.478031 0.49349
3995 1 0.621995 0.469044 0.498953
3921 1 0.641584 0.472392 0.498954
3930 1 0.655055 0.473795 0.498675
3937 1 0.669552 0.474324 0.498183
1325 1 0.687142 0.474683 0.498336
4085 1 0.713939 0.473988 0.49746
3881 1 0.727316 0.470987 0.495489
3882 1 0.751704 0.477889 0.490141
3936 1 0.74443 0.469036 0.496892
3950 1 0.75937 0.467688 0.494787
4158 1 0.766853 0.478108 0.49042
4034 1 0.772003 0.46353 0.496303
3957 1 0.779205 0.472623 0.490424
4240 1 0.792977 0.471081 0.488079
4027 1 0.790141 0.458304 0.494979
4230 1 0.803435 0.465456 0.491868
4068 1 0.603298 0.48933 0.488788
4412 1 0.589491 0.48055 0.490548
4064 1 0.618905 0.492634 0.489098
4065 1 0.619727 0.479634 0.493989
3992 1 0.64744 0.49564 0.487788
1400 1 0.632393 0.481861 0.495204
4132 1 0.634651 0.491381 0.490318
4004 1 0.645658 0.485332 0.492827
3923 1 0.661265 0.483325 0.494493
4351 1 0.65888 0.492552 0.489312
4067 1 0.677164 0.48459 0.49341
4342 1 0.694565 0.485481 0.492025
4009 1 0.701864 0.478385 0.496882
4012 1 0.707948 0.484369 0.490458
4023 1 0.720761 0.482254 0.491672
3951 1 0.736738 0.478463 0.491627
2895 1 0.597636 0.00359081 0.509762
5348 1 0.611811 0.0022829 0.511191
2897 1 0.670647 0.000673223 0.51132
3504 1 0.501284 0.407631 0.512289
3972 1 0.921881 0.406537 0.509958
3760 1 0.949233 0.40833 0.5093
3822 1 0.936398 0.412973 0.505504
4117 1 0.972955 0.409094 0.50613
4260 1 0.965343 0.405568 0.511875
3773 1 0.978806 0.400134 0.50997
4185 1 0.986345 0.410132 0.504005
3909 1 0.993179 0.39947 0.507393
1188 1 0.515595 0.429287 0.504255
1392 1 0.507984 0.417088 0.508671
3782 1 0.524599 0.420164 0.509406
1258 1 0.538346 0.427199 0.50935
1323 1 0.554514 0.432605 0.506971
1458 1 0.561878 0.425262 0.510836
1395 1 0.583586 0.433716 0.51147
3819 1 0.758729 0.433699 0.510654
4170 1 0.775672 0.429055 0.510623
4105 1 0.795345 0.43124 0.507903
4093 1 0.821984 0.429677 0.504116
3756 1 0.809842 0.422828 0.507827
3964 1 0.825658 0.422292 0.510333
3671 1 0.840632 0.428452 0.504554
3898 1 0.843785 0.41934 0.511078
3894 1 0.855474 0.423282 0.507091
3616 1 0.85227 0.432202 0.500846
3674 1 0.866103 0.428928 0.502128
3830 1 0.872031 0.420869 0.507595
3838 1 0.885484 0.425591 0.507542
3904 1 0.886314 0.41432 0.511999
4114 1 0.878457 0.431035 0.500148
4032 1 0.910831 0.415561 0.505941
3889 1 0.897007 0.425329 0.502754
3975 1 0.898417 0.418143 0.509253
4041 1 0.910875 0.426237 0.501149
3901 1 0.924883 0.419776 0.503409
3968 1 0.947538 0.419901 0.502127
3750 1 0.959888 0.414737 0.505559
3977 1 0.975237 0.419084 0.501622
3574 1 0.530854 0.435347 0.505998
1245 1 0.535519 0.447481 0.501024
1120 1 0.561836 0.443412 0.503505
1050 1 0.543617 0.438425 0.503774
1255 1 0.570399 0.436043 0.508835
1190 1 0.568899 0.454301 0.502149
3946 1 0.579946 0.447055 0.505564
3998 1 0.593967 0.446438 0.508406
3932 1 0.604463 0.453776 0.50582
3852 1 0.611204 0.447741 0.511511
3993 1 0.627442 0.453272 0.508422
3851 1 0.640418 0.454095 0.509552
3944 1 0.657072 0.453695 0.511017
3929 1 0.670835 0.453774 0.5088
3955 1 0.690748 0.454533 0.507385
3737 1 0.684491 0.444569 0.51173
3875 1 0.709263 0.453043 0.507642
3952 1 0.715736 0.442558 0.512336
4003 1 0.726816 0.453706 0.507965
3885 1 0.729643 0.440786 0.512115
4033 1 0.742721 0.450913 0.506794
3744 1 0.757833 0.447592 0.506941
3883 1 0.773074 0.442317 0.506159
4171 1 0.781599 0.448247 0.500557
3823 1 0.785269 0.437461 0.506549
4097 1 0.796315 0.445216 0.501402
4174 1 0.806451 0.435048 0.503107
1462 1 0.590986 0.457391 0.501578
4206 1 0.608302 0.468384 0.50035
3991 1 0.616357 0.458861 0.503788
4066 1 0.633608 0.46436 0.503961
1260 1 0.648777 0.464116 0.503883
4074 1 0.662516 0.46289 0.504045
3934 1 0.679072 0.464554 0.50329
3872 1 0.694991 0.464738 0.502592
4083 1 0.708253 0.46424 0.503307
4021 1 0.721306 0.462478 0.50232
3809 1 0.733727 0.462694 0.501354
3945 1 0.753882 0.460433 0.500507
2810 1 0.519075 0.000905641 0.518796
65 1 0.504417 0.000503677 0.523689
486 1 0.531845 0.0104718 0.523151
2806 1 0.531294 0.00405767 0.516337
5479 1 0.557496 0.0021527 0.514491
2874 1 0.545049 0.00975083 0.519246
2958 1 0.559111 0.0159696 0.519507
5461 1 0.585257 0.00552405 0.513359
2813 1 0.569788 0.0114378 0.516277
3249 1 0.581123 0.017153 0.519443
2891 1 0.597777 0.015707 0.517395
2963 1 0.624061 0.00791472 0.514075
2964 1 0.614908 0.0174147 0.516792
3031 1 0.626586 0.0184866 0.51822
3099 1 0.641824 0.010944 0.516239
2968 1 0.656415 0.00179453 0.513648
2973 1 0.654411 0.0178001 0.517806
2962 1 0.667463 0.0134762 0.515424
5560 1 0.693913 0.0029831 0.513964
2910 1 0.684171 0.00905361 0.515096
3051 1 0.692824 0.0163499 0.518733
2886 1 0.676216 0.0204827 0.520152
2969 1 0.711662 0.00247725 0.513887
5343 1 0.705398 0.0158354 0.519297
3047 1 0.727965 0.00645109 0.514227
2903 1 0.721938 0.0141265 0.519337
2977 1 0.739406 0.0161612 0.519178
2982 1 0.758953 0.000238541 0.515507
3123 1 0.760384 0.0149654 0.521658
5574 1 0.741776 0.00160696 0.513358
5517 1 0.772793 0.00468436 0.519621
5586 1 0.778512 0.014133 0.523154
5512 1 0.790431 0.0032162 0.519852
2854 1 0.806468 0.00350723 0.522307
208 1 0.571276 0.0245393 0.522226
140 1 0.588838 0.0245725 0.521435
2951 1 0.607039 0.0282786 0.522158
2948 1 0.593314 0.0389597 0.524932
2890 1 0.623211 0.0331261 0.523565
3172 1 0.63866 0.028644 0.521196
3035 1 0.652905 0.0268139 0.522846
3032 1 0.665551 0.0280483 0.520198
2819 1 0.666753 0.0397471 0.523789
3110 1 0.654287 0.0393193 0.524767
2821 1 0.690763 0.0294664 0.522937
2983 1 0.678427 0.0372039 0.523383
3039 1 0.716288 0.0259123 0.522335
5552 1 0.702171 0.0301033 0.522752
2855 1 0.730733 0.0277385 0.52467
3114 1 0.751716 0.0244206 0.5248
2829 1 0.691845 0.0440381 0.523384
2816 1 0.708992 0.0446834 0.524962
3897 1 0.932142 0.368391 0.524325
3828 1 0.917738 0.366178 0.524351
3697 1 0.955506 0.36543 0.523562
3765 1 0.999044 0.367995 0.52282
979 1 0.512703 0.390305 0.522866
1185 1 0.526218 0.390213 0.523358
3690 1 0.895183 0.38727 0.520883
3754 1 0.909664 0.390605 0.519213
3692 1 0.90659 0.376263 0.523005
3698 1 0.922842 0.380406 0.51966
3976 1 0.94339 0.372454 0.520249
3834 1 0.937915 0.388122 0.517067
3974 1 0.957237 0.38329 0.518052
3835 1 0.969331 0.372777 0.521718
3558 1 0.969287 0.390622 0.515542
3560 1 0.977581 0.381881 0.519062
4127 1 0.997621 0.389434 0.512773
4125 1 0.991516 0.380039 0.519663
3978 1 0.983104 0.390497 0.514313
1250 1 0.519194 0.408692 0.514116
1254 1 0.509611 0.399593 0.516104
1320 1 0.525101 0.400744 0.519622
1187 1 0.541037 0.397584 0.52274
906 1 0.54232 0.409024 0.519564
1186 1 0.533938 0.412809 0.514232
1105 1 0.555644 0.406459 0.522444
1246 1 0.574349 0.410554 0.522151
3575 1 0.567107 0.401831 0.524003
3818 1 0.76635 0.411188 0.523222
3891 1 0.778902 0.409106 0.522258
3806 1 0.794125 0.404224 0.520835
4030 1 0.807607 0.405307 0.520859
3960 1 0.822764 0.403767 0.521103
4103 1 0.83411 0.412421 0.515283
3759 1 0.836455 0.399661 0.523182
3816 1 0.849972 0.407501 0.518736
3630 1 0.85294 0.396525 0.52381
3755 1 0.863712 0.407914 0.520154
3839 1 0.882624 0.391663 0.522759
3774 1 0.88059 0.406797 0.520167
3761 1 0.906028 0.403775 0.5136
3749 1 0.891494 0.402214 0.517281
3767 1 0.922237 0.394333 0.51548
4255 1 0.936047 0.39895 0.512829
4113 1 0.952798 0.394706 0.515301
3999 1 0.56099 0.415678 0.517085
1118 1 0.549067 0.423707 0.513033
3860 1 0.586888 0.417934 0.521093
3927 1 0.574579 0.422616 0.515409
3854 1 0.59049 0.428415 0.516417
980 1 0.600422 0.425269 0.520866
4141 1 0.616653 0.426912 0.524072
3783 1 0.611178 0.433495 0.517901
3880 1 0.645195 0.432322 0.522479
4090 1 0.711043 0.43394 0.518045
3726 1 0.6975 0.433237 0.517555
3799 1 0.695662 0.427528 0.524805
3963 1 0.724162 0.42077 0.52354
3801 1 0.724419 0.431077 0.517826
3813 1 0.73713 0.428793 0.518103
3787 1 0.741457 0.416059 0.521807
3804 1 0.754179 0.413048 0.521533
3941 1 0.754015 0.424175 0.518356
4026 1 0.774533 0.421098 0.516815
3679 1 0.789319 0.414022 0.517707
3887 1 0.787753 0.423849 0.513395
3966 1 0.802506 0.416185 0.513045
3829 1 0.816818 0.413381 0.515326
3689 1 0.857973 0.416846 0.513735
4045 1 0.871788 0.414821 0.515112
1256 1 0.597597 0.437868 0.514191
1117 1 0.625583 0.444677 0.513842
3928 1 0.628066 0.435291 0.519952
4075 1 0.640084 0.443675 0.516317
3873 1 0.655674 0.441842 0.519298
3717 1 0.67072 0.446869 0.517877
3808 1 0.684758 0.435914 0.51979
3812 1 0.698229 0.443872 0.512548
3871 1 0.743655 0.442456 0.513444
490 1 0.517185 0.0105791 0.5257
5538 1 0.503706 0.0133765 0.529129
2925 1 0.793148 0.015254 0.526859
5453 1 0.808276 0.0120133 0.528806
5580 1 0.819406 0.0092166 0.529107
2931 1 0.824789 0.0154097 0.53469
2849 1 0.80933 0.021469 0.533677
2853 1 0.833792 0.00414184 0.527935
145 1 0.841401 0.0133475 0.532313
5599 1 0.844262 0.00114808 0.52505
2985 1 0.85521 0.0113127 0.530478
5458 1 0.869218 0.00911642 0.533325
72 1 0.882546 0.00196022 0.531082
2867 1 0.884584 0.0140614 0.536103
5600 1 0.894052 0.0075756 0.532534
74 1 0.91494 0.0069658 0.535574
75 1 0.927891 0.011 0.537016
2594 1 0.938507 0.00158454 0.534065
2797 1 0.512844 0.0228227 0.531595
489 1 0.50991 0.0316596 0.536816
2871 1 0.538387 0.0217808 0.525834
70 1 0.52567 0.0228614 0.528167
3027 1 0.52274 0.0329823 0.534257
349 1 0.535454 0.0321145 0.531227
2795 1 0.550671 0.0243069 0.525545
3028 1 0.54762 0.035117 0.52965
2808 1 0.564275 0.0313994 0.527231
2878 1 0.563797 0.0420193 0.531214
3017 1 0.578312 0.0345387 0.527336
2894 1 0.638003 0.0420454 0.526889
3189 1 0.721144 0.0378357 0.525587
3049 1 0.758265 0.0385324 0.528807
3183 1 0.740827 0.0349611 0.525618
3048 1 0.767023 0.0264122 0.526062
5508 1 0.780716 0.0264383 0.530167
2991 1 0.770994 0.0393184 0.532425
2848 1 0.784932 0.0391101 0.535357
5588 1 0.794002 0.0252999 0.532701
2913 1 0.802622 0.0337151 0.536971
2842 1 0.853484 0.022397 0.537239
5530 1 0.866146 0.0218279 0.536966
2658 1 0.535073 0.0451823 0.5343
615 1 0.549214 0.0502869 0.534641
205 1 0.57827 0.0441931 0.533416
3022 1 0.566376 0.0540936 0.536951
3034 1 0.60751 0.044767 0.527743
3154 1 0.59167 0.0512009 0.531955
2882 1 0.603699 0.056293 0.532797
2880 1 0.622823 0.0464776 0.527585
2953 1 0.621934 0.0568648 0.531466
2970 1 0.635634 0.0567041 0.530162
3021 1 0.64931 0.0530657 0.528141
2974 1 0.654538 0.0634078 0.532123
3046 1 0.665609 0.0536945 0.528783
3043 1 0.671094 0.0638931 0.532911
2967 1 0.677981 0.0492273 0.526754
2898 1 0.68601 0.0585809 0.530921
2976 1 0.697588 0.0522463 0.528675
2966 1 0.708105 0.0586931 0.53029
2833 1 0.731475 0.0449429 0.527319
3045 1 0.719038 0.0532538 0.528812
3116 1 0.734947 0.0566092 0.530814
3040 1 0.723721 0.0637744 0.534237
3256 1 0.746433 0.0463497 0.529297
2832 1 0.759565 0.0506074 0.532453
3258 1 0.747234 0.0584677 0.534386
2904 1 0.763643 0.0585335 0.537303
5576 1 0.774222 0.0510037 0.535811
3015 1 0.594393 0.0657901 0.536321
3089 1 0.628426 0.0699142 0.535855
204 1 0.611595 0.0671168 0.536212
3093 1 0.642476 0.0661375 0.534301
3185 1 0.670155 0.0758818 0.537282
3184 1 0.693681 0.068564 0.532459
3180 1 0.682678 0.0684355 0.534677
3319 1 0.710929 0.0734793 0.533889
3333 1 0.73555 0.0693298 0.53596
3703 1 0.954724 0.315741 0.537352
3561 1 0.968393 0.32577 0.535308
3832 1 0.904636 0.343 0.534587
3827 1 0.918049 0.341383 0.533693
3415 1 0.930481 0.341421 0.532523
3494 1 0.927414 0.32781 0.536879
3557 1 0.944438 0.342503 0.529967
3564 1 0.944519 0.326324 0.533681
3629 1 0.97193 0.343572 0.529608
3779 1 0.958443 0.334405 0.532167
3769 1 0.983231 0.333812 0.535738
3843 1 0.992997 0.344103 0.533108
4121 1 0.997661 0.33218 0.536654
1327 1 0.510506 0.363361 0.533622
3577 1 0.521612 0.360698 0.536406
3903 1 0.883567 0.358836 0.536028
3608 1 0.879496 0.369382 0.528281
3770 1 0.893053 0.365497 0.530566
3549 1 0.906397 0.364213 0.52857
3699 1 0.897609 0.35454 0.535064
3695 1 0.911712 0.352187 0.529903
3708 1 0.926415 0.354681 0.529004
3628 1 0.942756 0.355135 0.526367
3771 1 0.959122 0.349798 0.528084
3421 1 0.971308 0.36051 0.526666
3845 1 0.998074 0.35411 0.528459
3622 1 0.985172 0.356731 0.5303
1116 1 0.509796 0.378066 0.528938
978 1 0.523789 0.380577 0.528404
1182 1 0.531003 0.374254 0.534335
1257 1 0.540547 0.384775 0.528319
3862 1 0.544367 0.371958 0.534995
3861 1 0.552196 0.383576 0.532217
4000 1 0.564713 0.389612 0.530508
3859 1 0.559551 0.378096 0.535748
972 1 0.573069 0.381556 0.535404
3997 1 0.585671 0.381694 0.534731
3753 1 0.762982 0.381577 0.537187
4163 1 0.76785 0.390515 0.532626
3673 1 0.800156 0.385235 0.532703
3666 1 0.782919 0.389747 0.531993
3865 1 0.789719 0.379746 0.536914
3902 1 0.825829 0.381903 0.534401
3757 1 0.813803 0.386432 0.531672
3748 1 0.814439 0.37858 0.537317
4028 1 0.837502 0.380181 0.535141
3758 1 0.846429 0.38773 0.530223
3540 1 0.829826 0.391027 0.528176
3825 1 0.869255 0.370805 0.533415
3672 1 0.851803 0.374421 0.535541
3615 1 0.861258 0.384134 0.529738
3831 1 0.878521 0.380769 0.526945
4031 1 0.895057 0.376235 0.525692
3842 1 0.983723 0.36967 0.52518
1115 1 0.552872 0.392033 0.526655
1326 1 0.586696 0.405064 0.526209
3802 1 0.577301 0.394518 0.528779
3924 1 0.588986 0.394626 0.531563
3853 1 0.598137 0.404404 0.530465
3864 1 0.603121 0.393212 0.536954
4069 1 0.613562 0.4064 0.533305
3926 1 0.629276 0.406795 0.536378
4019 1 0.642922 0.402352 0.536582
3720 1 0.667136 0.399824 0.537131
3858 1 0.654685 0.410524 0.534179
3729 1 0.695238 0.405039 0.535269
3857 1 0.675478 0.405693 0.532378
3791 1 0.705504 0.410265 0.535261
3790 1 0.733283 0.40961 0.527587
3947 1 0.728473 0.400756 0.53347
3735 1 0.738473 0.395044 0.535887
3931 1 0.717407 0.411929 0.531426
3810 1 0.760323 0.400518 0.528452
3675 1 0.752728 0.393437 0.534858
3869 1 0.749232 0.406288 0.528872
3890 1 0.773025 0.39855 0.526227
3876 1 0.789537 0.395054 0.52539
3665 1 0.80224 0.39406 0.525852
3879 1 0.817129 0.394385 0.525871
3762 1 0.869445 0.394857 0.525645
909 1 0.595799 0.416539 0.526686
4005 1 0.607605 0.41656 0.528253
3867 1 0.625329 0.417016 0.529783
3949 1 0.632864 0.425351 0.526143
3878 1 0.64003 0.414396 0.530822
3953 1 0.651574 0.423397 0.528848
3874 1 0.665616 0.433338 0.525014
3855 1 0.666842 0.418969 0.530891
3798 1 0.686016 0.416519 0.532697
4018 1 0.680707 0.425215 0.526154
3939 1 0.713251 0.423778 0.525536
3713 1 0.700757 0.417646 0.52927
2750 1 0.900993 0.0159886 0.538082
2598 1 0.915616 0.0176265 0.541541
11 1 0.931949 0.0200757 0.542751
2665 1 0.95187 0.00217856 0.539012
2742 1 0.942257 0.0114185 0.540204
89 1 0.956236 0.0134094 0.545405
2538 1 0.94387 0.0201011 0.547773
2607 1 0.96614 0.00263229 0.54327
2741 1 0.98055 0.00298573 0.547533
3055 1 0.816017 0.0294705 0.539886
2923 1 0.831078 0.0333545 0.541649
2996 1 0.838053 0.0241016 0.538111
2993 1 0.846171 0.0333032 0.543043
2920 1 0.860394 0.0297121 0.543833
5584 1 0.85344 0.042528 0.547963
2926 1 0.875034 0.0234758 0.541695
2743 1 0.888962 0.0247616 0.544339
2 1 0.877321 0.0325863 0.547656
2669 1 0.903323 0.0278786 0.545536
2604 1 0.923822 0.0275387 0.548423
3011 1 0.511339 0.0450933 0.539342
552 1 0.510038 0.0572083 0.543184
2949 1 0.524621 0.0457273 0.539006
276 1 0.522943 0.0589901 0.542477
279 1 0.536408 0.0570421 0.538912
3019 1 0.551166 0.0623165 0.539306
2798 1 0.579611 0.057392 0.537576
2908 1 0.783309 0.0573446 0.540199
2851 1 0.795736 0.0482587 0.539736
2841 1 0.825241 0.0456077 0.54435
2921 1 0.812257 0.0449208 0.542528
3194 1 0.805835 0.0617453 0.544122
2850 1 0.823354 0.058686 0.545653
2930 1 0.839102 0.0461875 0.547587
2876 1 0.517707 0.071378 0.546065
275 1 0.504089 0.0714891 0.547932
206 1 0.512097 0.084572 0.548667
278 1 0.530235 0.0724729 0.544579
345 1 0.525478 0.0848298 0.548022
3151 1 0.539674 0.0861552 0.547129
3221 1 0.545546 0.0714362 0.543835
350 1 0.554925 0.0829105 0.545902
139 1 0.562836 0.0686028 0.542239
3037 1 0.577976 0.070562 0.54263
2944 1 0.569817 0.081694 0.545066
2950 1 0.587794 0.0856892 0.543024
3025 1 0.600206 0.0776271 0.539637
2961 1 0.613538 0.0802051 0.540474
3024 1 0.62932 0.0869016 0.541529
3012 1 0.642862 0.0775907 0.539604
3085 1 0.657484 0.0736099 0.538069
3117 1 0.666515 0.0868319 0.541577
3111 1 0.683615 0.0810397 0.538338
3023 1 0.69736 0.0805871 0.537687
3029 1 0.712077 0.0864386 0.541006
3255 1 0.723471 0.0784948 0.539074
2984 1 0.738393 0.0807013 0.539042
3191 1 0.747008 0.071714 0.539602
3118 1 0.753125 0.0807547 0.5441
2844 1 0.773801 0.0669659 0.540186
3120 1 0.761108 0.0695615 0.538527
3324 1 0.767576 0.0788751 0.544526
2918 1 0.780793 0.0743674 0.544181
3050 1 0.79071 0.065296 0.544819
3268 1 0.788494 0.0817365 0.549591
2916 1 0.801605 0.0764643 0.549101
480 1 0.534624 0.0991494 0.549912
3153 1 0.550509 0.0998148 0.54826
3224 1 0.564678 0.0983374 0.548457
688 1 0.578524 0.0946257 0.547424
3101 1 0.601504 0.0904388 0.544997
3083 1 0.592199 0.100783 0.548379
3173 1 0.610666 0.102589 0.547898
2954 1 0.615842 0.0916976 0.545362
3168 1 0.627794 0.0970899 0.545062
3157 1 0.624464 0.107391 0.548954
2881 1 0.641178 0.10007 0.544603
3105 1 0.651508 0.0895078 0.540925
3033 1 0.660971 0.0995263 0.545477
3169 1 0.674487 0.101937 0.544898
3175 1 0.68119 0.0909944 0.541817
3251 1 0.688046 0.102772 0.545746
3257 1 0.69866 0.0937848 0.542174
3395 1 0.71429 0.0952932 0.545833
3178 1 0.703864 0.103471 0.546755
2831 1 0.726207 0.0916352 0.543902
3192 1 0.718483 0.106278 0.548788
3253 1 0.734073 0.102283 0.549816
3122 1 0.743644 0.0920814 0.546709
3119 1 0.758423 0.0912725 0.547995
3095 1 0.542064 0.115357 0.548145
3082 1 0.55746 0.115102 0.549401
346 1 0.57377 0.109283 0.549744
3016 1 0.603102 0.112396 0.549005
3174 1 0.636897 0.110971 0.549239
3186 1 0.651003 0.111633 0.548342
3020 1 0.66528 0.11517 0.546761
2972 1 0.679678 0.114767 0.548128
3284 1 0.999392 0.281073 0.549862
3635 1 0.927222 0.300189 0.544417
3706 1 0.935683 0.28646 0.548986
706 1 0.953326 0.289457 0.547651
3701 1 0.940339 0.298799 0.545113
3624 1 0.953605 0.304148 0.54298
3634 1 0.964896 0.298187 0.545863
3702 1 0.968551 0.284925 0.548606
777 1 0.977261 0.29659 0.545038
3570 1 0.98178 0.282959 0.54925
3566 1 0.990426 0.293125 0.545834
3649 1 0.508917 0.312609 0.549484
3502 1 0.53364 0.322219 0.549811
3627 1 0.854123 0.325701 0.549243
3487 1 0.900683 0.310994 0.548019
3413 1 0.893745 0.324754 0.545775
3625 1 0.907812 0.322155 0.543986
3491 1 0.913059 0.305283 0.546152
3492 1 0.921838 0.315612 0.541494
3639 1 0.938707 0.313478 0.539766
3775 1 0.968939 0.309898 0.541818
1193 1 0.98813 0.310359 0.54252
3700 1 0.981664 0.320456 0.539025
3648 1 0.517706 0.340918 0.545103
838 1 0.505086 0.343577 0.544359
3722 1 0.51352 0.327512 0.547113
3433 1 0.528147 0.331677 0.547566
3294 1 0.554005 0.345588 0.547007
3870 1 0.567642 0.34545 0.548781
3734 1 0.801866 0.347603 0.548817
3693 1 0.837273 0.341815 0.547993
3598 1 0.850478 0.341006 0.548268
3526 1 0.864773 0.33555 0.546879
3554 1 0.856907 0.347747 0.543098
3893 1 0.873008 0.346829 0.543191
3826 1 0.881772 0.332146 0.544647
3763 1 0.888602 0.34475 0.54002
3681 1 0.898448 0.334801 0.541231
3484 1 0.914503 0.331347 0.53984
3792 1 0.509858 0.354655 0.539758
3432 1 0.53702 0.347963 0.547905
3642 1 0.526555 0.353859 0.542223
3784 1 0.536653 0.36174 0.539162
1045 1 0.550997 0.36348 0.539596
3712 1 0.545003 0.354368 0.543005
1119 1 0.562196 0.357053 0.544482
3511 1 0.575544 0.361259 0.545085
3650 1 0.582505 0.352173 0.5487
3512 1 0.568281 0.368662 0.540027
3711 1 0.590064 0.36696 0.545384
3595 1 0.663281 0.368797 0.54885
3597 1 0.676669 0.36391 0.549524
3664 1 0.724113 0.356199 0.548996
3961 1 0.74216 0.357787 0.545435
3677 1 0.759993 0.361299 0.545079
3682 1 0.743658 0.368183 0.54268
4101 1 0.75233 0.349366 0.547523
3613 1 0.778257 0.356973 0.545639
3456 1 0.77187 0.36893 0.542326
3752 1 0.769453 0.349007 0.54782
3680 1 0.791333 0.35759 0.548229
3899 1 0.804001 0.363184 0.54619
3691 1 0.816588 0.366482 0.544619
3892 1 0.82893 0.358608 0.545692
3684 1 0.841258 0.354156 0.543717
3820 1 0.858043 0.361893 0.539521
3621 1 0.870607 0.356941 0.538971
3644 1 0.582723 0.37241 0.540282
3444 1 0.604286 0.372459 0.545736
3587 1 0.596386 0.38058 0.538706
3856 1 0.609754 0.385262 0.541498
3933 1 0.619799 0.373066 0.548048
3653 1 0.620916 0.385562 0.544511
3714 1 0.632361 0.377918 0.545556
3866 1 0.643981 0.387097 0.542392
3661 1 0.649597 0.374627 0.545548
3668 1 0.660989 0.382285 0.542985
3730 1 0.674369 0.379797 0.547982
3527 1 0.68962 0.373373 0.547281
3525 1 0.683475 0.389892 0.545829
3657 1 0.702216 0.370124 0.549521
3741 1 0.715017 0.369745 0.547325
3807 1 0.700765 0.382949 0.545194
3732 1 0.714006 0.382322 0.544253
3669 1 0.72885 0.370893 0.545137
3817 1 0.73293 0.382606 0.540492
3725 1 0.723709 0.38896 0.539511
3739 1 0.747058 0.383506 0.539219
3811 1 0.755635 0.374974 0.541773
3796 1 0.777576 0.380621 0.53791
3742 1 0.789012 0.369784 0.542138
3683 1 0.804091 0.373879 0.540529
3601 1 0.841429 0.370338 0.539684
3824 1 0.82839 0.370011 0.540659
3719 1 0.619807 0.397029 0.538586
3786 1 0.63366 0.392025 0.54132
3593 1 0.672086 0.392631 0.542059
3800 1 0.654838 0.394868 0.539477
3877 1 0.681889 0.402441 0.539106
3789 1 0.69304 0.396908 0.542517
3795 1 0.705879 0.396992 0.541479
3962 1 0.717756 0.399382 0.537947
7 1 0.970026 0.0156904 0.550116
2668 1 0.983798 0.00971023 0.55569
2383 1 0.99518 0.00871316 0.557568
2682 1 0.991193 0.0210293 0.561416
5589 1 0.866557 0.0378677 0.551008
142 1 0.891559 0.0370644 0.550465
84 1 0.909211 0.0347051 0.551457
73 1 0.924742 0.0429307 0.553597
77 1 0.935183 0.0298695 0.550774
13 1 0.948667 0.0317702 0.554273
2757 1 0.93711 0.04309 0.556215
6 1 0.958994 0.0239082 0.55209
2749 1 0.975449 0.0224779 0.557381
2737 1 0.964435 0.0317609 0.557915
86 1 0.980348 0.0331117 0.561984
3002 1 0.846351 0.0571904 0.551329
3193 1 0.832848 0.0621099 0.551663
2847 1 0.859913 0.0532702 0.554714
2843 1 0.854418 0.0642568 0.558319
2859 1 0.868218 0.0618649 0.558825
3056 1 0.877301 0.0478452 0.554894
3063 1 0.883184 0.062166 0.559465
2924 1 0.891082 0.0535557 0.557617
5592 1 0.9007 0.0452035 0.553934
76 1 0.901511 0.0600556 0.560155
2870 1 0.911337 0.0490521 0.55785
8 1 0.92915 0.0571413 0.560428
141 1 0.915131 0.0597201 0.56191
2675 1 0.952406 0.0437231 0.560097
2606 1 0.940862 0.0535296 0.562072
2674 1 0.968764 0.0435905 0.562333
3053 1 0.818643 0.0719029 0.550646
3054 1 0.813951 0.0840712 0.551451
3129 1 0.831261 0.0744175 0.553837
2936 1 0.842221 0.0696396 0.557342
3124 1 0.840097 0.0836926 0.55914
2862 1 0.863179 0.0732834 0.562195
3057 1 0.853241 0.0800669 0.561999
211 1 0.893291 0.0715589 0.561757
3156 1 0.509344 0.100367 0.552531
488 1 0.52224 0.0978861 0.55108
3104 1 0.751954 0.103565 0.550466
3200 1 0.77461 0.0893268 0.551137
3259 1 0.767025 0.10438 0.551772
2987 1 0.786266 0.0968199 0.553308
3254 1 0.797491 0.0899554 0.552094
3121 1 0.800023 0.106456 0.557494
2914 1 0.824642 0.0872768 0.556435
3052 1 0.809157 0.0963518 0.555653
3267 1 0.821119 0.0992487 0.559129
3058 1 0.835086 0.0984781 0.562019
2947 1 0.512502 0.114471 0.551361
555 1 0.506054 0.127356 0.553652
689 1 0.521626 0.127146 0.551713
3158 1 0.526787 0.112639 0.551858
3159 1 0.536475 0.129223 0.551489
3030 1 0.552884 0.127295 0.552831
3241 1 0.570258 0.12267 0.551013
3100 1 0.586903 0.111969 0.550662
3091 1 0.583934 0.12513 0.551286
3179 1 0.597147 0.125576 0.55157
3167 1 0.612279 0.129157 0.552924
3088 1 0.616258 0.118814 0.550141
3250 1 0.626977 0.124745 0.552085
3014 1 0.642761 0.125526 0.552954
3044 1 0.655652 0.124802 0.550543
3042 1 0.685618 0.124154 0.553493
3182 1 0.695847 0.114574 0.551243
3261 1 0.711754 0.114665 0.551137
3113 1 0.703518 0.124345 0.55481
3403 1 0.717777 0.128456 0.554856
3463 1 0.728366 0.118471 0.553162
3399 1 0.734532 0.126001 0.557097
3321 1 0.758489 0.115681 0.554578
3391 1 0.741338 0.112137 0.553639
3461 1 0.747934 0.12692 0.558254
3190 1 0.779284 0.109132 0.552924
3195 1 0.773169 0.120797 0.555752
3341 1 0.788075 0.119731 0.556577
3266 1 0.814681 0.110528 0.561398
3265 1 0.80482 0.11904 0.559649
474 1 0.506149 0.142168 0.55417
487 1 0.521053 0.140918 0.554612
550 1 0.533372 0.144249 0.554441
559 1 0.546484 0.141953 0.553931
3094 1 0.559694 0.14527 0.553472
3102 1 0.567329 0.133465 0.552449
3084 1 0.57849 0.139588 0.553995
3165 1 0.592914 0.139574 0.553996
3237 1 0.608657 0.141928 0.555911
3107 1 0.62327 0.138867 0.555141
3171 1 0.636837 0.139088 0.555107
3260 1 0.6667 0.130721 0.55199
3181 1 0.653478 0.140606 0.553014
3187 1 0.669613 0.145864 0.55493
3038 1 0.682087 0.137925 0.555784
3238 1 0.695536 0.136194 0.557191
3465 1 0.685812 0.149091 0.55723
3106 1 0.708329 0.140508 0.558304
3248 1 0.697263 0.151256 0.558898
3264 1 0.726223 0.140316 0.558002
3402 1 0.738772 0.141046 0.560426
3269 1 0.761497 0.130958 0.559118
3243 1 0.781095 0.131516 0.558167
3318 1 0.769969 0.141361 0.560755
3323 1 0.800117 0.130757 0.561931
3392 1 0.791541 0.142109 0.562238
541 1 0.508891 0.155754 0.554798
685 1 0.516648 0.168872 0.554437
617 1 0.525173 0.156834 0.553678
684 1 0.540993 0.154072 0.554402
625 1 0.53333 0.170177 0.554676
554 1 0.550137 0.169964 0.555743
695 1 0.554663 0.156822 0.55383
3291 1 0.562203 0.171973 0.556857
3160 1 0.571775 0.15754 0.555568
3081 1 0.585966 0.15469 0.555875
620 1 0.574736 0.171194 0.555521
3098 1 0.589678 0.169607 0.555839
3176 1 0.601061 0.153646 0.556223
3322 1 0.604547 0.167608 0.557861
3026 1 0.627025 0.152282 0.557017
3244 1 0.614287 0.156717 0.556656
3163 1 0.616084 0.172825 0.559212
3108 1 0.626807 0.165312 0.557638
3103 1 0.642913 0.153228 0.55573
3170 1 0.638948 0.169072 0.558103
3112 1 0.660139 0.155884 0.555995
3383 1 0.66576 0.170275 0.560357
3245 1 0.676566 0.160334 0.558005
3331 1 0.693162 0.164011 0.560535
3393 1 0.714342 0.153756 0.559759
3314 1 0.707529 0.163852 0.561657
3385 1 0.727742 0.152402 0.562398
692 1 0.505648 0.179246 0.555112
614 1 0.518271 0.183397 0.55595
759 1 0.505386 0.193699 0.555776
691 1 0.531423 0.188648 0.55599
476 1 0.544947 0.182802 0.555823
3293 1 0.557748 0.188294 0.557861
3018 1 0.568908 0.187774 0.558068
3240 1 0.579967 0.181951 0.557537
3242 1 0.58449 0.192409 0.560313
3087 1 0.594449 0.182601 0.559004
3246 1 0.60694 0.183052 0.559292
3164 1 0.627405 0.180421 0.560177
3309 1 0.614241 0.194519 0.560627
3303 1 0.627686 0.195369 0.561974
3378 1 0.651458 0.174019 0.559379
3316 1 0.642949 0.183358 0.562094
3379 1 0.673411 0.183589 0.562169
3448 1 0.683976 0.175237 0.561442
3369 1 0.519848 0.197039 0.556124
556 1 0.509962 0.2085 0.554315
622 1 0.524417 0.208361 0.555584
3371 1 0.535877 0.20268 0.558571
560 1 0.537728 0.217331 0.556436
3234 1 0.546858 0.198407 0.5561
700 1 0.549529 0.21427 0.557689
557 1 0.56109 0.203766 0.559023
3231 1 0.567056 0.214917 0.560587
3166 1 0.575326 0.203264 0.559583
3227 1 0.590994 0.208345 0.560677
3096 1 0.60055 0.198628 0.560988
3372 1 0.608367 0.207742 0.562389
3308 1 0.623304 0.208854 0.561835
3296 1 0.518565 0.218891 0.555529
748 1 0.502259 0.221468 0.556094
839 1 0.513718 0.231133 0.557197
840 1 0.53118 0.228279 0.556469
3225 1 0.558896 0.227851 0.559956
3161 1 0.546441 0.230914 0.559038
3230 1 0.573167 0.225954 0.56155
3090 1 0.582361 0.218739 0.561778
3233 1 0.578378 0.237512 0.561648
3155 1 0.592375 0.228759 0.562216
3370 1 0.611605 0.224686 0.562426
3305 1 0.692899 0.230248 0.56246
3388 1 0.706744 0.232987 0.562339
702 1 0.929466 0.236358 0.560125
3202 1 0.943921 0.236396 0.561132
3496 1 0.961112 0.238601 0.560949
901 1 0.508302 0.246178 0.555893
903 1 0.520948 0.257763 0.555225
686 1 0.520728 0.241262 0.555792
831 1 0.504894 0.260826 0.554469
768 1 0.533267 0.253162 0.556192
3222 1 0.53785 0.240931 0.556749
3226 1 0.561843 0.239881 0.559671
904 1 0.54935 0.243348 0.558499
3366 1 0.562411 0.255487 0.558551
697 1 0.54754 0.260078 0.557076
3301 1 0.575115 0.250809 0.560464
3373 1 0.588611 0.253699 0.560208
3367 1 0.591121 0.241978 0.561188
3299 1 0.6021 0.254938 0.560955
3529 1 0.729856 0.248012 0.562345
3417 1 0.865559 0.257508 0.561959
3547 1 0.878916 0.257522 0.560102
3475 1 0.874813 0.24385 0.562265
3568 1 0.891584 0.254096 0.558635
3273 1 0.901612 0.240937 0.560301
3563 1 0.907164 0.253429 0.558098
3495 1 0.915559 0.239189 0.559694
3640 1 0.92167 0.249731 0.556881
3569 1 0.935761 0.251081 0.55848
3636 1 0.948127 0.249411 0.557829
3498 1 0.962823 0.252898 0.556122
3205 1 0.976188 0.247836 0.558364
3288 1 0.991055 0.241851 0.560542
3354 1 0.988744 0.254508 0.557277
976 1 0.516516 0.273931 0.553993
3506 1 0.531589 0.264257 0.555431
974 1 0.536253 0.277606 0.55656
618 1 0.55283 0.271069 0.557831
3304 1 0.578627 0.263388 0.558542
628 1 0.567062 0.271472 0.557502
629 1 0.581833 0.279741 0.559353
3302 1 0.592847 0.267101 0.559957
3503 1 0.599406 0.280936 0.559479
3375 1 0.607588 0.265752 0.559699
3445 1 0.621882 0.264901 0.561765
3361 1 0.616818 0.280428 0.559531
699 1 0.632449 0.279103 0.562119
3452 1 0.701421 0.276299 0.562478
3535 1 0.758022 0.269836 0.562418
3271 1 0.86872 0.272903 0.559106
3486 1 0.88244 0.273274 0.557594
3637 1 0.899275 0.269218 0.556128
3840 1 0.90817 0.281065 0.553559
3420 1 0.917017 0.265697 0.554175
3499 1 0.924067 0.280736 0.55275
3489 1 0.932112 0.26248 0.554085
775 1 0.939496 0.274229 0.552136
3917 1 0.953284 0.275447 0.551399
3500 1 0.95001 0.263367 0.554321
3356 1 0.977836 0.261877 0.556596
771 1 0.968287 0.272159 0.552768
288 1 0.99856 0.266537 0.555689
3209 1 0.985495 0.270615 0.552755
907 1 0.512303 0.297728 0.551611
836 1 0.509818 0.282795 0.551836
1095 1 0.524811 0.287201 0.552312
3434 1 0.537041 0.296095 0.554461
3295 1 0.563724 0.284268 0.557626
623 1 0.548607 0.287477 0.556196
624 1 0.56066 0.297327 0.555738
3297 1 0.57604 0.294287 0.559378
558 1 0.592166 0.292739 0.561359
3228 1 0.607986 0.295086 0.560758
3437 1 0.621994 0.293055 0.561695
3513 1 0.637555 0.292963 0.559337
3443 1 0.652209 0.295013 0.561298
3652 1 0.667285 0.298302 0.562408
3723 1 0.679141 0.29419 0.562188
3312 1 0.68954 0.303978 0.560621
3446 1 0.701899 0.298111 0.559865
3610 1 0.731893 0.297159 0.560681
3538 1 0.756034 0.283563 0.561263
3519 1 0.739172 0.283243 0.561782
3451 1 0.746185 0.298435 0.559831
3612 1 0.761431 0.297933 0.560232
3678 1 0.77189 0.284045 0.561791
3542 1 0.77405 0.299035 0.559984
3614 1 0.786628 0.290817 0.561313
3611 1 0.799442 0.29523 0.561048
3548 1 0.814863 0.28941 0.56185
3544 1 0.811457 0.304073 0.558791
3623 1 0.822175 0.303644 0.559019
3422 1 0.842136 0.283808 0.562335
3619 1 0.846848 0.297074 0.560275
3694 1 0.829714 0.294264 0.562127
3620 1 0.862458 0.289063 0.559649
3552 1 0.863023 0.30223 0.557448
3567 1 0.877224 0.291085 0.557214
3350 1 0.890054 0.297559 0.553369
3424 1 0.904311 0.294583 0.551417
421 1 0.892161 0.283765 0.55508
3426 1 0.918332 0.291813 0.550011
1047 1 0.520711 0.317497 0.55025
905 1 0.524147 0.304544 0.553268
3436 1 0.536314 0.310407 0.552729
765 1 0.549672 0.305 0.554051
3300 1 0.546277 0.31909 0.552719
770 1 0.562127 0.312928 0.553742
3362 1 0.572548 0.322844 0.555256
3363 1 0.576195 0.307654 0.556173
1107 1 0.588634 0.306645 0.559412
3501 1 0.588804 0.319524 0.557035
3583 1 0.602303 0.306313 0.561699
3232 1 0.6002 0.319487 0.557512
3431 1 0.615178 0.311131 0.56069
3510 1 0.613062 0.323256 0.559151
3509 1 0.63055 0.321708 0.560019
3586 1 0.630646 0.307608 0.559615
3439 1 0.645595 0.307284 0.560042
3785 1 0.643028 0.323716 0.558191
3656 1 0.657511 0.311399 0.559885
3651 1 0.671313 0.321606 0.558582
3528 1 0.67483 0.309977 0.558583
3524 1 0.686362 0.320785 0.55758
3521 1 0.699313 0.31348 0.557148
3721 1 0.713049 0.312026 0.55964
3596 1 0.726404 0.311529 0.559107
3520 1 0.73484 0.324585 0.556324
3663 1 0.740429 0.312526 0.558403
3522 1 0.755951 0.309947 0.55729
3606 1 0.751326 0.323578 0.553938
3600 1 0.769268 0.309949 0.558576
3609 1 0.764094 0.323002 0.553677
3733 1 0.77975 0.320264 0.55557
3803 1 0.788373 0.307506 0.558639
3490 1 0.79646 0.32262 0.555246
3685 1 0.802381 0.311398 0.557358
3478 1 0.820977 0.316667 0.556174
3745 1 0.809126 0.325258 0.554452
3550 1 0.833687 0.306772 0.558019
3618 1 0.837025 0.318931 0.552844
3833 1 0.849772 0.311717 0.555853
3688 1 0.862562 0.317388 0.554129
3546 1 0.870484 0.324443 0.550233
3766 1 0.874257 0.306099 0.554463
3276 1 0.883752 0.31568 0.550068
693 1 0.542963 0.333933 0.550314
837 1 0.554721 0.32949 0.552822
3788 1 0.567205 0.333968 0.552236
3365 1 0.582398 0.33055 0.555603
3584 1 0.584069 0.340796 0.552786
627 1 0.59716 0.345339 0.552609
3442 1 0.596841 0.333564 0.556709
630 1 0.622975 0.337222 0.557879
3573 1 0.61003 0.336364 0.557653
3738 1 0.638418 0.339601 0.558374
3576 1 0.659687 0.329918 0.556667
3797 1 0.667908 0.340714 0.555062
3438 1 0.653505 0.34366 0.554695
3441 1 0.679757 0.333107 0.556959
3590 1 0.690373 0.345455 0.553308
3660 1 0.694732 0.330504 0.556346
3794 1 0.707118 0.326213 0.555849
3805 1 0.707828 0.339928 0.553134
3667 1 0.720348 0.326095 0.556951
3731 1 0.72067 0.342343 0.552919
3607 1 0.732926 0.335381 0.552917
3687 1 0.746854 0.336204 0.551133
3895 1 0.759457 0.336244 0.550604
3602 1 0.77717 0.334962 0.551953
3387 1 0.786885 0.344558 0.550298
3617 1 0.797012 0.334277 0.553198
3676 1 0.813571 0.338134 0.552391
3479 1 0.825608 0.330969 0.552448
3743 1 0.826552 0.346351 0.551492
3686 1 0.841364 0.332024 0.552128
3654 1 0.596444 0.358436 0.550211
3728 1 0.622718 0.351179 0.556331
3863 1 0.609648 0.361742 0.550069
3655 1 0.609428 0.348798 0.555236
3793 1 0.626224 0.362826 0.550941
3578 1 0.639631 0.353519 0.554369
3382 1 0.653431 0.360248 0.551662
3736 1 0.666762 0.354464 0.55218
3658 1 0.69054 0.359092 0.552176
3591 1 0.679926 0.349039 0.55301
3594 1 0.707864 0.354367 0.550783
3530 1 0.73415 0.348352 0.550117
3746 1 0.812404 0.353971 0.550366
3724 1 0.63879 0.370102 0.551783
169 1 0.991854 0.0363724 0.563977
217 1 0.955994 0.0551375 0.564419
153 1 0.972225 0.0589559 0.564901
159 1 0.998544 0.0456114 0.565927
12 1 0.982469 0.0480135 0.563783
2746 1 0.986247 0.0584866 0.566112
2852 1 0.869068 0.0863772 0.563101
3000 1 0.877315 0.0716033 0.563097
2927 1 0.883584 0.0844588 0.562667
71 1 0.909891 0.0745192 0.564736
2731 1 0.899277 0.0845423 0.56312
2863 1 0.921621 0.071833 0.563507
2938 1 0.927116 0.0835426 0.565767
219 1 0.934088 0.0678052 0.563695
3073 1 0.947377 0.0698408 0.566519
150 1 0.940926 0.0824814 0.568443
3066 1 0.957996 0.084701 0.568398
2861 1 0.962171 0.0675516 0.567476
3074 1 0.970818 0.0813125 0.569677
3080 1 0.97704 0.0696561 0.568503
151 1 0.995058 0.0728388 0.568822
3009 1 0.986159 0.0825587 0.571791
2997 1 0.846358 0.108532 0.565423
2988 1 0.846945 0.0938728 0.563664
2865 1 0.859272 0.0922175 0.564298
2919 1 0.85973 0.10658 0.565652
2935 1 0.887663 0.0970313 0.565197
2995 1 0.875567 0.0994724 0.564519
2933 1 0.90088 0.0983726 0.566343
2856 1 0.913597 0.0902792 0.565658
2734 1 0.917584 0.100906 0.567471
156 1 0.931568 0.0977558 0.5687
3143 1 0.941951 0.106447 0.570721
3005 1 0.94804 0.0950925 0.569218
223 1 0.959175 0.102253 0.570587
2866 1 0.973723 0.0963624 0.573088
221 1 0.990722 0.0968527 0.573615
3394 1 0.816178 0.125041 0.563637
3412 1 0.828747 0.112783 0.562991
3059 1 0.838101 0.119968 0.566551
3337 1 0.82894 0.13011 0.566119
2986 1 0.852818 0.122168 0.56842
2999 1 0.866978 0.130016 0.570582
2868 1 0.884409 0.110806 0.567326
2989 1 0.869942 0.114911 0.568554
2922 1 0.882579 0.121277 0.570032
3213 1 0.912335 0.110045 0.570034
2929 1 0.897836 0.111255 0.56885
2994 1 0.89517 0.126624 0.569075
3004 1 0.909304 0.127135 0.571725
2864 1 0.926134 0.112324 0.569702
3071 1 0.92471 0.124919 0.570446
2939 1 0.939404 0.12035 0.570206
3214 1 0.9535 0.119137 0.572368
3149 1 0.969864 0.113277 0.572521
3217 1 0.969841 0.128219 0.572243
3218 1 0.983016 0.124806 0.573693
3010 1 0.984338 0.110145 0.573372
3282 1 0.994146 0.119314 0.572989
3247 1 0.753309 0.14637 0.562964
3188 1 0.780222 0.149659 0.562512
3335 1 0.79913 0.150199 0.564863
3325 1 0.813632 0.140861 0.564966
3201 1 0.830341 0.145876 0.568296
3252 1 0.841577 0.13701 0.567565
2990 1 0.855325 0.136958 0.569024
3136 1 0.848179 0.148605 0.56798
3067 1 0.869771 0.144308 0.569507
3065 1 0.881627 0.132218 0.570294
2992 1 0.883563 0.148239 0.57037
3138 1 0.894645 0.138238 0.571445
3007 1 0.910111 0.140474 0.571037
2928 1 0.925415 0.139389 0.572021
3070 1 0.915619 0.151051 0.572865
363 1 0.954596 0.13243 0.572275
3072 1 0.940526 0.133245 0.571554
3351 1 0.946844 0.147285 0.572692
3076 1 0.96425 0.144595 0.572553
146 1 0.978801 0.141751 0.573517
3139 1 0.990035 0.135422 0.573041
3142 1 0.995601 0.146315 0.571413
3320 1 0.714607 0.173439 0.563878
3462 1 0.726153 0.165251 0.563978
3603 1 0.742187 0.170132 0.565507
3177 1 0.739513 0.156475 0.563603
3397 1 0.75659 0.16556 0.566798
3317 1 0.764503 0.152752 0.564789
3469 1 0.775093 0.161151 0.565551
3334 1 0.789326 0.15955 0.565512
3262 1 0.796231 0.170114 0.567707
3336 1 0.807635 0.159303 0.566798
3473 1 0.820176 0.154538 0.567416
3197 1 0.814602 0.170715 0.570084
3199 1 0.826674 0.166666 0.568239
3125 1 0.838071 0.158693 0.569983
3060 1 0.849455 0.166018 0.571601
3061 1 0.861641 0.1536 0.571123
3131 1 0.862762 0.16875 0.570613
3278 1 0.889126 0.164349 0.570154
3064 1 0.875357 0.160505 0.570202
3207 1 0.900091 0.153609 0.571659
3280 1 0.905987 0.165973 0.572055
3068 1 0.931625 0.154018 0.572427
3137 1 0.922654 0.166048 0.570431
3428 1 0.936837 0.169886 0.57105
3134 1 0.953931 0.16867 0.570838
3147 1 0.944864 0.160835 0.574436
3078 1 0.957999 0.156378 0.571507
9 1 0.973313 0.158694 0.571765
3211 1 0.967179 0.170469 0.569727
3210 1 0.994539 0.165901 0.568114
3279 1 0.988884 0.155903 0.571203
3345 1 0.980507 0.172159 0.569295
3514 1 0.659481 0.185897 0.563028
3384 1 0.68685 0.191091 0.562666
3381 1 0.70348 0.193896 0.565424
3239 1 0.701052 0.178921 0.563054
3531 1 0.714895 0.186734 0.564832
3464 1 0.728996 0.178791 0.564404
3307 1 0.726381 0.193258 0.565364
3466 1 0.751424 0.180116 0.566997
3470 1 0.73917 0.188105 0.565611
3401 1 0.759863 0.190952 0.566867
3326 1 0.766219 0.176228 0.566599
3330 1 0.781321 0.176855 0.568866
3332 1 0.776222 0.193573 0.568162
3329 1 0.791906 0.186844 0.568464
3126 1 0.808044 0.181075 0.568457
3196 1 0.82423 0.182094 0.569707
3277 1 0.819742 0.194572 0.569503
3474 1 0.804537 0.193981 0.568618
3062 1 0.838167 0.174267 0.570139
3342 1 0.837623 0.191094 0.570147
3001 1 0.849438 0.180833 0.571143
3127 1 0.863686 0.18648 0.571725
3135 1 0.877073 0.17532 0.570309
3414 1 0.881135 0.188235 0.571188
3423 1 0.894196 0.17607 0.57168
3275 1 0.908678 0.180237 0.570401
3274 1 0.897605 0.189032 0.569574
3203 1 0.916319 0.191113 0.568407
3343 1 0.927305 0.180733 0.568192
3198 1 0.931132 0.194234 0.568033
3427 1 0.941991 0.184123 0.569586
3425 1 0.95754 0.183542 0.569794
3146 1 0.973115 0.183814 0.569106
2940 1 0.994057 0.179649 0.567899
3075 1 0.98815 0.192928 0.564794
3298 1 0.634856 0.208153 0.565469
3518 1 0.64143 0.19667 0.563683
3398 1 0.650699 0.210707 0.565084
3435 1 0.656348 0.197556 0.564833
3310 1 0.671002 0.198251 0.563057
3368 1 0.667553 0.214345 0.565046
3306 1 0.679098 0.206212 0.563347
3236 1 0.690999 0.202289 0.563411
3390 1 0.705089 0.207912 0.563806
3396 1 0.716688 0.204773 0.565522
3389 1 0.736464 0.205063 0.565517
3455 1 0.74902 0.200884 0.565334
3460 1 0.742232 0.215735 0.566062
3386 1 0.765482 0.205552 0.565009
3400 1 0.781013 0.210596 0.567109
3327 1 0.789309 0.201157 0.568171
3532 1 0.801073 0.208418 0.567045
3406 1 0.814145 0.207859 0.569342
3405 1 0.826074 0.21594 0.569827
3132 1 0.83088 0.201796 0.569549
3133 1 0.846538 0.206684 0.568025
3339 1 0.852381 0.19703 0.571718
3272 1 0.861228 0.211308 0.568942
3347 1 0.869533 0.19994 0.570706
3346 1 0.885985 0.201474 0.569256
3430 1 0.889013 0.213488 0.566732
3130 1 0.874978 0.21349 0.567688
3705 1 0.905434 0.212743 0.566697
2998 1 0.902232 0.200781 0.568147
3488 1 0.917768 0.20459 0.568873
3208 1 0.933448 0.209981 0.566721
3349 1 0.917905 0.216661 0.566121
3348 1 0.949707 0.212877 0.566039
3358 1 0.946402 0.196999 0.567725
2932 1 0.963731 0.2125 0.567288
3281 1 0.975323 0.201095 0.565954
3141 1 0.96049 0.197161 0.568537
282 1 0.990642 0.207393 0.564089
3086 1 0.599145 0.218135 0.562851
3162 1 0.606571 0.238732 0.562645
3097 1 0.62634 0.22244 0.563103
3092 1 0.622605 0.234299 0.563773
3447 1 0.640232 0.22156 0.564836
3235 1 0.638682 0.235448 0.564915
3376 1 0.657442 0.22629 0.564569
3313 1 0.664599 0.236511 0.564557
3364 1 0.685377 0.219186 0.56391
3662 1 0.67424 0.226442 0.563335
3605 1 0.681752 0.23751 0.564399
3472 1 0.71282 0.220793 0.564118
3517 1 0.698289 0.217699 0.563808
3457 1 0.727753 0.218228 0.563964
3458 1 0.718695 0.235956 0.562852
3328 1 0.734566 0.232444 0.56292
3536 1 0.748878 0.230421 0.564014
3533 1 0.758576 0.218389 0.563798
3471 1 0.773097 0.220086 0.565939
3408 1 0.763612 0.23234 0.564188
3539 1 0.782764 0.231115 0.565995
3467 1 0.792261 0.22036 0.566576
3480 1 0.798046 0.232233 0.568149
3411 1 0.808623 0.224312 0.569093
3482 1 0.820438 0.227575 0.564636
3555 1 0.812952 0.238701 0.567414
3541 1 0.838957 0.22133 0.56853
3404 1 0.835973 0.233056 0.56765
3407 1 0.851715 0.23852 0.566925
3418 1 0.852277 0.223357 0.566536
3340 1 0.867917 0.229543 0.565594
3352 1 0.882723 0.226632 0.564512
3493 1 0.912319 0.228229 0.563181
3477 1 0.899668 0.225734 0.564104
3069 1 0.925544 0.226755 0.56417
3355 1 0.938922 0.222997 0.563991
3357 1 0.953134 0.228181 0.563116
705 1 0.969709 0.224919 0.565266
3497 1 0.977204 0.234258 0.563454
491 1 0.990681 0.226204 0.563714
3286 1 0.980275 0.217968 0.563973
626 1 0.616269 0.251157 0.562702
3292 1 0.629593 0.249718 0.562807
3505 1 0.651605 0.243057 0.565135
3374 1 0.641381 0.251241 0.564671
3727 1 0.659562 0.25324 0.565937
3588 1 0.672549 0.247841 0.564594
3449 1 0.684714 0.253864 0.56451
3543 1 0.695009 0.244701 0.563454
3589 1 0.709326 0.24939 0.563004
3380 1 0.697499 0.260116 0.564355
3604 1 0.738334 0.259694 0.562515
3410 1 0.745205 0.245142 0.563387
3545 1 0.757671 0.245719 0.56522
3551 1 0.751712 0.258547 0.564316
3476 1 0.775327 0.242271 0.566624
3747 1 0.764107 0.255782 0.566396
3338 1 0.77781 0.255477 0.565764
3485 1 0.789514 0.2444 0.565297
3263 1 0.803142 0.248904 0.566705
3344 1 0.815677 0.254089 0.567237
3468 1 0.82518 0.244566 0.568297
3128 1 0.83901 0.250482 0.566896
3270 1 0.861821 0.245362 0.564716
3537 1 0.849978 0.256906 0.564291
3638 1 0.889204 0.239402 0.562943
3515 1 0.6489 0.279141 0.563456
3440 1 0.636062 0.265137 0.562504
3377 1 0.64864 0.262519 0.56429
3315 1 0.67362 0.263722 0.565363
3453 1 0.660322 0.269786 0.564609
3534 1 0.686417 0.26977 0.56489
3582 1 0.674637 0.279312 0.565289
3585 1 0.714908 0.273943 0.56515
3450 1 0.719757 0.261597 0.564625
3581 1 0.72936 0.274641 0.564043
3523 1 0.745489 0.271147 0.563572
3592 1 0.773245 0.267425 0.564656
3556 1 0.801465 0.278969 0.563118
3483 1 0.786902 0.277518 0.563993
3459 1 0.787899 0.264112 0.565787
3204 1 0.802109 0.262756 0.565423
3416 1 0.813355 0.269803 0.563674
3481 1 0.828128 0.277579 0.563555
3553 1 0.841557 0.266837 0.566088
3409 1 0.829048 0.262359 0.565477
3419 1 0.854933 0.267864 0.562559
3659 1 0.660596 0.285917 0.563541
3311 1 0.689704 0.284346 0.563766
3516 1 0.709289 0.288614 0.56363
3454 1 0.71649 0.299475 0.563228
3599 1 0.722088 0.284993 0.563225
4522 1 0.827141 0.603686 0.412331
4743 1 0.810073 0.627366 0.411984
4742 1 0.856122 0.629904 0.412219
4677 1 0.880291 0.616256 0.412397
4817 1 0.891082 0.627806 0.411824
4294 1 0.792651 0.63305 0.412085
4526 1 0.802516 0.642777 0.411175
4673 1 0.813021 0.64638 0.411932
4593 1 0.825393 0.638865 0.412482
4957 1 0.82583 0.651936 0.40992
4674 1 0.842059 0.649611 0.410864
4886 1 0.839653 0.634198 0.411735
4679 1 0.855498 0.643374 0.411614
4752 1 0.870494 0.644024 0.410948
4301 1 0.882057 0.650274 0.411727
4602 1 0.898942 0.639534 0.411995
4446 1 0.753289 0.672988 0.411678
4523 1 0.770987 0.668624 0.411481
4363 1 0.778169 0.655247 0.41165
4881 1 0.784362 0.664411 0.411329
4732 1 0.797407 0.668779 0.411072
4451 1 0.794026 0.655273 0.41054
4657 1 0.810063 0.659119 0.411293
4606 1 0.819903 0.667481 0.408902
4741 1 0.835359 0.665911 0.408973
4667 1 0.864092 0.657476 0.410816
4664 1 0.852103 0.661926 0.411158
4961 1 0.864568 0.672813 0.41079
4888 1 0.876148 0.664432 0.411815
4748 1 0.890697 0.668064 0.412464
4671 1 0.896472 0.652386 0.412385
4653 1 0.740505 0.680666 0.412293
4867 1 0.754052 0.687895 0.412461
4960 1 0.779107 0.688039 0.411802
4519 1 0.769483 0.682181 0.409132
4892 1 0.797142 0.682574 0.411404
4740 1 0.7838 0.676597 0.410447
4878 1 0.810778 0.692403 0.411455
4890 1 0.824317 0.693255 0.410645
4669 1 0.811674 0.678552 0.411024
5095 1 0.82849 0.680762 0.409579
4956 1 0.841553 0.676999 0.407489
4668 1 0.840781 0.691688 0.408793
4820 1 0.852212 0.675472 0.408949
4955 1 0.855007 0.687914 0.409961
4815 1 0.870092 0.687693 0.410372
4813 1 0.880204 0.678362 0.411201
2102 1 0.882073 0.69483 0.411227
4614 1 0.892797 0.683625 0.412111
4688 1 0.907054 0.676073 0.412083
4870 1 0.750611 0.701948 0.411575
4818 1 0.765145 0.699175 0.410826
4941 1 0.780484 0.706996 0.410627
4938 1 0.765318 0.712563 0.411165
4805 1 0.795233 0.695776 0.411564
5027 1 0.792561 0.713061 0.411184
4882 1 0.804133 0.71027 0.41209
4953 1 0.816907 0.704995 0.412111
4959 1 0.833495 0.704155 0.412256
4952 1 0.844247 0.713341 0.411049
4954 1 0.86578 0.700059 0.410702
4730 1 0.850663 0.700731 0.411001
4675 1 0.85937 0.713453 0.410496
4814 1 0.874007 0.710062 0.410524
2039 1 0.890315 0.708621 0.411201
4604 1 0.896659 0.696632 0.411298
4800 1 0.738159 0.726135 0.412
4934 1 0.72469 0.732574 0.412185
4738 1 0.751096 0.730885 0.410096
4736 1 0.764533 0.727493 0.410803
4655 1 0.776901 0.720761 0.409848
4799 1 0.777549 0.734539 0.410099
4718 1 0.790313 0.725353 0.409518
5155 1 0.802698 0.732762 0.41242
5023 1 0.806501 0.721025 0.41085
4885 1 0.825272 0.719097 0.411548
5093 1 0.835341 0.727432 0.41151
4958 1 0.830276 0.738507 0.411886
4823 1 0.852159 0.727298 0.411959
4967 1 0.867957 0.724195 0.411837
4937 1 0.738411 0.741984 0.410876
5013 1 0.724334 0.747115 0.41243
4872 1 0.749829 0.749405 0.411311
4798 1 0.763448 0.742296 0.409703
4940 1 0.776717 0.748513 0.412207
5009 1 0.792127 0.74699 0.411865
4509 1 0.869071 0.563284 0.424902
4228 1 0.815086 0.584503 0.420063
4587 1 0.830136 0.579493 0.422488
4612 1 0.845436 0.579997 0.42005
4461 1 0.85795 0.572899 0.422515
4610 1 0.857869 0.584816 0.415454
4460 1 0.872042 0.577652 0.421204
4463 1 0.885746 0.57889 0.421644
4525 1 0.90038 0.583459 0.421124
4291 1 0.757673 0.608579 0.422918
4436 1 0.741426 0.608279 0.424872
4588 1 0.780813 0.596189 0.422913
4438 1 0.772927 0.608478 0.41921
4146 1 0.76613 0.595736 0.424946
4449 1 0.789061 0.604636 0.419087
4665 1 0.799457 0.59114 0.420477
4159 1 0.803504 0.603982 0.416017
4447 1 0.813302 0.596417 0.416253
4811 1 0.826815 0.590986 0.416349
4600 1 0.84195 0.593086 0.415435
4654 1 0.839092 0.606894 0.414064
4455 1 0.851952 0.59989 0.413343
4672 1 0.867165 0.599473 0.414201
4592 1 0.877784 0.591196 0.417987
4527 1 0.881228 0.605375 0.41573
4616 1 0.892066 0.591904 0.418085
4608 1 0.898163 0.60272 0.417767
4319 1 0.908998 0.592672 0.419124
4389 1 0.921871 0.587701 0.423838
1891 1 0.923809 0.602326 0.419106
1823 1 0.913077 0.60682 0.414895
4680 1 0.93502 0.596679 0.421821
4467 1 0.954623 0.601875 0.42342
4676 1 0.942841 0.607506 0.42036
1612 1 0.945308 0.590417 0.424473
4300 1 0.72552 0.627751 0.420002
4156 1 0.74102 0.619708 0.420361
4433 1 0.755859 0.620363 0.419655
4376 1 0.769006 0.621031 0.417351
4439 1 0.785176 0.617572 0.415899
4598 1 0.800259 0.618522 0.414656
4662 1 0.815496 0.612315 0.413965
4521 1 0.827985 0.6231 0.414257
4666 1 0.843415 0.619692 0.412555
4440 1 0.853338 0.61267 0.414259
4599 1 0.866369 0.615196 0.413221
4746 1 0.87058 0.628915 0.412627
4392 1 0.894873 0.613987 0.413329
4607 1 0.907944 0.625903 0.41441
4744 1 0.921472 0.617434 0.415195
5026 1 0.932534 0.614582 0.417565
4544 1 0.955272 0.613396 0.420987
4613 1 0.948763 0.62262 0.41726
1754 1 0.967009 0.613346 0.422889
1616 1 0.964097 0.628507 0.419371
1611 1 0.979465 0.62513 0.424152
4783 1 0.695563 0.636697 0.423229
4638 1 0.686842 0.650709 0.420861
4861 1 0.700469 0.650772 0.419797
4650 1 0.711974 0.637275 0.422086
4155 1 0.716813 0.647446 0.419296
4222 1 0.729604 0.639083 0.417305
4362 1 0.760037 0.63234 0.415539
4586 1 0.743738 0.632867 0.417337
4434 1 0.756084 0.644822 0.415027
4658 1 0.739805 0.650303 0.414356
4649 1 0.776634 0.630752 0.414816
4365 1 0.770959 0.644167 0.413772
4663 1 0.785831 0.644374 0.412594
4619 1 0.884697 0.638326 0.413046
1897 1 0.921781 0.631252 0.417518
4471 1 0.913219 0.641477 0.413483
1962 1 0.929394 0.645295 0.41561
4689 1 0.937264 0.631359 0.414393
1751 1 0.94221 0.648414 0.415719
4686 1 0.949874 0.636788 0.416099
1685 1 0.972295 0.639907 0.420178
4538 1 0.958554 0.64881 0.418507
4819 1 0.973511 0.651535 0.422907
1822 1 0.987076 0.635536 0.423843
4758 1 0.989563 0.648083 0.424754
4574 1 0.629785 0.66744 0.424713
4944 1 0.646439 0.665128 0.424854
4717 1 0.659512 0.660969 0.424225
4727 1 0.671505 0.669978 0.420857
4942 1 0.67554 0.655608 0.421255
4589 1 0.68322 0.666442 0.418332
4583 1 0.71159 0.659093 0.41694
4644 1 0.699542 0.667477 0.41883
4510 1 0.722878 0.667751 0.415688
4733 1 0.736608 0.668075 0.413648
4296 1 0.728524 0.654952 0.415466
4508 1 0.748102 0.659452 0.413329
4660 1 0.764305 0.659054 0.413744
4542 1 0.907361 0.660023 0.412908
4750 1 0.920443 0.655722 0.414646
4825 1 0.920509 0.671683 0.415139
4816 1 0.933397 0.660884 0.416918
4601 1 0.94719 0.666458 0.417861
2034 1 0.963132 0.661758 0.421568
4891 1 0.972904 0.671967 0.422298
4685 1 0.982391 0.662005 0.424571
1624 1 0.991309 0.671286 0.422658
4716 1 0.644869 0.680706 0.423289
4869 1 0.656458 0.693441 0.420931
4791 1 0.659029 0.674111 0.422885
4797 1 0.665148 0.684065 0.418918
4721 1 0.675302 0.693826 0.417624
4864 1 0.679618 0.681131 0.417535
4735 1 0.689439 0.693704 0.413904
4785 1 0.69346 0.681607 0.415571
4871 1 0.707471 0.690087 0.412943
4728 1 0.711144 0.674438 0.413698
4943 1 0.737704 0.694745 0.413164
4584 1 0.724217 0.685021 0.412539
5022 1 0.912093 0.68905 0.413208
4969 1 0.929615 0.69006 0.417183
4747 1 0.938389 0.675695 0.41906
1963 1 0.948419 0.682676 0.420372
4968 1 0.944385 0.694557 0.421867
2037 1 0.959668 0.693662 0.421559
2035 1 0.960454 0.677417 0.421001
1826 1 0.971503 0.686548 0.421839
1834 1 0.98537 0.683011 0.424018
4930 1 0.640092 0.696787 0.421983
4862 1 0.648989 0.707661 0.422322
4579 1 0.66444 0.706503 0.420856
4591 1 0.687887 0.708704 0.41466
4794 1 0.67877 0.708201 0.417969
4573 1 0.703003 0.70223 0.414241
4739 1 0.714043 0.710708 0.414277
4724 1 0.700023 0.716189 0.415061
4807 1 0.737571 0.708969 0.412902
4793 1 0.723294 0.699489 0.413688
4803 1 0.751096 0.716865 0.412799
4749 1 0.905566 0.704324 0.413849
4745 1 0.921574 0.69903 0.413478
4887 1 0.916933 0.710748 0.417074
4965 1 0.930298 0.705633 0.42101
5091 1 0.945775 0.711001 0.423415
1900 1 0.958222 0.708172 0.424418
4795 1 0.671546 0.719563 0.420555
4787 1 0.65541 0.722464 0.422849
5085 1 0.665598 0.734851 0.421333
4929 1 0.686032 0.724197 0.416281
5010 1 0.676324 0.731029 0.418979
4594 1 0.712647 0.72692 0.414971
5007 1 0.69955 0.73065 0.41496
4597 1 0.725839 0.718662 0.412546
4889 1 0.819041 0.732528 0.413499
4824 1 0.861212 0.737505 0.412908
4894 1 0.885007 0.72308 0.413256
5025 1 0.878171 0.73673 0.414295
4821 1 0.903293 0.717604 0.41495
5034 1 0.893106 0.729505 0.416855
2104 1 0.912204 0.72682 0.420056
5096 1 0.925139 0.722623 0.422066
4806 1 0.919121 0.736946 0.42379
5029 1 0.936431 0.720492 0.423899
4566 1 0.654288 0.741088 0.422646
4854 1 0.662879 0.756845 0.422181
4777 1 0.671041 0.746878 0.420256
4858 1 0.686486 0.754749 0.418779
5082 1 0.686559 0.741067 0.41735
4726 1 0.711628 0.740087 0.413951
4932 1 0.699325 0.744059 0.415527
5001 1 0.710536 0.756306 0.414832
4786 1 0.698418 0.756281 0.417429
4935 1 0.735726 0.756316 0.412856
5299 1 0.764599 0.754744 0.412524
4796 1 0.78361 0.759374 0.414549
4731 1 0.799143 0.757699 0.414115
4737 1 0.806058 0.74522 0.413565
4951 1 0.820245 0.748442 0.412899
5028 1 0.825885 0.760548 0.415458
5019 1 0.844715 0.741815 0.412885
4884 1 0.837027 0.751905 0.412849
4802 1 0.854733 0.753269 0.414198
4809 1 0.867871 0.747824 0.417272
4946 1 0.887172 0.742218 0.418696
4950 1 0.876296 0.756892 0.419481
4963 1 0.89299 0.753828 0.422316
5098 1 0.901657 0.739886 0.42005
5097 1 0.905343 0.75951 0.424722
4995 1 0.664713 0.771867 0.424123
4847 1 0.67554 0.762804 0.419127
4851 1 0.680637 0.776778 0.423055
4846 1 0.691598 0.769023 0.419422
4925 1 0.705835 0.76912 0.418855
4927 1 0.712194 0.781659 0.4195
4860 1 0.720745 0.76495 0.416061
4931 1 0.728477 0.778568 0.417336
4997 1 0.74016 0.770147 0.414908
5083 1 0.752355 0.762433 0.414041
5301 1 0.754185 0.778933 0.41678
4874 1 0.763271 0.771346 0.414234
4936 1 0.774662 0.765383 0.414286
5224 1 0.779803 0.777601 0.415651
4933 1 0.791619 0.768227 0.414017
4801 1 0.804701 0.774023 0.415838
4810 1 0.811306 0.762177 0.414517
4812 1 0.818337 0.777619 0.417186
4868 1 0.845902 0.764562 0.41697
4947 1 0.83319 0.769177 0.41597
5086 1 0.838753 0.778581 0.41969
5233 1 0.850978 0.777655 0.419488
5011 1 0.866065 0.779083 0.423035
5230 1 0.860413 0.764359 0.418874
5300 1 0.877559 0.770581 0.424229
5024 1 0.891525 0.767177 0.423904
5290 1 0.698986 0.784034 0.422583
5421 1 0.726105 0.792052 0.421385
5216 1 0.739922 0.78797 0.419856
5081 1 0.757111 0.789729 0.419256
5077 1 0.770522 0.784987 0.417832
5150 1 0.770574 0.799636 0.420865
4939 1 0.783808 0.792509 0.419944
4883 1 0.794232 0.784043 0.418076
5080 1 0.798515 0.796339 0.420939
5012 1 0.807716 0.788456 0.418156
4879 1 0.8137 0.798017 0.423079
4875 1 0.824102 0.789045 0.421053
5033 1 0.838837 0.792437 0.424213
4877 1 0.853221 0.789102 0.423529
5071 1 0.725305 0.805101 0.424725
5079 1 0.756011 0.805717 0.4239
5017 1 0.786394 0.807888 0.423125
5016 1 0.826082 0.80437 0.424944
4511 1 0.865607 0.536309 0.436635
4466 1 0.876811 0.54059 0.435273
4532 1 0.890521 0.540473 0.435917
4223 1 0.791727 0.55542 0.436904
4091 1 0.80562 0.555413 0.435103
4516 1 0.81777 0.562134 0.431923
4148 1 0.840169 0.544248 0.436939
4371 1 0.827311 0.551433 0.436921
4229 1 0.831117 0.56378 0.429115
4531 1 0.843437 0.55649 0.432292
4524 1 0.853798 0.558929 0.428788
4512 1 0.866389 0.550099 0.429967
4456 1 0.853927 0.544178 0.435265
4540 1 0.882461 0.549827 0.430696
4518 1 0.893428 0.561746 0.428994
4520 1 0.901054 0.552525 0.4319
4514 1 0.911538 0.564391 0.429605
4476 1 0.913223 0.549844 0.433268
4468 1 0.925335 0.560766 0.431527
4535 1 0.927063 0.546283 0.43552
4328 1 0.937799 0.555932 0.434657
1618 1 0.952455 0.564182 0.431052
1682 1 0.955462 0.550255 0.436114
4474 1 0.967735 0.562931 0.435238
4465 1 0.981443 0.561831 0.436759
4577 1 0.730403 0.576419 0.437307
4719 1 0.74758 0.580847 0.435219
4367 1 0.757787 0.572284 0.435383
4227 1 0.759847 0.583548 0.431149
4221 1 0.7718 0.574365 0.432573
4506 1 0.776619 0.585163 0.428217
4725 1 0.789298 0.585224 0.425155
4580 1 0.801736 0.576351 0.425254
4298 1 0.786362 0.567178 0.435834
4304 1 0.801291 0.565866 0.430775
4670 1 0.787615 0.574541 0.430522
4590 1 0.81603 0.570857 0.425591
4585 1 0.841242 0.568644 0.425539
4528 1 0.882442 0.567588 0.426602
4457 1 0.910946 0.579622 0.425265
4681 1 0.900164 0.57245 0.426175
4530 1 0.93391 0.583345 0.426248
4537 1 0.922222 0.575123 0.429237
4751 1 0.935258 0.570943 0.429777
4618 1 0.94902 0.576665 0.4275
4687 1 0.962032 0.578068 0.431455
4545 1 0.977443 0.57269 0.43262
1829 1 0.986753 0.581894 0.432278
1753 1 0.992594 0.566527 0.435703
4011 1 0.701876 0.605125 0.436178
4645 1 0.716426 0.606225 0.431284
4360 1 0.709253 0.594989 0.436439
4366 1 0.737819 0.589132 0.432401
4643 1 0.722162 0.590066 0.434191
4581 1 0.731345 0.60084 0.429411
4652 1 0.750001 0.597558 0.429324
4547 1 0.968737 0.602515 0.427423
4549 1 0.975682 0.588293 0.43007
4469 1 0.960406 0.589587 0.428617
4546 1 0.991633 0.594922 0.430595
1756 1 0.98423 0.608412 0.426366
4435 1 0.650796 0.629675 0.43636
4152 1 0.663697 0.624865 0.435658
4500 1 0.676839 0.619774 0.433434
4723 1 0.684532 0.628856 0.42776
4656 1 0.690962 0.616919 0.434199
4505 1 0.698982 0.626345 0.427926
4651 1 0.712482 0.620807 0.425759
4648 1 0.705377 0.614936 0.431084
4582 1 0.725964 0.615556 0.425102
4470 1 0.992149 0.623697 0.427241
1621 1 0.999907 0.61119 0.428981
4565 1 0.553208 0.648862 0.437318
4563 1 0.573954 0.648633 0.434188
4417 1 0.602272 0.638651 0.436154
4859 1 0.589628 0.642537 0.435764
4430 1 0.621014 0.632059 0.437002
5015 1 0.611904 0.643958 0.434574
4486 1 0.629424 0.646131 0.432024
4782 1 0.634491 0.632837 0.436567
4640 1 0.642558 0.641323 0.432097
4713 1 0.651343 0.649099 0.428434
4641 1 0.669232 0.635599 0.430239
4790 1 0.655492 0.639219 0.431553
4646 1 0.667513 0.647497 0.427123
4865 1 0.679835 0.64046 0.425052
4844 1 0.506647 0.671057 0.437242
4559 1 0.533376 0.658441 0.437195
4766 1 0.533897 0.671297 0.435883
4482 1 0.545446 0.661368 0.434799
4558 1 0.562937 0.661997 0.433608
4570 1 0.585237 0.656256 0.432993
4628 1 0.574431 0.66687 0.431153
4792 1 0.598701 0.652844 0.431117
4710 1 0.595626 0.666241 0.430315
4569 1 0.61095 0.659194 0.430805
4711 1 0.623708 0.658027 0.429102
4715 1 0.617637 0.672557 0.425428
4866 1 0.638801 0.653742 0.426917
1625 1 0.997094 0.663179 0.426775
4621 1 0.520668 0.679159 0.437395
4705 1 0.507301 0.68601 0.436874
4763 1 0.53152 0.68858 0.436555
4784 1 0.561754 0.674844 0.43203
4636 1 0.549033 0.675533 0.434787
4552 1 0.558311 0.689282 0.433886
4631 1 0.571239 0.683254 0.430183
4779 1 0.584035 0.691767 0.428764
4568 1 0.58337 0.675292 0.429693
4647 1 0.604538 0.674512 0.426934
4637 1 0.600054 0.68642 0.427982
4709 1 0.613764 0.690164 0.425459
4774 1 0.630676 0.68665 0.425497
1895 1 0.995871 0.693425 0.427546
1836 1 0.998453 0.677943 0.427471
4708 1 0.548045 0.703031 0.435243
4634 1 0.545972 0.716042 0.435561
4492 1 0.562823 0.705224 0.433611
4562 1 0.573284 0.69994 0.429815
4629 1 0.582666 0.710416 0.428996
4706 1 0.572251 0.717026 0.431471
5002 1 0.59299 0.702753 0.428653
4926 1 0.603289 0.71694 0.427475
4853 1 0.607502 0.700684 0.427427
4857 1 0.62368 0.699477 0.425773
4863 1 0.616743 0.712942 0.425676
4999 1 0.634639 0.709824 0.425481
4756 1 0.970524 0.7048 0.425414
4757 1 0.981369 0.696025 0.425945
1899 1 0.986979 0.708779 0.427965
4922 1 0.558596 0.71804 0.434452
4776 1 0.55211 0.729958 0.436606
4856 1 0.568229 0.735665 0.43597
4714 1 0.578043 0.729301 0.432755
4849 1 0.589392 0.720835 0.429561
4924 1 0.599028 0.732208 0.430501
4789 1 0.627294 0.724469 0.425921
4855 1 0.611647 0.726524 0.427484
4703 1 0.626299 0.738976 0.427604
4921 1 0.610595 0.739011 0.430349
4788 1 0.642121 0.720784 0.425637
5139 1 0.642167 0.736303 0.42589
2031 1 0.93177 0.737279 0.426611
4830 1 0.946348 0.728685 0.426511
4753 1 0.955433 0.737991 0.43012
4964 1 0.960576 0.720979 0.426464
1893 1 0.969441 0.731483 0.43025
4684 1 0.975574 0.718134 0.427825
1961 1 0.984387 0.726973 0.430465
1769 1 0.994176 0.736958 0.434459
4690 1 0.997885 0.719648 0.43154
4768 1 0.575798 0.746552 0.435774
4707 1 0.591041 0.742351 0.434196
4775 1 0.606026 0.750799 0.432408
5000 1 0.588516 0.757619 0.435443
4994 1 0.621767 0.751388 0.428655
5075 1 0.649759 0.750373 0.426199
5004 1 0.63592 0.752652 0.427283
5094 1 0.909715 0.747956 0.42593
5166 1 0.923889 0.75041 0.428015
5171 1 0.943712 0.745235 0.429086
4734 1 0.936961 0.757192 0.430728
1894 1 0.951757 0.757948 0.432008
1698 1 0.965888 0.746624 0.433644
4683 1 0.976585 0.753416 0.435024
1903 1 0.981861 0.740283 0.433824
1909 1 0.990203 0.752127 0.436957
4700 1 0.600182 0.766931 0.434695
5067 1 0.603563 0.78024 0.436834
4923 1 0.5874 0.773825 0.437426
5275 1 0.61165 0.761306 0.430216
5070 1 0.624524 0.768055 0.428347
5058 1 0.614733 0.775805 0.430987
4998 1 0.640553 0.771434 0.426521
4996 1 0.653005 0.764123 0.426562
5061 1 0.65293 0.780686 0.427357
4970 1 0.907406 0.770402 0.428382
5092 1 0.89608 0.778377 0.427487
5030 1 0.917536 0.76199 0.428362
5021 1 0.928539 0.76799 0.431158
4822 1 0.919467 0.779225 0.432863
5232 1 0.942073 0.769503 0.433125
2101 1 0.956899 0.773131 0.43581
1965 1 0.965461 0.76296 0.436091
5068 1 0.614092 0.790049 0.432985
5074 1 0.629396 0.78265 0.430651
5280 1 0.614494 0.803455 0.436708
4992 1 0.630784 0.796483 0.432816
5261 1 0.642353 0.788004 0.428777
5207 1 0.644081 0.801876 0.432551
5006 1 0.670311 0.785561 0.426289
5073 1 0.660027 0.792078 0.429373
5066 1 0.675824 0.800543 0.428725
5145 1 0.6866 0.790557 0.426412
5072 1 0.711484 0.794528 0.425251
5564 1 0.6971 0.798713 0.427635
5138 1 0.741655 0.801227 0.425301
4808 1 0.864792 0.793915 0.42711
5020 1 0.849964 0.802655 0.427442
5039 1 0.879014 0.785272 0.426532
4873 1 0.878634 0.799465 0.42816
5107 1 0.893481 0.795831 0.430024
4962 1 0.907473 0.786326 0.431115
5239 1 0.904936 0.801282 0.435718
5170 1 0.932852 0.783907 0.432462
5038 1 0.920454 0.794527 0.435817
5105 1 0.93411 0.795356 0.435907
5165 1 0.947929 0.786989 0.43665
5283 1 0.627353 0.813074 0.43582
5215 1 0.640187 0.814894 0.433867
5359 1 0.660063 0.807021 0.429697
5352 1 0.658193 0.818096 0.433592
5059 1 0.67378 0.816164 0.432041
4990 1 0.687041 0.807921 0.431602
5141 1 0.68862 0.821385 0.43518
5147 1 0.702454 0.813762 0.431737
4993 1 0.712958 0.8063 0.428375
5495 1 0.70264 0.82487 0.436509
5563 1 0.717446 0.822846 0.432154
5491 1 0.731367 0.81728 0.427888
5292 1 0.74382 0.815255 0.427645
5423 1 0.759991 0.821179 0.428098
5018 1 0.773125 0.813347 0.425062
5088 1 0.777428 0.82564 0.429596
5008 1 0.799951 0.806951 0.425036
5014 1 0.789536 0.817922 0.427936
5084 1 0.805439 0.820825 0.42983
5212 1 0.814373 0.811328 0.428288
4876 1 0.820514 0.825327 0.433493
5227 1 0.829841 0.814863 0.430929
5144 1 0.839554 0.80551 0.427508
5152 1 0.843568 0.818263 0.431734
5304 1 0.856338 0.816633 0.433263
4948 1 0.864587 0.807 0.429189
5163 1 0.86736 0.82514 0.43698
5314 1 0.891176 0.808182 0.43389
5101 1 0.878304 0.814752 0.432804
5555 1 0.671789 0.827794 0.437121
5289 1 0.71216 0.834876 0.435457
5210 1 0.695694 0.837748 0.437255
5363 1 0.732016 0.828228 0.43216
5353 1 0.724602 0.839649 0.437419
5487 1 0.745198 0.826299 0.430232
5362 1 0.742972 0.838453 0.437162
5565 1 0.754493 0.834349 0.434036
5076 1 0.767246 0.831909 0.432351
5295 1 0.783341 0.837106 0.434697
5218 1 0.793962 0.829009 0.431501
5286 1 0.807417 0.832644 0.437372
4949 1 0.835803 0.827915 0.435228
4369 1 0.819185 0.521153 0.44781
4234 1 0.843356 0.511973 0.44916
4154 1 0.861216 0.51648 0.447557
4370 1 0.876334 0.519353 0.447489
4611 1 0.889466 0.5187 0.444054
4383 1 0.899529 0.512988 0.449749
4595 1 0.911872 0.512229 0.449607
4448 1 0.920036 0.521509 0.446767
4331 1 0.958335 0.51714 0.44934
1411 1 0.998038 0.51349 0.449785
4503 1 0.736525 0.542005 0.449875
4025 1 0.779699 0.535769 0.448005
4151 1 0.795229 0.535051 0.444978
4373 1 0.812731 0.533766 0.444302
4235 1 0.82604 0.535417 0.441083
4299 1 0.831443 0.523421 0.446574
4233 1 0.837387 0.531282 0.44053
4661 1 0.850013 0.52188 0.445078
4309 1 0.862984 0.526546 0.442093
4305 1 0.849134 0.533972 0.438743
4596 1 0.879614 0.529701 0.440647
4659 1 0.907529 0.537942 0.438428
4475 1 0.892087 0.529614 0.440414
4603 1 0.906677 0.523601 0.443689
4398 1 0.93335 0.529418 0.443934
4536 1 0.921511 0.531738 0.438881
4534 1 0.945182 0.529143 0.446989
4464 1 0.939216 0.540924 0.440428
4533 1 0.953779 0.535935 0.442775
4615 1 0.974357 0.5223 0.448396
4400 1 0.963034 0.530043 0.447792
4334 1 0.96949 0.537163 0.441078
1337 1 0.979787 0.533977 0.444859
4406 1 0.98736 0.524899 0.447235
4478 1 0.989845 0.539021 0.442166
4480 1 0.99869 0.528099 0.444767
4231 1 0.714767 0.562576 0.44418
4288 1 0.725104 0.550561 0.447318
4084 1 0.729907 0.563777 0.441704
4287 1 0.739609 0.554238 0.444592
4353 1 0.752804 0.54422 0.447254
3943 1 0.755788 0.558733 0.442899
4226 1 0.775118 0.562053 0.439912
3942 1 0.767831 0.550737 0.444033
4437 1 0.781982 0.545867 0.442098
4161 1 0.799211 0.544624 0.441251
4295 1 0.81398 0.547631 0.438434
1681 1 0.969286 0.549234 0.43825
1476 1 0.994564 0.553158 0.439971
4477 1 0.982086 0.548226 0.439794
4017 1 0.676354 0.580231 0.449065
4089 1 0.689348 0.577743 0.446126
4355 1 0.700018 0.565716 0.44882
4080 1 0.702489 0.578055 0.44273
4225 1 0.71436 0.577351 0.439644
4578 1 0.743255 0.566495 0.439859
2099 1 0.502549 0.603668 0.44613
1819 1 0.518847 0.599217 0.447777
4695 1 0.505934 0.587862 0.44909
4499 1 0.545771 0.600473 0.446489
4555 1 0.562728 0.597776 0.447015
4427 1 0.550977 0.588143 0.449169
4561 1 0.576742 0.600686 0.446816
4489 1 0.576009 0.588877 0.449933
4722 1 0.590046 0.606404 0.445958
4425 1 0.601709 0.604081 0.447134
4497 1 0.614448 0.598569 0.447672
4364 1 0.625757 0.604599 0.446643
4361 1 0.638496 0.605595 0.443035
4217 1 0.649081 0.595758 0.447661
4498 1 0.667728 0.589717 0.44536
4357 1 0.658405 0.601923 0.443132
3948 1 0.671745 0.600543 0.440992
4147 1 0.682466 0.588826 0.443353
4729 1 0.686436 0.604114 0.438788
4712 1 0.696292 0.592545 0.441621
1743 1 0.513969 0.616318 0.443965
4346 1 0.532671 0.609241 0.446214
4704 1 0.527805 0.620403 0.444748
4502 1 0.554188 0.610608 0.445018
4697 1 0.544633 0.618029 0.442283
4639 1 0.562919 0.621956 0.441552
4625 1 0.570022 0.609568 0.444372
4642 1 0.579956 0.617121 0.442101
4495 1 0.576126 0.629482 0.437906
4575 1 0.598668 0.616904 0.441832
4504 1 0.59291 0.626453 0.43865
4507 1 0.609199 0.626037 0.439095
4077 1 0.613735 0.61445 0.44402
4432 1 0.62631 0.616831 0.441282
4501 1 0.638017 0.620267 0.440326
4572 1 0.670062 0.613716 0.439262
4720 1 0.653933 0.614183 0.440591
4767 1 0.508005 0.632901 0.44479
4839 1 0.509758 0.646108 0.441851
4623 1 0.520544 0.633755 0.442616
4567 1 0.538834 0.643907 0.440027
4553 1 0.536986 0.630921 0.441642
4633 1 0.525031 0.647502 0.440293
4635 1 0.563256 0.638321 0.437652
4487 1 0.552031 0.634411 0.439806
4560 1 0.51738 0.662808 0.439163
4418 1 0.501793 0.658965 0.439255
4772 1 0.520589 0.694221 0.438092
4765 1 0.544263 0.690705 0.437687
4564 1 0.51785 0.709753 0.439559
4626 1 0.503548 0.698861 0.439621
4910 1 0.501495 0.711417 0.439853
1606 1 0.533576 0.705505 0.437555
4770 1 0.512014 0.724114 0.441314
4691 1 0.512022 0.738779 0.445082
1818 1 0.500548 0.727145 0.444114
1888 1 0.52959 0.719524 0.437962
4843 1 0.525991 0.733079 0.440757
4701 1 0.539507 0.730615 0.438162
4904 1 0.508757 0.753429 0.446278
4761 1 0.537087 0.744831 0.441138
4835 1 0.524339 0.746303 0.443859
4848 1 0.537129 0.759935 0.443229
4928 1 0.555536 0.743367 0.439446
4632 1 0.55053 0.758432 0.441155
4627 1 0.565583 0.755295 0.438398
4986 1 0.521739 0.774626 0.448759
4780 1 0.523318 0.762731 0.445974
4833 1 0.534082 0.775215 0.445853
5063 1 0.561407 0.770977 0.442134
4702 1 0.54587 0.773952 0.44373
4771 1 0.576864 0.764713 0.437867
1890 1 0.573308 0.780288 0.440317
2105 1 0.967521 0.776449 0.440375
1835 1 0.978073 0.765719 0.438099
5169 1 0.983256 0.775897 0.444805
1904 1 0.99219 0.763057 0.440329
4827 1 0.997831 0.773069 0.445241
5142 1 0.533355 0.788888 0.449787
4699 1 0.547625 0.78837 0.446961
4916 1 0.559134 0.784018 0.444018
5053 1 0.558403 0.800516 0.448063
5057 1 0.568098 0.794344 0.442925
5195 1 0.580209 0.792847 0.441494
5136 1 0.601204 0.795326 0.439146
4698 1 0.59024 0.785484 0.439409
4850 1 0.587089 0.802517 0.443048
5031 1 0.9449 0.798441 0.438462
4897 1 0.955405 0.799344 0.442178
1978 1 0.96073 0.787472 0.439976
4966 1 0.972485 0.791237 0.445148
2311 1 0.970054 0.803235 0.44606
2187 1 0.987516 0.787374 0.446804
1972 1 0.983543 0.798852 0.448391
5127 1 0.555988 0.814916 0.448611
4778 1 0.571862 0.821711 0.447638
4991 1 0.571502 0.809319 0.445145
5065 1 0.586026 0.815965 0.443854
5205 1 0.601435 0.811807 0.441703
5131 1 0.598879 0.825539 0.441968
5190 1 0.615318 0.822695 0.441156
5143 1 0.629439 0.825019 0.43881
5134 1 0.643424 0.82598 0.43793
5243 1 0.883772 0.820464 0.43886
5103 1 0.900463 0.815728 0.439028
5235 1 0.909223 0.824956 0.446106
5172 1 0.93264 0.807958 0.440583
5090 1 0.915081 0.811477 0.438538
4900 1 0.927119 0.81949 0.44411
5037 1 0.946292 0.810559 0.44274
4755 1 0.943211 0.825538 0.446816
5236 1 0.955961 0.823705 0.44925
2312 1 0.95775 0.81006 0.445712
5035 1 0.968691 0.816849 0.449484
5126 1 0.585741 0.830141 0.447412
5137 1 0.600523 0.834759 0.447757
5349 1 0.61585 0.832858 0.444488
5489 1 0.61104 0.843422 0.448949
5003 1 0.634246 0.836921 0.441921
5420 1 0.650393 0.839889 0.440891
5422 1 0.660051 0.830915 0.438985
5211 1 0.670438 0.843302 0.442022
5492 1 0.683142 0.833413 0.438365
5209 1 0.683856 0.845443 0.441758
5493 1 0.708613 0.846945 0.437805
5213 1 0.755263 0.846975 0.440851
5146 1 0.767343 0.841681 0.438422
5156 1 0.779345 0.847033 0.44071
5087 1 0.797038 0.840835 0.439147
5157 1 0.822743 0.834395 0.438753
5488 1 0.812357 0.84391 0.441917
4880 1 0.838137 0.83821 0.440905
5078 1 0.826647 0.847249 0.444556
5229 1 0.852367 0.830704 0.438356
5217 1 0.851303 0.84401 0.444014
5153 1 0.863492 0.835831 0.440969
5160 1 0.877811 0.831139 0.440494
5309 1 0.871817 0.842155 0.445554
5089 1 0.887107 0.838862 0.447104
5307 1 0.894028 0.827177 0.444429
5173 1 0.901564 0.837538 0.449573
5238 1 0.919927 0.833036 0.448534
5424 1 0.624756 0.848004 0.447051
5350 1 0.639138 0.849513 0.444786
5556 1 0.644305 0.860163 0.448396
5351 1 0.655322 0.850181 0.44444
5364 1 0.655715 0.8655 0.449135
5419 1 0.669063 0.855919 0.445047
5276 1 0.682194 0.856566 0.444135
5518 1 0.693341 0.866166 0.44645
5553 1 0.675354 0.869144 0.449212
5294 1 0.695692 0.850917 0.441958
5355 1 0.705291 0.859837 0.444109
5372 1 0.717834 0.865236 0.448045
5367 1 0.719521 0.854472 0.442767
5554 1 0.737112 0.850678 0.44106
5450 1 0.734297 0.860958 0.447604
5494 1 0.751162 0.858892 0.447342
5360 1 0.759723 0.86696 0.449769
5149 1 0.767529 0.853979 0.445263
5516 1 0.775827 0.861372 0.44869
5429 1 0.786303 0.855838 0.444911
5228 1 0.797406 0.851496 0.443269
5284 1 0.798205 0.864113 0.448378
5221 1 0.812167 0.85477 0.445627
5445 1 0.841322 0.849403 0.446382
5302 1 0.861574 0.854364 0.447874
3956 1 0.755625 0.517768 0.46191
4175 1 0.771705 0.517092 0.462052
4094 1 0.782394 0.51612 0.459457
4232 1 0.7988 0.511727 0.456599
4180 1 0.813933 0.508703 0.452446
4513 1 0.828082 0.511941 0.451364
4254 1 0.853008 0.50401 0.452763
4306 1 0.869632 0.506356 0.451517
4441 1 0.883716 0.509869 0.450823
4445 1 0.89406 0.503172 0.455294
4529 1 0.910796 0.504153 0.455586
4453 1 0.934189 0.51706 0.450618
4374 1 0.9244 0.510232 0.452787
1269 1 0.93019 0.501872 0.45706
4315 1 0.946255 0.513761 0.452006
4385 1 0.943666 0.502291 0.4546
4395 1 0.957685 0.500696 0.453509
1492 1 0.972226 0.509113 0.451695
4617 1 0.985882 0.512355 0.452088
1672 1 0.508843 0.540926 0.462112
4165 1 0.709263 0.535666 0.4594
4007 1 0.696838 0.536276 0.462165
4010 1 0.729057 0.535938 0.455897
3959 1 0.72146 0.531416 0.462031
4160 1 0.747206 0.535418 0.454199
4022 1 0.742482 0.526184 0.459551
4153 1 0.764631 0.538448 0.450017
4086 1 0.761392 0.527049 0.456434
4237 1 0.774025 0.527529 0.454613
4098 1 0.802878 0.525721 0.450046
4082 1 0.789457 0.526912 0.452494
1814 1 0.512114 0.55854 0.458385
4422 1 0.523959 0.54927 0.460418
2029 1 0.530547 0.561198 0.458604
1671 1 0.54046 0.55224 0.461585
1742 1 0.546194 0.564709 0.457797
1815 1 0.566836 0.558202 0.460579
4493 1 0.583106 0.561625 0.460612
4491 1 0.610314 0.564063 0.459805
4354 1 0.64841 0.559692 0.461729
4088 1 0.663976 0.561839 0.458355
4079 1 0.672034 0.548809 0.460124
3938 1 0.659283 0.549848 0.462184
4428 1 0.686129 0.544539 0.460443
4292 1 0.678854 0.560952 0.455817
4212 1 0.694476 0.555388 0.454848
4144 1 0.714765 0.544074 0.453498
4282 1 0.702481 0.545205 0.456118
4219 1 0.707573 0.556284 0.450694
4630 1 0.505964 0.576302 0.454551
4488 1 0.521521 0.58288 0.451528
1669 1 0.519451 0.57063 0.455483
4557 1 0.535575 0.574309 0.45467
4421 1 0.549459 0.57801 0.455358
4220 1 0.565185 0.583543 0.453111
4490 1 0.559142 0.568994 0.456908
1602 1 0.573476 0.571269 0.458041
4424 1 0.585057 0.576848 0.454756
4218 1 0.59482 0.566464 0.459982
4781 1 0.601598 0.580613 0.456728
4216 1 0.625301 0.565533 0.459612
4289 1 0.615126 0.578282 0.455872
4494 1 0.629353 0.576946 0.457356
4576 1 0.642709 0.581945 0.455184
4571 1 0.641065 0.568057 0.457996
4290 1 0.655103 0.571813 0.455884
3954 1 0.657993 0.584012 0.451808
4359 1 0.669731 0.573487 0.454516
4213 1 0.686137 0.570048 0.452699
4554 1 0.533687 0.590786 0.450183
4496 1 0.589706 0.592182 0.450443
4358 1 0.606476 0.589332 0.451482
4431 1 0.623363 0.58783 0.451357
4224 1 0.636325 0.592016 0.45065
5045 1 0.50793 0.768871 0.450598
4912 1 0.510474 0.781772 0.451564
4984 1 0.521284 0.79138 0.450926
4920 1 0.501745 0.792456 0.455057
4852 1 0.512382 0.801276 0.454326
4985 1 0.542403 0.802237 0.450132
4678 1 0.995423 0.798273 0.451851
4988 1 0.512805 0.819133 0.457286
4918 1 0.529207 0.804911 0.453854
5334 1 0.527373 0.8187 0.455797
5263 1 0.540898 0.815576 0.452061
1902 1 0.983213 0.813524 0.452664
2040 1 0.992495 0.819459 0.458466
5197 1 0.521542 0.834069 0.459207
5054 1 0.507121 0.834605 0.460524
5335 1 0.535493 0.843004 0.458426
5196 1 0.532587 0.82933 0.457046
5060 1 0.55824 0.828207 0.451675
5266 1 0.547212 0.844256 0.45609
5062 1 0.546231 0.830052 0.453855
5056 1 0.559143 0.839904 0.456461
5201 1 0.572601 0.837102 0.452072
5130 1 0.586241 0.842045 0.452486
5245 1 0.91864 0.844549 0.454132
5442 1 0.933629 0.837384 0.452742
5100 1 0.950208 0.837133 0.453688
2032 1 0.951903 0.847531 0.459203
4893 1 0.962983 0.83248 0.454757
1966 1 0.970436 0.839815 0.460236
4829 1 0.978803 0.827145 0.455165
5114 1 0.515893 0.849156 0.462442
5194 1 0.530704 0.854536 0.460854
5128 1 0.559122 0.85257 0.458774
5404 1 0.555807 0.867441 0.460352
5129 1 0.546119 0.856048 0.460343
5132 1 0.571386 0.848974 0.45572
5413 1 0.57153 0.864729 0.458249
5064 1 0.582726 0.856667 0.455648
5140 1 0.597021 0.851207 0.452835
5282 1 0.60322 0.865767 0.456371
5478 1 0.588953 0.867775 0.457727
5133 1 0.629161 0.858219 0.451174
5347 1 0.61386 0.854065 0.452778
5069 1 0.618901 0.867101 0.454963
5005 1 0.786867 0.866566 0.452689
4804 1 0.81415 0.869044 0.454175
5151 1 0.826516 0.859837 0.450016
5226 1 0.837819 0.865468 0.453698
5223 1 0.84848 0.857922 0.450905
5225 1 0.860742 0.866551 0.453523
5231 1 0.890911 0.847919 0.452715
2241 1 0.876211 0.850785 0.452397
5167 1 0.8747 0.864156 0.457065
5303 1 0.886539 0.85727 0.458667
5159 1 0.902436 0.850975 0.454638
5288 1 0.901242 0.858442 0.460569
5237 1 0.926507 0.851497 0.460768
5106 1 0.914032 0.854344 0.460341
5234 1 0.939069 0.848498 0.458931
5418 1 0.578752 0.878561 0.459957
2889 1 0.594613 0.8791 0.460845
5345 1 0.610244 0.87903 0.46069
5417 1 0.625297 0.878458 0.458687
5483 1 0.630208 0.890228 0.462029
5485 1 0.634069 0.871757 0.452379
5204 1 0.639556 0.883032 0.456688
5416 1 0.650356 0.879827 0.453251
5559 1 0.656905 0.889019 0.455954
5567 1 0.662964 0.874168 0.451377
5279 1 0.67133 0.884631 0.454367
5515 1 0.686965 0.877787 0.452814
5434 1 0.706648 0.873977 0.450759
5496 1 0.700208 0.885768 0.454799
5499 1 0.713683 0.883067 0.455439
5511 1 0.725544 0.875479 0.450819
5587 1 0.732555 0.886035 0.454869
2909 1 0.742679 0.874656 0.450256
5219 1 0.755852 0.879265 0.454592
5436 1 0.745368 0.884297 0.455426
5354 1 0.770463 0.87275 0.455324
5441 1 0.765804 0.883227 0.459778
5222 1 0.800249 0.876207 0.455139
5285 1 0.784933 0.881038 0.458705
5158 1 0.798983 0.890585 0.462066
5365 1 0.812885 0.882499 0.45988
5298 1 0.824495 0.886707 0.462037
4945 1 0.826656 0.872757 0.456762
5148 1 0.837259 0.881625 0.459703
5287 1 0.847233 0.87274 0.456342
5306 1 0.860734 0.874086 0.459807
5297 1 0.851253 0.882575 0.461764
5545 1 0.646043 0.893901 0.460016
5361 1 0.66625 0.89814 0.460188
2827 1 0.679985 0.895166 0.456766
5438 1 0.692749 0.895851 0.459263
5498 1 0.68357 0.903036 0.461924
5291 1 0.704802 0.895191 0.460189
5426 1 0.722076 0.895306 0.459138
5435 1 0.737909 0.896412 0.460438
5432 1 0.753627 0.893988 0.462478
1816 1 0.509473 0.51137 0.46971
4348 1 0.52156 0.509366 0.47131
4274 1 0.500672 0.500733 0.471356
4415 1 0.52101 0.519878 0.465982
4484 1 0.53541 0.514465 0.470577
1750 1 0.54724 0.514761 0.474663
4076 1 0.683068 0.521202 0.472203
3868 1 0.694442 0.515867 0.474184
4015 1 0.710025 0.510973 0.474465
4211 1 0.720804 0.517318 0.46949
3814 1 0.732445 0.520393 0.464423
3751 1 0.733188 0.511505 0.470722
4352 1 0.743573 0.505437 0.473589
3884 1 0.745892 0.513817 0.467215
4162 1 0.758356 0.503319 0.473668
4020 1 0.773128 0.501654 0.472285
4095 1 0.763361 0.511594 0.466139
4157 1 0.781395 0.503956 0.466652
3815 1 0.796002 0.502524 0.46402
4134 1 0.5081 0.525633 0.464802
1740 1 0.521906 0.532716 0.463293
1747 1 0.53501 0.525393 0.466467
1677 1 0.535424 0.538019 0.463457
1604 1 0.556397 0.523517 0.472613
1603 1 0.547376 0.528944 0.467802
4280 1 0.563277 0.536122 0.46803
1745 1 0.551666 0.539346 0.46503
1748 1 0.586886 0.52817 0.473907
4426 1 0.571895 0.526873 0.472953
4283 1 0.579987 0.53917 0.469327
4215 1 0.59527 0.535898 0.46951
4143 1 0.60352 0.527081 0.474254
4063 1 0.613795 0.534015 0.470983
1328 1 0.625711 0.523867 0.473886
4356 1 0.629262 0.539786 0.46902
3925 1 0.641082 0.529998 0.471392
4419 1 0.652632 0.535061 0.468389
4071 1 0.667559 0.526119 0.470761
4001 1 0.666483 0.538708 0.465041
4070 1 0.680547 0.533851 0.464888
4149 1 0.692812 0.525519 0.467056
4078 1 0.707937 0.523152 0.467772
4286 1 0.558433 0.54913 0.464038
3940 1 0.573418 0.549678 0.464445
4350 1 0.600031 0.55415 0.462631
4145 1 0.605266 0.544201 0.466898
4293 1 0.588895 0.548166 0.464628
4087 1 0.61738 0.553303 0.464168
4214 1 0.634246 0.555202 0.46415
4006 1 0.646756 0.546097 0.466602
5412 1 0.501653 0.845908 0.463614
2247 1 0.974872 0.847674 0.466725
2106 1 0.985882 0.833623 0.463438
4754 1 0.998691 0.837898 0.469638
4828 1 0.987655 0.844855 0.468208
5329 1 0.505854 0.860366 0.466627
5339 1 0.522156 0.864489 0.464702
5477 1 0.538953 0.867301 0.462621
5102 1 0.887857 0.866639 0.463772
5375 1 0.905766 0.866468 0.465867
2317 1 0.918582 0.86107 0.466273
2175 1 0.933861 0.860341 0.468364
5240 1 0.947545 0.854273 0.465929
5308 1 0.954985 0.861193 0.471419
2182 1 0.960305 0.850954 0.465731
2381 1 0.967852 0.85818 0.473369
2243 1 0.983745 0.855147 0.474567
5340 1 0.512092 0.872965 0.469971
2818 1 0.505758 0.882976 0.473136
5397 1 0.524036 0.876671 0.468975
5267 1 0.536344 0.88237 0.467925
5402 1 0.54956 0.882374 0.46561
5277 1 0.564391 0.881829 0.463181
5273 1 0.570944 0.890707 0.465287
5271 1 0.587498 0.889847 0.463731
5401 1 0.602005 0.890605 0.463611
5220 1 0.864241 0.886253 0.465686
5164 1 0.873224 0.874125 0.463813
5373 1 0.887929 0.878764 0.469304
2522 1 0.875556 0.888141 0.470429
5168 1 0.899136 0.876875 0.469951
2456 1 0.927103 0.872329 0.471754
5175 1 0.914692 0.875336 0.471071
5341 1 0.515964 0.89131 0.472541
5262 1 0.506962 0.900412 0.474958
5332 1 0.521639 0.903897 0.474732
5326 1 0.531905 0.892568 0.471131
5337 1 0.535588 0.906688 0.47406
5327 1 0.55731 0.892227 0.467324
5333 1 0.544216 0.895086 0.470649
5203 1 0.54935 0.90507 0.472611
5272 1 0.561747 0.903572 0.470428
2822 1 0.577913 0.900253 0.4676
5548 1 0.593734 0.904482 0.467933
5541 1 0.615958 0.891685 0.465291
5490 1 0.609386 0.902953 0.467391
5281 1 0.625026 0.904904 0.46737
2835 1 0.638428 0.9049 0.466513
5561 1 0.655501 0.907231 0.464315
5484 1 0.670553 0.909948 0.46604
5568 1 0.697653 0.906929 0.465447
5497 1 0.712553 0.907244 0.464562
5578 1 0.726101 0.907061 0.46463
5430 1 0.740001 0.909358 0.466664
5380 1 0.755354 0.90836 0.46798
5428 1 0.770661 0.898875 0.463663
5369 1 0.771441 0.910094 0.47037
5377 1 0.783827 0.894272 0.463224
5444 1 0.784011 0.904699 0.467679
5214 1 0.795092 0.900478 0.467232
5315 1 0.81265 0.895041 0.465617
5293 1 0.810584 0.906438 0.469789
5457 1 0.82312 0.911124 0.471428
5311 1 0.825139 0.899003 0.468611
5384 1 0.839285 0.892935 0.466331
5313 1 0.836806 0.905812 0.46959
5161 1 0.850956 0.897352 0.467194
5310 1 0.863539 0.899347 0.470698
5455 1 0.849712 0.910005 0.471583
5382 1 0.861864 0.910535 0.474393
2388 1 0.875637 0.9032 0.474449
5381 1 0.887943 0.893008 0.474223
5200 1 0.564548 0.919779 0.472552
5265 1 0.574581 0.913488 0.470811
2887 1 0.579781 0.928971 0.474471
5415 1 0.60373 0.916147 0.470729
5269 1 0.587499 0.913739 0.472014
5557 1 0.617318 0.91648 0.47042
5405 1 0.644718 0.917403 0.47086
5278 1 0.631784 0.917608 0.471779
5486 1 0.658666 0.913584 0.470222
5427 1 0.669939 0.920897 0.472732
2834 1 0.654389 0.924779 0.474014
5566 1 0.685002 0.913869 0.467939
2826 1 0.683937 0.923727 0.473864
5439 1 0.700475 0.917309 0.471535
5582 1 0.716817 0.919092 0.469756
5507 1 0.729896 0.918329 0.470361
5357 1 0.742313 0.921806 0.469731
5443 1 0.754237 0.920848 0.472949
5296 1 0.769035 0.922417 0.473804
5368 1 0.797105 0.914119 0.471625
5433 1 0.784583 0.919772 0.473592
5366 1 0.811113 0.918264 0.474574
5503 1 0.837619 0.917721 0.473909
4347 1 0.512303 0.500579 0.476072
4210 1 0.532799 0.506475 0.476555
4416 1 0.547668 0.504337 0.478571
4345 1 0.562223 0.512639 0.476729
4414 1 0.577951 0.514969 0.478014
4429 1 0.575552 0.502391 0.482077
4284 1 0.588783 0.505781 0.481917
4209 1 0.593644 0.51551 0.476155
4281 1 0.605814 0.512927 0.480644
4485 1 0.602338 0.500138 0.484444
4285 1 0.614907 0.503534 0.483541
4278 1 0.612883 0.519427 0.476175
3994 1 0.626007 0.511023 0.479603
4483 1 0.641205 0.506853 0.480955
1189 1 0.640001 0.518254 0.476939
4072 1 0.655774 0.500581 0.482475
3996 1 0.656097 0.511986 0.47873
1397 1 0.67157 0.51552 0.476883
4135 1 0.669485 0.505277 0.482829
4423 1 0.684089 0.506965 0.478167
4073 1 0.699177 0.502977 0.479495
4014 1 0.725926 0.50494 0.476268
3922 1 0.656783 0.523819 0.475652
2045 1 0.995955 0.847408 0.475415
5241 1 0.942359 0.868716 0.475438
5176 1 0.974891 0.866469 0.48056
5040 1 0.990562 0.861189 0.482989
5250 1 0.904529 0.886393 0.476115
5177 1 0.920649 0.885349 0.476027
5108 1 0.93454 0.880794 0.47755
2242 1 0.94612 0.877887 0.480216
5174 1 0.95394 0.882374 0.486814
2315 1 0.944221 0.890151 0.486077
4896 1 0.959315 0.870397 0.477691
5036 1 0.968192 0.87655 0.483383
2532 1 0.985696 0.87305 0.487023
5531 1 0.511742 0.912501 0.478825
5305 1 0.887532 0.906802 0.478963
2384 1 0.901153 0.899995 0.478851
2316 1 0.912621 0.906376 0.484183
5446 1 0.899585 0.911223 0.485244
2392 1 0.917045 0.897001 0.479997
2387 1 0.930142 0.893693 0.484276
67 1 0.514247 0.925372 0.482683
5392 1 0.526385 0.917052 0.478165
5206 1 0.538508 0.924244 0.480316
5532 1 0.526846 0.926282 0.483689
5536 1 0.539671 0.934297 0.483582
5338 1 0.550498 0.918199 0.475414
5202 1 0.551138 0.929505 0.480712
5336 1 0.565268 0.930666 0.477401
2957 1 0.595443 0.927689 0.475812
5480 1 0.611865 0.927766 0.476707
2971 1 0.62724 0.929098 0.475353
5562 1 0.64068 0.928495 0.476694
2840 1 0.662341 0.931944 0.477751
5501 1 0.679513 0.934456 0.478488
2839 1 0.712227 0.928687 0.477419
2900 1 0.697563 0.93262 0.47824
5452 1 0.731142 0.92783 0.47572
2830 1 0.745345 0.928641 0.47646
5431 1 0.757548 0.931605 0.478295
5581 1 0.77492 0.932171 0.477132
5248 1 0.799488 0.924577 0.477167
5513 1 0.788616 0.930072 0.479256
5154 1 0.823273 0.92608 0.477717
5527 1 0.836996 0.924461 0.479824
5162 1 0.842586 0.934686 0.48526
5449 1 0.829769 0.93152 0.484897
5383 1 0.848611 0.921694 0.477868
5447 1 0.863404 0.921822 0.479088
5370 1 0.854411 0.930463 0.482524
5371 1 0.876604 0.91488 0.47924
5247 1 0.8714 0.928739 0.484344
5385 1 0.888502 0.919315 0.484316
5537 1 0.52918 0.938173 0.487101
5471 1 0.559386 0.943278 0.485227
5135 1 0.571739 0.941875 0.481647
2825 1 0.583909 0.951787 0.485794
5543 1 0.569081 0.953271 0.487186
5399 1 0.604109 0.938113 0.480821
2956 1 0.588556 0.93999 0.479773
2893 1 0.597423 0.946687 0.486201
2888 1 0.617294 0.940093 0.480232
5558 1 0.6251 0.952336 0.48684
5409 1 0.61148 0.951121 0.484986
2836 1 0.633366 0.940475 0.482528
2837 1 0.641154 0.948631 0.486973
5571 1 0.650619 0.938934 0.48235
2820 1 0.659409 0.946923 0.484163
5569 1 0.669682 0.941226 0.482735
5570 1 0.692934 0.941976 0.483008
5572 1 0.682529 0.947561 0.485494
5575 1 0.707986 0.941739 0.482678
5577 1 0.724557 0.941201 0.481299
5500 1 0.722496 0.949479 0.48655
2899 1 0.738291 0.948127 0.486781
2912 1 0.738555 0.938127 0.479628
5514 1 0.752124 0.943827 0.483742
5579 1 0.767864 0.941924 0.480884
2663 1 0.781641 0.941716 0.483537
5509 1 0.765972 0.949989 0.487076
5510 1 0.796028 0.939946 0.485174
5242 1 0.813404 0.935644 0.482816
2244 1 0.964182 0.884889 0.491322
5110 1 0.977649 0.883489 0.488265
2319 1 0.99162 0.88269 0.49371
2391 1 0.999854 0.871004 0.488215
2386 1 0.925234 0.90544 0.488494
5104 1 0.939157 0.903155 0.490668
5180 1 0.950847 0.895508 0.492454
4826 1 0.952505 0.908996 0.496876
2103 1 0.971791 0.903115 0.499592
2174 1 0.962098 0.896969 0.497201
2462 1 0.976034 0.892049 0.496015
2112 1 0.987022 0.892144 0.499012
5257 1 0.502133 0.931255 0.48772
5596 1 0.883195 0.928814 0.488952
5459 1 0.887705 0.934308 0.49653
5389 1 0.897542 0.921758 0.491342
5244 1 0.905116 0.931159 0.495448
2591 1 0.910996 0.915244 0.49047
2458 1 0.926218 0.916039 0.491912
5179 1 0.93252 0.92621 0.499634
5320 1 0.91754 0.924922 0.495761
2246 1 0.940244 0.914075 0.496325
2248 1 0.949674 0.922563 0.49911
5396 1 0.500034 0.952781 0.499433
5331 1 0.514695 0.936655 0.48831
5199 1 0.503027 0.942956 0.493065
2815 1 0.520344 0.949722 0.492726
5395 1 0.532453 0.948206 0.490134
2814 1 0.546609 0.946638 0.488729
5542 1 0.557523 0.955969 0.491638
5573 1 0.670591 0.954693 0.489463
5356 1 0.690052 0.955377 0.489473
2980 1 0.702801 0.950672 0.487537
5524 1 0.753885 0.956069 0.490963
5597 1 0.777697 0.951263 0.488273
5585 1 0.79392 0.950427 0.490111
4 1 0.8053 0.956143 0.492349
5529 1 0.808523 0.943954 0.489
5523 1 0.820104 0.954003 0.494196
5451 1 0.821589 0.941285 0.488852
5374 1 0.837574 0.943797 0.490922
5526 1 0.836179 0.954305 0.496796
5312 1 0.858839 0.937984 0.48885
2382 1 0.863333 0.946365 0.495799
5317 1 0.850233 0.94682 0.49432
5376 1 0.871608 0.935645 0.493109
2596 1 0.880293 0.941254 0.498347
5539 1 0.511885 0.958351 0.498793
2811 1 0.530534 0.961437 0.49607
2812 1 0.542539 0.958822 0.494405
5535 1 0.556169 0.966188 0.496172
2809 1 0.569105 0.974979 0.499831
2959 1 0.569877 0.966041 0.493495
5408 1 0.582068 0.96382 0.490909
2960 1 0.582095 0.974788 0.496789
5469 1 0.597093 0.959972 0.489531
2803 1 0.595455 0.972222 0.495394
5414 1 0.610631 0.959129 0.491441
2965 1 0.610163 0.970444 0.496882
5549 1 0.623544 0.961365 0.491946
2901 1 0.626206 0.969319 0.497254
2975 1 0.637645 0.963203 0.491715
3036 1 0.651786 0.968654 0.49666
2828 1 0.653027 0.957179 0.49062
5358 1 0.666838 0.965614 0.495314
2824 1 0.677589 0.97461 0.499328
5342 1 0.681446 0.964179 0.492872
2823 1 0.693882 0.971343 0.496509
2905 1 0.713132 0.957103 0.490981
2906 1 0.702053 0.963267 0.494295
5504 1 0.71938 0.968289 0.495715
2979 1 0.729254 0.959325 0.49249
2981 1 0.736178 0.97126 0.497922
2902 1 0.755035 0.967344 0.496313
5525 1 0.741987 0.960583 0.492833
5519 1 0.773161 0.968882 0.497699
5440 1 0.766684 0.958511 0.492863
5583 1 0.795183 0.964113 0.496589
5505 1 0.784323 0.960981 0.494988
5520 1 0.809801 0.965724 0.498311
2530 1 0.985665 0.904152 0.503803
2116 1 0.999204 0.908807 0.509647
2523 1 0.945468 0.931523 0.504833
2108 1 0.974972 0.915917 0.505162
5178 1 0.958309 0.929141 0.506188
2255 1 0.970793 0.92731 0.509504
2597 1 0.963546 0.917939 0.50115
2172 1 0.984672 0.91457 0.509996
2672 1 0.889119 0.943347 0.504126
5593 1 0.869924 0.947346 0.501976
2313 1 0.88122 0.952655 0.506995
5318 1 0.904885 0.945909 0.507748
2667 1 0.895525 0.956245 0.51038
5387 1 0.900444 0.936707 0.501892
5316 1 0.916774 0.934836 0.501271
2526 1 0.928711 0.936883 0.505117
2314 1 0.919875 0.947628 0.508778
5246 1 0.934466 0.942368 0.510678
2178 1 0.950299 0.939444 0.510511
2599 1 0.964005 0.93568 0.512017
69 1 0.517875 0.971024 0.502613
5533 1 0.501622 0.966962 0.505422
2801 1 0.530161 0.97067 0.501938
5328 1 0.543801 0.97139 0.500674
5344 1 0.621457 0.978193 0.502061
5551 1 0.650289 0.977953 0.501782
5411 1 0.638912 0.97442 0.500378
5482 1 0.708515 0.974502 0.500308
2978 1 0.723233 0.977799 0.501524
2838 1 0.749197 0.976087 0.501854
2917 1 0.761213 0.977886 0.503221
5521 1 0.78507 0.973566 0.500736
2858 1 0.795876 0.971832 0.502926
5454 1 0.810005 0.974071 0.50499
5388 1 0.824654 0.975198 0.507791
5594 1 0.824909 0.962516 0.501832
2662 1 0.838879 0.968229 0.504422
5460 1 0.843155 0.975359 0.510959
2869 1 0.847336 0.958753 0.50123
5528 1 0.853457 0.968094 0.50742
2934 1 0.85876 0.956919 0.501338
2732 1 0.868213 0.963262 0.508991
5590 1 0.884929 0.96449 0.512182
2952 1 0.511052 0.978686 0.511055
2804 1 0.520206 0.990084 0.511783
2883 1 0.531317 0.982749 0.506517
2879 1 0.535718 0.99252 0.511687
5323 1 0.543568 0.984961 0.506578
2817 1 0.546355 0.997402 0.511751
5468 1 0.5592 0.992179 0.509478
5547 1 0.555945 0.979707 0.503036
2955 1 0.571731 0.997777 0.510575
2884 1 0.569577 0.9849 0.50581
5406 1 0.581753 0.984267 0.502244
3041 1 0.587776 0.993748 0.506926
2885 1 0.60144 0.992349 0.504891
5467 1 0.594771 0.980623 0.501926
5208 1 0.60864 0.980059 0.503966
5550 1 0.62719 0.995544 0.509775
5346 1 0.615873 0.991816 0.50636
5544 1 0.631775 0.985008 0.505591
5481 1 0.645392 0.987628 0.507548
5274 1 0.659302 0.99098 0.509975
5407 1 0.664638 0.97828 0.500032
2896 1 0.676374 0.985754 0.505044
5476 1 0.686719 0.995717 0.51001
5425 1 0.689579 0.983024 0.502505
3115 1 0.715985 0.987126 0.506203
2915 1 0.701658 0.994336 0.507298
2911 1 0.731877 0.993433 0.509413
5506 1 0.73497 0.982988 0.503008
2845 1 0.746359 0.988427 0.509173
5591 1 0.760115 0.988977 0.508153
5522 1 0.773127 0.98195 0.504537
2907 1 0.770569 0.992687 0.512193
5437 1 0.784305 0.985756 0.50892
5502 1 0.800889 0.982837 0.50978
5595 1 0.816756 0.984102 0.511463
2185 1 0.996397 0.918334 0.515954
2525 1 0.980287 0.927527 0.516937
2528 1 0.994 0.929406 0.522453
2670 1 0.910585 0.955342 0.513018
2524 1 0.927524 0.951113 0.514138
2455 1 0.944702 0.950441 0.517169
2671 1 0.955561 0.955925 0.519982
2600 1 0.957618 0.944039 0.515766
2536 1 0.968027 0.947609 0.520877
2318 1 0.972698 0.936845 0.519132
2464 1 0.984642 0.941881 0.524488
2592 1 0.857836 0.975915 0.513919
3 1 0.878043 0.975294 0.515581
2593 1 0.902178 0.964657 0.516256
2740 1 0.910578 0.971792 0.520539
5456 1 0.894855 0.974404 0.518299
5099 1 0.920636 0.960756 0.518446
2736 1 0.924038 0.974983 0.522543
2521 1 0.936334 0.963549 0.520116
2385 1 0.948017 0.966522 0.522339
2673 1 0.966513 0.958415 0.523924
68 1 0.508807 0.990745 0.518318
3109 1 0.638647 0.997614 0.512701
5378 1 0.783365 0.995675 0.514348
2857 1 0.796016 0.993657 0.513908
2846 1 0.820758 0.998732 0.520491
5379 1 0.808933 0.995198 0.516036
2860 1 0.82675 0.99272 0.514122
5249 1 0.836016 0.985375 0.513381
1 1 0.836807 0.993467 0.519979
5448 1 0.851007 0.986101 0.517032
2664 1 0.866659 0.9852 0.519091
2451 1 0.856404 0.99583 0.522095
2666 1 0.887142 0.982471 0.522079
2744 1 0.878335 0.99159 0.522942
5598 1 0.903839 0.983682 0.522966
5386 1 0.938566 0.979081 0.522982
2465 1 0.978176 0.9534 0.527175
2595 1 0.990168 0.953084 0.531668
2608 1 0.953071 0.978077 0.528186
2605 1 0.963282 0.969283 0.527075
2612 1 0.974922 0.966026 0.531757
2681 1 0.997573 0.964486 0.537435
2472 1 0.986761 0.967821 0.533631
5319 1 0.866931 0.999314 0.52702
83 1 0.893039 0.995565 0.526616
2661 1 0.90682 0.998465 0.528918
2738 1 0.91622 0.987451 0.526585
143 1 0.922609 0.999801 0.532025
2739 1 0.93272 0.988168 0.528697
2733 1 0.946633 0.988611 0.531602
2452 1 0.961153 0.991034 0.536077
2541 1 0.963818 0.978656 0.533467
2603 1 0.977296 0.979456 0.53451
2602 1 0.973585 0.991716 0.53975
5390 1 0.999443 0.987557 0.546228
2470 1 0.992432 0.979935 0.539738
79 1 0.985374 0.991112 0.543329
158 1 0.991507 0.998 0.551584
ITEM: TIMESTEP
400000
ITEM: NUMBER OF ATOMS
5600
ITEM: BOX BOUNDS pp pp pp
-3.4335000000000008e+01 3.4335000000000008e+01
-3.3982836844501406e+01 3.3982836844501406e+01
-5.8860000000000014e+01 5.8860000000000014e+01
ITEM: ATOMS id type xs ys zs
1275 1 0.104295 0.491842 0.449303
1268 1 0.156717 0.487287 0.44905
1433 1 0.169153 0.494599 0.448057
1206 1 0.218414 0.429956 0.46166
1267 1 0.14661 0.451116 0.460123
1070 1 0.169835 0.451219 0.457442
994 1 0.156668 0.441367 0.459445
1002 1 0.172901 0.435942 0.460163
1056 1 0.183884 0.442327 0.459063
992 1 0.201606 0.435659 0.461108
1366 1 0.198339 0.450199 0.45915
1431 1 0.214041 0.44652 0.459689
1443 1 0.228007 0.45563 0.458858
1436 1 0.228256 0.440799 0.460789
1218 1 0.242722 0.447131 0.461916
1342 1 0.0530372 0.472235 0.461271
1403 1 0.0690609 0.474173 0.460308
4407 1 0.0793965 0.463699 0.462441
1338 1 0.09002 0.467703 0.459179
4401 1 0.105412 0.46764 0.456542
4198 1 0.120459 0.468798 0.456339
4186 1 0.117259 0.45789 0.461471
1278 1 0.110809 0.477596 0.452811
1477 1 0.130975 0.45728 0.460345
1204 1 0.143341 0.463536 0.457332
1208 1 0.133884 0.475956 0.453345
1350 1 0.148192 0.473463 0.4539
1281 1 0.160209 0.473969 0.45329
1064 1 0.15845 0.459686 0.456627
1137 1 0.174012 0.468621 0.454731
999 1 0.183058 0.455383 0.456768
1265 1 0.188723 0.475474 0.454157
1271 1 0.196388 0.4626 0.456702
1073 1 0.203687 0.472524 0.456631
1432 1 0.211723 0.459959 0.458124
1357 1 0.222334 0.467265 0.45881
1435 1 0.232382 0.475315 0.458887
1362 1 0.237276 0.461935 0.457472
1515 1 0.250053 0.473225 0.458361
1226 1 0.252295 0.458882 0.460896
1384 1 0.262698 0.467955 0.462696
1800 1 0.280049 0.46981 0.46262
1307 1 0.296443 0.473179 0.461969
1304 1 0.321805 0.465812 0.46284
1368 1 0.334941 0.472531 0.461542
4404 1 0.0174847 0.494824 0.455845
1479 1 0.0122048 0.482219 0.461006
4541 1 0.00551411 0.490222 0.457145
4399 1 0.031573 0.49429 0.455036
4479 1 0.0403619 0.48298 0.45829
4332 1 0.0242435 0.482054 0.458404
1544 1 0.0488294 0.494505 0.453098
4263 1 0.05694 0.485271 0.457856
1341 1 0.0845982 0.479137 0.457334
1541 1 0.072155 0.487693 0.45449
1135 1 0.0877969 0.490082 0.451442
1263 1 0.0982654 0.480581 0.454375
1409 1 0.1157 0.497105 0.448369
1339 1 0.122141 0.485178 0.450631
1196 1 0.129999 0.496492 0.449505
1406 1 0.142288 0.488118 0.450433
1351 1 0.176235 0.48181 0.452886
1505 1 0.185023 0.494693 0.450943
1430 1 0.214903 0.478474 0.455714
1426 1 0.198747 0.484686 0.452993
1354 1 0.21217 0.491185 0.454281
1133 1 0.22661 0.487163 0.456308
1503 1 0.240556 0.487795 0.457679
1513 1 0.256218 0.488288 0.459236
1288 1 0.267877 0.48089 0.460858
1222 1 0.270753 0.496853 0.459017
1437 1 0.282523 0.486315 0.46097
1453 1 0.300358 0.48642 0.459869
1382 1 0.289158 0.499302 0.459499
1647 1 0.316835 0.480431 0.459271
1378 1 0.318473 0.494217 0.455162
1585 1 0.330017 0.484388 0.457565
1525 1 0.336359 0.498381 0.454912
1094 1 0.34763 0.482949 0.458862
1313 1 0.362792 0.486484 0.457938
1242 1 0.351031 0.495533 0.45545
1161 1 0.377594 0.484102 0.461028
1660 1 0.379145 0.495501 0.456387
1379 1 0.392732 0.49303 0.459491
1870 1 0.411125 0.493782 0.46214
1154 1 0.213848 0.375048 0.475305
1060 1 0.218034 0.387374 0.473309
1139 1 0.230149 0.380409 0.475082
926 1 0.23125 0.389976 0.470388
985 1 0.24434 0.386263 0.473975
1475 1 0.162817 0.40923 0.47342
914 1 0.178374 0.409932 0.46843
1007 1 0.192161 0.402314 0.468646
989 1 0.181021 0.399524 0.473803
1071 1 0.203516 0.391567 0.472182
1297 1 0.205063 0.405507 0.467715
1205 1 0.216043 0.400989 0.469142
993 1 0.228079 0.401366 0.468797
1150 1 0.246523 0.398844 0.470104
990 1 0.25304 0.408655 0.469643
4059 1 0.105668 0.42584 0.474531
1214 1 0.120622 0.425642 0.47191
1266 1 0.136623 0.425675 0.472289
1061 1 0.143837 0.431995 0.465951
1195 1 0.152294 0.420814 0.47008
1059 1 0.165473 0.418882 0.4683
1065 1 0.159844 0.429176 0.464984
1134 1 0.189454 0.428329 0.461667
1199 1 0.175464 0.42313 0.464252
1132 1 0.192946 0.416228 0.465065
1062 1 0.204862 0.423916 0.463412
995 1 0.217341 0.413927 0.464505
1203 1 0.230092 0.419635 0.464068
1361 1 0.236838 0.430295 0.463621
1210 1 0.240525 0.413673 0.466697
1069 1 0.250701 0.425433 0.467357
1365 1 0.264508 0.420347 0.470319
1232 1 0.276595 0.430446 0.470812
1086 1 0.289692 0.433803 0.471547
4189 1 0.0386857 0.451509 0.470695
4253 1 0.0227912 0.452037 0.473006
4403 1 0.0567895 0.450229 0.469947
4184 1 0.0466526 0.441915 0.474978
4329 1 0.0803325 0.435058 0.472918
4120 1 0.065168 0.442144 0.475264
4191 1 0.0717821 0.455202 0.467815
1332 1 0.080543 0.448216 0.470266
1545 1 0.0894301 0.450662 0.465714
4324 1 0.0946739 0.436017 0.470657
1405 1 0.104154 0.445929 0.465643
1331 1 0.113899 0.436982 0.469011
4266 1 0.120326 0.447073 0.464783
1131 1 0.127964 0.435157 0.469083
1127 1 0.134243 0.444717 0.464937
1419 1 0.251799 0.439377 0.465359
1211 1 0.264456 0.43527 0.466986
1286 1 0.26278 0.450992 0.465199
1358 1 0.280279 0.444807 0.465999
1490 1 0.294363 0.445471 0.467605
1207 1 0.307825 0.436276 0.473023
1230 1 0.310124 0.450258 0.469414
1166 1 0.322256 0.442831 0.472736
1531 1 0.321548 0.456042 0.467755
1303 1 0.335214 0.446888 0.471958
1314 1 0.368075 0.45415 0.474101
1360 1 0.356584 0.448596 0.473899
4325 1 0.0218676 0.471329 0.463342
4261 1 0.00618168 0.474282 0.466868
4256 1 0.0146278 0.465736 0.469854
4262 1 0.0297185 0.462583 0.467475
4320 1 0.0342232 0.473639 0.463467
4259 1 0.0474647 0.461828 0.4671
1336 1 0.0622789 0.463997 0.464794
1333 1 0.10046 0.457796 0.461364
1364 1 0.274198 0.457128 0.463374
1376 1 0.291671 0.458076 0.464026
1383 1 0.309781 0.471009 0.461303
1657 1 0.304779 0.459506 0.46528
1352 1 0.334143 0.457837 0.466802
1301 1 0.345984 0.468933 0.463725
1374 1 0.357513 0.47572 0.461836
1447 1 0.349 0.456538 0.469444
1369 1 0.360412 0.465213 0.467803
1092 1 0.376145 0.461853 0.471174
1312 1 0.373941 0.471769 0.465755
1371 1 0.387349 0.467499 0.469846
1316 1 0.405882 0.462967 0.472969
1306 1 0.398016 0.471753 0.469621
1529 1 0.411095 0.474523 0.47012
1158 1 0.393246 0.458776 0.473994
1520 1 0.424827 0.473192 0.473412
1467 1 0.438764 0.473783 0.476322
1302 1 0.387906 0.479668 0.467253
1518 1 0.400914 0.483115 0.464988
1380 1 0.41985 0.485784 0.465671
1308 1 0.431117 0.485156 0.47041
1305 1 0.426048 0.496955 0.463458
1528 1 0.449998 0.486726 0.472511
1593 1 0.456433 0.497541 0.468332
1953 1 0.439566 0.494868 0.465749
1318 1 0.464788 0.48964 0.472425
4343 1 0.481442 0.491673 0.47276
938 1 0.226299 0.344344 0.48679
934 1 0.1891 0.362993 0.481651
921 1 0.175641 0.367461 0.483203
650 1 0.19895 0.356549 0.484493
859 1 0.205795 0.363395 0.47996
1149 1 0.215194 0.349475 0.483675
936 1 0.219279 0.360376 0.480277
1144 1 0.232318 0.354063 0.48387
998 1 0.228229 0.369053 0.479151
1209 1 0.253939 0.367247 0.482795
1072 1 0.240126 0.365129 0.480958
933 1 0.246915 0.356419 0.486114
4333 1 0.125385 0.383736 0.483936
4122 1 0.137636 0.389318 0.479886
4188 1 0.147212 0.374908 0.484636
930 1 0.152264 0.38672 0.479803
996 1 0.163321 0.375788 0.482925
1141 1 0.188216 0.387812 0.475627
1009 1 0.175634 0.384988 0.479296
1136 1 0.186734 0.374989 0.479744
1287 1 0.200528 0.378817 0.476727
1152 1 0.242685 0.376322 0.47803
792 1 0.255118 0.379041 0.479562
1215 1 0.267696 0.38408 0.480467
865 1 0.2676 0.368167 0.48703
1213 1 0.279124 0.379672 0.486387
4339 1 0.0570443 0.411832 0.48695
4129 1 0.0825426 0.402946 0.487761
4268 1 0.0933791 0.404366 0.484463
4190 1 0.102251 0.396118 0.487294
4340 1 0.114849 0.390768 0.485398
4258 1 0.109045 0.403319 0.481608
4405 1 0.122738 0.400279 0.479737
1192 1 0.11677 0.411878 0.476915
1402 1 0.139912 0.402592 0.47778
1335 1 0.147314 0.411129 0.474261
918 1 0.155285 0.398304 0.477549
4269 1 0.168443 0.394872 0.476898
1349 1 0.257093 0.395885 0.476796
864 1 0.266125 0.404814 0.474408
1001 1 0.2747 0.395156 0.480407
1292 1 0.285568 0.392445 0.4851
1279 1 0.285678 0.406037 0.481674
1143 1 0.297165 0.398378 0.486599
1082 1 0.297324 0.409782 0.481525
1220 1 0.326387 0.404199 0.484212
1289 1 0.310432 0.41043 0.482029
1231 1 0.337678 0.407927 0.486479
4112 1 0.0400383 0.432684 0.481387
3981 1 0.0242753 0.433306 0.482541
4183 1 0.0327597 0.421473 0.487284
4192 1 0.0584366 0.432232 0.479309
4264 1 0.0498171 0.421273 0.485288
1473 1 0.082924 0.414488 0.482341
4335 1 0.0723394 0.429151 0.479992
4187 1 0.07011 0.418085 0.483777
1126 1 0.0896198 0.424064 0.477591
4409 1 0.0995892 0.416899 0.478567
1130 1 0.129429 0.41485 0.476578
1359 1 0.278702 0.4173 0.475315
1299 1 0.295989 0.421523 0.47717
1153 1 0.322293 0.432094 0.477392
1355 1 0.310272 0.424498 0.477359
1298 1 0.325928 0.416455 0.481925
1651 1 0.335603 0.433124 0.478308
1293 1 0.339595 0.422263 0.482754
1015 1 0.35158 0.434202 0.479953
1448 1 0.352935 0.419298 0.484883
1163 1 0.366388 0.426884 0.483871
1321 1 0.387279 0.425492 0.48519
1540 1 0.404907 0.431508 0.486828
4247 1 0.0152212 0.447427 0.479376
4251 1 -0.000338287 0.445829 0.482555
4321 1 0.011307 0.437557 0.485868
4391 1 0.0295463 0.441818 0.47676
1088 1 0.344494 0.44723 0.475572
1233 1 0.36471 0.437981 0.479402
1294 1 0.382445 0.452572 0.475472
1091 1 0.380994 0.433674 0.481814
1387 1 0.389953 0.446107 0.479799
1370 1 0.376442 0.44329 0.477339
1173 1 0.397519 0.437355 0.482751
1516 1 0.403561 0.451732 0.478194
1241 1 0.409432 0.443253 0.483738
1388 1 0.432561 0.453349 0.483698
1390 1 0.422865 0.442541 0.486695
1450 1 0.419251 0.451483 0.480487
1680 1 0.445151 0.449802 0.487653
1468 1 0.457628 0.454679 0.484423
1609 1 0.470277 0.454679 0.48632
4245 1 0.00906222 0.456131 0.476224
4207 1 0.416351 0.46273 0.476206
1532 1 0.430734 0.462717 0.477227
1539 1 0.445192 0.462654 0.48025
1469 1 0.453176 0.476917 0.477232
1535 1 0.461805 0.466046 0.481141
1319 1 0.476009 0.467414 0.483868
1461 1 0.494115 0.469909 0.485816
1391 1 0.486302 0.456734 0.48708
1465 1 0.465636 0.477689 0.478376
1393 1 0.483535 0.47828 0.479057
1324 1 0.495162 0.491654 0.476109
932 1 0.219145 0.325194 0.496262
584 1 0.235232 0.322395 0.498878
872 1 0.248505 0.323111 0.49626
1011 1 0.265454 0.322273 0.497566
919 1 0.15047 0.342522 0.500209
922 1 0.164128 0.348109 0.495176
923 1 0.163756 0.336501 0.498301
860 1 0.176763 0.34258 0.492634
1008 1 0.184823 0.336487 0.496385
866 1 0.194266 0.33964 0.491164
1063 1 0.177091 0.327991 0.500456
1006 1 0.206094 0.330352 0.494081
1076 1 0.206655 0.343563 0.488069
863 1 0.217449 0.33669 0.490269
652 1 0.230926 0.334451 0.491596
1221 1 0.241033 0.345079 0.4883
1090 1 0.242285 0.332011 0.491563
940 1 0.25365 0.344679 0.490671
812 1 0.258966 0.333766 0.494923
1074 1 0.273326 0.336942 0.497159
1155 1 0.280605 0.347056 0.497049
983 1 0.096478 0.361752 0.497845
987 1 0.107805 0.353219 0.499791
916 1 0.120283 0.364117 0.494449
1124 1 0.122553 0.352751 0.500203
4124 1 0.108284 0.371035 0.494809
1058 1 0.135747 0.355111 0.495003
1055 1 0.143027 0.36455 0.490496
1128 1 0.15255 0.354353 0.494493
1367 1 0.156414 0.364685 0.487099
928 1 0.168687 0.355374 0.489075
857 1 0.185322 0.352017 0.489095
1216 1 0.260526 0.357469 0.488938
1291 1 0.266579 0.346543 0.492825
884 1 0.275584 0.359367 0.49259
997 1 0.282153 0.368559 0.491656
1290 1 0.299078 0.347357 0.50037
1499 1 0.28886 0.357276 0.496688
1148 1 0.299755 0.367727 0.493063
1234 1 0.307834 0.358752 0.498076
1223 1 0.321725 0.366633 0.496656
944 1 0.335815 0.363233 0.500181
4194 1 0.0545519 0.389246 0.498029
4199 1 0.065368 0.382604 0.496157
1261 1 0.0793722 0.382488 0.494839
1191 1 0.100703 0.38351 0.491205
1057 1 0.0926807 0.373606 0.494582
4195 1 0.116397 0.379023 0.488307
4267 1 0.131431 0.371599 0.488208
1138 1 0.294329 0.379156 0.491453
1212 1 0.310754 0.37539 0.494479
1068 1 0.307119 0.389812 0.490161
1421 1 0.320904 0.383757 0.493444
1156 1 0.330913 0.373582 0.494149
1016 1 0.344721 0.373779 0.496785
1162 1 0.335847 0.384496 0.494609
1089 1 0.359238 0.3793 0.49997
1164 1 0.349643 0.385849 0.493206
3973 1 0.0111352 0.411378 0.496225
4048 1 0.0258744 0.412323 0.494844
4116 1 0.0425595 0.407183 0.491312
4050 1 0.0360142 0.394179 0.498569
4051 1 0.0555666 0.399236 0.491586
4338 1 0.08788 0.391663 0.491184
1407 1 0.0697225 0.404586 0.488247
3980 1 0.0699187 0.393726 0.492733
1000 1 0.313418 0.402103 0.486466
1295 1 0.321699 0.394693 0.490148
1157 1 0.336654 0.39299 0.489185
1097 1 0.362787 0.392108 0.492259
1236 1 0.352027 0.399399 0.488399
1093 1 0.363281 0.410852 0.487746
1224 1 0.382101 0.400886 0.49606
1167 1 0.371974 0.403211 0.491298
1174 1 0.391031 0.409175 0.492325
959 1 0.404342 0.410493 0.496182
1102 1 0.39679 0.402213 0.499574
3768 1 -0.000932878 0.414789 0.499064
4042 1 0.00241496 0.42574 0.492177
4046 1 0.0165865 0.423379 0.489772
946 1 0.37889 0.415966 0.488375
1300 1 0.399514 0.419347 0.490283
1049 1 0.412904 0.419211 0.49321
1109 1 0.420659 0.413474 0.499344
1098 1 0.417916 0.432175 0.489971
1454 1 0.425666 0.426472 0.494997
1240 1 0.440479 0.421072 0.499633
1114 1 0.443478 0.43026 0.494478
1587 1 0.457519 0.429298 0.495093
1309 1 0.473568 0.432801 0.495944
1381 1 0.433813 0.440718 0.491263
1239 1 0.453392 0.44243 0.490656
1523 1 0.467454 0.443037 0.490412
4201 1 0.495861 0.447583 0.491237
1596 1 0.482501 0.442326 0.491088
1389 1 0.489876 0.433226 0.496376
723 1 0.210154 0.296583 0.510714
1003 1 0.1981 0.30151 0.509432
600 1 0.224814 0.292871 0.511795
924 1 0.231042 0.30342 0.507427
725 1 0.240099 0.291941 0.509019
870 1 0.253409 0.287545 0.510414
582 1 0.249382 0.301163 0.505588
1010 1 0.264641 0.294834 0.509313
1084 1 0.276735 0.300561 0.507067
868 1 0.287239 0.292937 0.511059
830 1 0.302859 0.29881 0.511159
1081 1 0.31553 0.305058 0.512353
991 1 0.145258 0.323746 0.510667
1075 1 0.15761 0.320066 0.511852
1054 1 0.168989 0.316709 0.511128
847 1 0.165882 0.327168 0.506414
718 1 0.183207 0.308427 0.511363
846 1 0.179066 0.319097 0.506431
724 1 0.21419 0.307998 0.506962
789 1 0.192679 0.313696 0.505749
576 1 0.208542 0.319557 0.501477
1146 1 0.225101 0.312917 0.501982
867 1 0.240648 0.311774 0.50275
1014 1 0.256563 0.314727 0.49989
727 1 0.265212 0.306424 0.502394
1083 1 0.278908 0.312553 0.501269
1087 1 0.292617 0.306467 0.50788
1078 1 0.292843 0.319121 0.503332
1012 1 0.30568 0.315849 0.507783
1085 1 0.321474 0.315758 0.509937
4196 1 0.100434 0.338001 0.509035
3918 1 0.11028 0.343212 0.505371
4123 1 0.0934997 0.349265 0.504465
988 1 0.127085 0.328079 0.51008
3847 1 0.116629 0.332515 0.510184
986 1 0.124621 0.34097 0.503131
984 1 0.137098 0.333959 0.504677
1005 1 0.138265 0.344011 0.499168
917 1 0.152741 0.331795 0.504466
851 1 0.194025 0.323849 0.500774
1217 1 0.2804 0.327083 0.499241
1079 1 0.303137 0.330542 0.503664
1225 1 0.290886 0.335891 0.500626
1140 1 0.314605 0.327619 0.507265
1147 1 0.322487 0.341114 0.505713
1151 1 0.309988 0.342924 0.502222
1296 1 0.329013 0.329332 0.510659
1026 1 0.339203 0.340038 0.510553
1401 1 0.0615369 0.370499 0.507431
4193 1 0.0816074 0.352338 0.508992
1334 1 0.0670425 0.356174 0.511559
3988 1 0.0743374 0.364846 0.50528
1262 1 0.0873946 0.35973 0.502529
1228 1 0.323332 0.35544 0.500358
1227 1 0.334361 0.34875 0.505881
1080 1 0.34552 0.354905 0.509009
1159 1 0.359001 0.359655 0.510024
948 1 0.350152 0.366732 0.504306
4118 1 0.0132336 0.386083 0.510985
3913 1 0.0412728 0.382102 0.504823
3979 1 0.0291281 0.379406 0.511344
4197 1 0.0231922 0.387059 0.504988
1471 1 0.046119 0.371107 0.510533
912 1 0.0541928 0.378238 0.501924
4128 1 0.0687343 0.375724 0.501697
1122 1 0.0826479 0.373052 0.500616
1025 1 0.365945 0.372553 0.507139
1027 1 0.376219 0.382826 0.5071
1181 1 0.38304 0.371752 0.51332
954 1 0.372578 0.388442 0.500446
1044 1 0.390851 0.384376 0.510172
4047 1 0.00986895 0.39634 0.506072
4052 1 0.0215121 0.401418 0.499569
3836 1 0.00151077 0.402507 0.502745
1022 1 0.388642 0.392571 0.502819
1237 1 0.402286 0.394624 0.507509
1238 1 0.409868 0.403859 0.502992
1252 1 0.424731 0.403521 0.507059
1244 1 0.433917 0.411511 0.503276
1032 1 0.413463 0.392916 0.51242
1377 1 0.43639 0.39929 0.511733
1310 1 0.449846 0.408456 0.507881
1178 1 0.465361 0.408784 0.508781
1040 1 0.483531 0.406208 0.513764
1172 1 0.45369 0.418672 0.502995
977 1 0.477319 0.415056 0.505111
1460 1 0.466488 0.422783 0.500546
1249 1 0.481601 0.427191 0.50105
1113 1 0.500304 0.429135 0.501502
1253 1 0.492013 0.417011 0.507822
659 1 0.257478 0.253588 0.524247
794 1 0.2704 0.255344 0.524766
810 1 0.284166 0.259954 0.524744
717 1 0.186528 0.279917 0.521072
786 1 0.199222 0.276293 0.52264
657 1 0.215679 0.272538 0.522697
661 1 0.230812 0.26178 0.521983
1145 1 0.236993 0.283985 0.513762
587 1 0.237149 0.272103 0.517857
800 1 0.22513 0.27985 0.516771
795 1 0.246806 0.263221 0.521715
588 1 0.24863 0.275512 0.514364
655 1 0.261189 0.265831 0.519062
654 1 0.276419 0.268983 0.519249
790 1 0.262599 0.277449 0.514097
1229 1 0.294579 0.27279 0.520524
879 1 0.287031 0.281456 0.516108
893 1 0.310041 0.27696 0.519155
802 1 0.321482 0.271806 0.523157
958 1 0.333382 0.280321 0.522703
858 1 0.144999 0.301449 0.52085
791 1 0.172561 0.287316 0.520395
1053 1 0.156208 0.294846 0.521761
793 1 0.168749 0.300964 0.515301
732 1 0.186087 0.293703 0.514462
797 1 0.198611 0.287741 0.515838
721 1 0.211185 0.28506 0.515937
806 1 0.274291 0.287187 0.513791
947 1 0.300653 0.285119 0.515049
1142 1 0.31424 0.292962 0.515963
1099 1 0.320374 0.283081 0.518267
1036 1 0.32882 0.296408 0.51915
882 1 0.344968 0.296001 0.520893
3989 1 0.0875351 0.324173 0.522003
3987 1 0.101063 0.321192 0.520214
1121 1 0.11675 0.319519 0.517518
3710 1 0.11033 0.312753 0.523669
656 1 0.129731 0.309337 0.520242
849 1 0.142997 0.313073 0.515268
4056 1 0.129666 0.319179 0.514783
920 1 0.155963 0.307988 0.516268
897 1 0.329339 0.30914 0.515042
1171 1 0.341526 0.308585 0.518856
1160 1 0.337192 0.325103 0.515969
1235 1 0.351639 0.317414 0.519408
1168 1 0.370869 0.322537 0.52445
1018 1 0.358951 0.305148 0.523901
3626 1 0.0348425 0.344789 0.523569
4053 1 0.0622511 0.336379 0.522429
4057 1 0.0602217 0.34674 0.518048
1264 1 0.0473016 0.345208 0.520213
843 1 0.0718967 0.34516 0.514947
4126 1 0.077781 0.332812 0.521191
4060 1 0.0851599 0.339254 0.513361
3846 1 0.104826 0.330343 0.514506
1125 1 0.0916751 0.329821 0.515443
1169 1 0.34784 0.332263 0.51733
1110 1 0.357496 0.345734 0.514499
1100 1 0.362435 0.331955 0.521006
1034 1 0.372303 0.345394 0.520792
3971 1 0.0123259 0.365869 0.522915
3764 1 0.0264442 0.359707 0.520891
1129 1 0.0389939 0.356999 0.517975
3911 1 0.0362255 0.370226 0.51482
4119 1 0.0542298 0.358729 0.513188
878 1 0.371763 0.366001 0.513426
894 1 0.389372 0.347463 0.522464
1035 1 0.369381 0.35519 0.51573
1028 1 0.382977 0.361569 0.518012
1108 1 0.402824 0.360108 0.520525
1170 1 0.411095 0.370115 0.521274
3772 1 0.0213603 0.374062 0.517354
3908 1 0.00602838 0.378939 0.51666
1165 1 0.395996 0.371586 0.517148
1104 1 0.40544 0.382441 0.514888
1177 1 0.425851 0.371606 0.524642
1024 1 0.419473 0.381334 0.519381
1048 1 0.426987 0.391256 0.514405
1180 1 0.436429 0.381455 0.521479
3781 1 0.451408 0.379678 0.523912
1183 1 0.466767 0.386819 0.520029
908 1 0.500512 0.388484 0.523024
3646 1 0.4908 0.381391 0.524258
4061 1 0.446743 0.392624 0.518644
1111 1 0.454292 0.399946 0.515163
1179 1 0.470247 0.40053 0.514984
1175 1 0.479755 0.392643 0.519806
1042 1 0.494903 0.39747 0.517733
202 1 0.406076 0.00100618 0.535375
203 1 0.433324 0.00727664 0.536118
127 1 0.449547 0.00460417 0.533089
269 1 0.454137 0.0154457 0.536978
2942 1 0.460905 0.00244241 0.529292
280 1 0.469243 0.0153539 0.534372
273 1 0.476223 0.00486033 0.529947
416 1 0.486625 0.0146401 0.530126
2872 1 0.4907 0.00299804 0.526942
3223 1 0.497584 0.0221988 0.534162
5540 1 0.480256 0.0241006 0.538271
1004 1 0.238327 0.240976 0.532295
598 1 0.248471 0.232243 0.534941
945 1 0.264533 0.233686 0.534258
662 1 0.278218 0.236291 0.534128
731 1 0.291382 0.236576 0.535548
734 1 0.307492 0.237241 0.534392
572 1 0.199343 0.248208 0.537323
645 1 0.208667 0.25117 0.532917
862 1 0.219903 0.260787 0.527697
580 1 0.221382 0.240651 0.53498
796 1 0.227522 0.250458 0.52935
523 1 0.254323 0.242947 0.529233
666 1 0.241418 0.252092 0.525299
735 1 0.269691 0.243415 0.528645
1219 1 0.298247 0.259577 0.525811
747 1 0.285081 0.248006 0.527703
730 1 0.300947 0.247988 0.530922
736 1 0.319516 0.239224 0.536238
869 1 0.313883 0.25253 0.530294
675 1 0.329353 0.249321 0.534022
880 1 0.339705 0.25775 0.530495
807 1 0.345392 0.248922 0.536911
824 1 0.375041 0.25881 0.537303
913 1 0.127216 0.272493 0.536409
712 1 0.113052 0.278159 0.535235
856 1 0.142527 0.270271 0.536365
850 1 0.140114 0.281563 0.531103
726 1 0.156136 0.278699 0.53113
3990 1 0.156191 0.264897 0.536639
720 1 0.167585 0.27131 0.532961
370 1 0.188421 0.270747 0.527533
647 1 0.181755 0.263685 0.534594
788 1 0.175396 0.277511 0.52769
658 1 0.197067 0.257991 0.532995
1067 1 0.203696 0.266428 0.528987
871 1 0.310317 0.262558 0.525263
877 1 0.322836 0.262301 0.528044
822 1 0.340763 0.269736 0.52779
1096 1 0.352736 0.263458 0.531386
1020 1 0.352655 0.275786 0.527326
1101 1 0.363397 0.268793 0.532916
949 1 0.375741 0.27594 0.535821
4200 1 0.0875912 0.303645 0.533497
3914 1 0.100201 0.291619 0.535703
853 1 0.104048 0.302913 0.531478
649 1 0.117298 0.303235 0.525694
3986 1 0.112375 0.292019 0.532179
729 1 0.125928 0.285281 0.532708
452 1 0.129866 0.296026 0.525803
586 1 0.147227 0.290204 0.526185
854 1 0.162655 0.286912 0.526877
1019 1 0.345411 0.284223 0.524368
952 1 0.358214 0.292035 0.525196
955 1 0.365511 0.281909 0.530464
892 1 0.370552 0.297814 0.530216
891 1 0.38044 0.291756 0.535207
828 1 0.392152 0.29714 0.536915
3841 1 0.0270603 0.325971 0.537276
3631 1 0.0521737 0.314605 0.536203
4054 1 0.0697605 0.314363 0.534241
3778 1 0.0823867 0.317158 0.527779
1123 1 0.0955863 0.312376 0.527847
957 1 0.36983 0.31094 0.529484
1017 1 0.382524 0.309362 0.531965
1037 1 0.383928 0.325318 0.530676
1021 1 0.409802 0.309923 0.536035
1023 1 0.396515 0.309353 0.53558
834 1 0.39942 0.322034 0.533338
898 1 0.412272 0.321628 0.534046
817 1 0.423338 0.31635 0.536419
902 1 0.435613 0.324539 0.53535
3983 1 0.0110948 0.329796 0.536413
3696 1 0.00805369 0.341802 0.531291
841 1 0.020205 0.336879 0.53141
4058 1 0.0412496 0.32618 0.533377
3562 1 0.0334511 0.335652 0.530365
3848 1 0.0582006 0.325949 0.529993
3844 1 0.0491326 0.335695 0.526763
4130 1 0.0709166 0.328005 0.528068
1030 1 0.377521 0.336122 0.524619
975 1 0.39489 0.334127 0.528165
1247 1 0.408313 0.334092 0.529967
1029 1 0.403117 0.348126 0.526488
963 1 0.425493 0.331933 0.531748
1039 1 0.418357 0.345069 0.528538
820 1 0.438502 0.342181 0.53199
3647 1 0.451693 0.345627 0.532411
910 1 0.44995 0.331084 0.535054
962 1 0.46189 0.336556 0.536175
973 1 0.472831 0.34623 0.535994
3837 1 0.00891834 0.355094 0.526409
1194 1 0.0208661 0.348651 0.526855
1103 1 0.417811 0.358556 0.526203
1033 1 0.431294 0.355647 0.528822
960 1 0.445694 0.358065 0.531641
1046 1 0.457925 0.365792 0.530547
3579 1 0.463207 0.353136 0.534228
3641 1 0.471756 0.363534 0.531805
3508 1 0.484625 0.353708 0.535234
3580 1 0.496858 0.360211 0.534683
3645 1 0.485426 0.367628 0.530077
966 1 0.440337 0.368889 0.527611
1031 1 0.478703 0.376599 0.525514
1251 1 0.46401 0.376432 0.525751
3643 1 0.49793 0.372188 0.528131
2786 1 0.340341 0.00519961 0.550141
2648 1 0.358368 0.000357627 0.545583
62 1 0.379345 0.00124855 0.541725
333 1 0.371459 0.0082604 0.546127
55 1 0.387405 0.0118715 0.543886
54 1 0.379827 0.0178447 0.548111
2713 1 0.402155 0.0115746 0.541197
274 1 0.4136 0.0196079 0.546013
60 1 0.415755 0.0123606 0.53866
408 1 0.427612 0.0196629 0.541828
335 1 0.442219 0.0170503 0.540189
2787 1 0.395647 0.0223254 0.54848
267 1 0.411517 0.0294073 0.550525
464 1 0.42571 0.0295082 0.547667
394 1 0.439691 0.0296131 0.545454
270 1 0.450688 0.0298988 0.542276
483 1 0.463434 0.0255453 0.539508
410 1 0.459768 0.0369396 0.546371
277 1 0.472753 0.0346714 0.542282
210 1 0.493828 0.0328597 0.536897
209 1 0.484249 0.0384794 0.541475
406 1 0.44601 0.0426143 0.548644
268 1 0.458055 0.0535617 0.548936
66 1 0.471004 0.047972 0.545934
271 1 0.470046 0.0615588 0.549242
135 1 0.481838 0.0512603 0.544942
344 1 0.481764 0.0647492 0.547669
418 1 0.497234 0.047045 0.542583
417 1 0.493343 0.0623017 0.54702
2793 1 0.490945 0.0731445 0.550052
714 1 0.192572 0.211687 0.552114
567 1 0.20742 0.216709 0.549042
585 1 0.221176 0.215718 0.546505
642 1 0.239337 0.20784 0.546543
380 1 0.223635 0.201161 0.550266
440 1 0.253491 0.213735 0.545336
513 1 0.249344 0.200476 0.549341
518 1 0.267147 0.214275 0.544083
386 1 0.28093 0.213741 0.543813
524 1 0.264482 0.201029 0.547292
520 1 0.27693 0.201547 0.548115
511 1 0.29219 0.205598 0.549561
516 1 0.294252 0.215649 0.544175
591 1 0.307018 0.204236 0.549629
667 1 0.321005 0.211731 0.546741
519 1 0.33289 0.214577 0.544639
671 1 0.33939 0.198472 0.548412
741 1 0.350317 0.211122 0.546564
939 1 0.36665 0.20616 0.548397
941 1 0.356663 0.197127 0.549113
881 1 0.380264 0.20747 0.550067
784 1 0.146523 0.230891 0.550033
772 1 0.131878 0.238092 0.54869
929 1 0.159367 0.235973 0.545588
3780 1 0.168116 0.228254 0.548921
845 1 0.157942 0.221152 0.550263
716 1 0.182564 0.221132 0.549849
911 1 0.183329 0.235903 0.54432
444 1 0.19311 0.225834 0.546758
848 1 0.205389 0.227548 0.544698
925 1 0.209317 0.237005 0.53886
722 1 0.196103 0.23622 0.540047
515 1 0.220901 0.228894 0.542308
728 1 0.232586 0.229506 0.53716
651 1 0.234441 0.220629 0.544335
371 1 0.24514 0.22354 0.540795
583 1 0.258951 0.2252 0.53922
660 1 0.274007 0.226783 0.538601
653 1 0.288318 0.226142 0.540076
733 1 0.309444 0.216834 0.54421
663 1 0.30498 0.227464 0.539484
574 1 0.321928 0.225108 0.540682
1077 1 0.333893 0.238078 0.53886
737 1 0.338615 0.22685 0.541574
536 1 0.349692 0.224414 0.543069
943 1 0.363612 0.218182 0.544984
670 1 0.36379 0.232268 0.542987
874 1 0.350628 0.238788 0.540797
808 1 0.375985 0.219961 0.545992
819 1 0.389186 0.222668 0.548586
609 1 0.37706 0.234716 0.544132
805 1 0.389268 0.236237 0.545583
876 1 0.402059 0.23158 0.549088
751 1 0.422593 0.237586 0.550283
499 1 0.107003 0.25039 0.548444
780 1 0.0904038 0.252614 0.549463
3920 1 0.118013 0.241582 0.548819
781 1 0.12188 0.253829 0.547436
4055 1 0.134674 0.248612 0.545061
861 1 0.145984 0.244014 0.545432
3849 1 0.145848 0.257916 0.542694
799 1 0.169979 0.257713 0.537838
855 1 0.159404 0.252326 0.543912
842 1 0.171459 0.243848 0.544046
644 1 0.186095 0.249473 0.537815
1013 1 0.359445 0.253063 0.537021
816 1 0.367801 0.243236 0.538743
942 1 0.382604 0.247196 0.540399
803 1 0.396497 0.252661 0.540781
470 1 0.399631 0.242992 0.543925
542 1 0.409921 0.256205 0.542974
883 1 0.410622 0.240638 0.547487
798 1 0.43509 0.246597 0.548996
953 1 0.420113 0.252546 0.548142
887 1 0.443504 0.25619 0.549259
3709 1 0.0497378 0.280906 0.547085
982 1 0.0573124 0.269845 0.54993
3984 1 0.067099 0.277935 0.544562
703 1 0.0784615 0.264488 0.54823
3919 1 0.0857747 0.276652 0.544192
915 1 0.109433 0.26241 0.544655
778 1 0.0948349 0.265107 0.544829
3777 1 0.105541 0.27322 0.540863
3985 1 0.0960832 0.280969 0.539109
3850 1 0.119184 0.264354 0.540252
931 1 0.133388 0.262488 0.542365
951 1 0.388913 0.267745 0.538405
744 1 0.408226 0.282942 0.541473
961 1 0.403771 0.268953 0.541182
680 1 0.418342 0.271392 0.543385
833 1 0.430302 0.263217 0.546933
896 1 0.432208 0.276263 0.544573
766 1 0.446789 0.268067 0.547179
1043 1 0.444565 0.283281 0.544627
886 1 0.457771 0.276554 0.549229
774 1 0.00698276 0.295682 0.547581
773 1 0.0232609 0.288739 0.549154
3704 1 0.0390053 0.291288 0.546857
3912 1 0.0288229 0.302751 0.545223
3910 1 0.0588683 0.291364 0.543912
3776 1 0.0465629 0.301296 0.542624
981 1 0.0744479 0.299734 0.538387
3915 1 0.0720881 0.291674 0.543307
1051 1 0.0856456 0.291258 0.539112
888 1 0.390271 0.284446 0.539815
825 1 0.4046 0.296691 0.538745
964 1 0.424192 0.285215 0.542612
967 1 0.418325 0.299093 0.538269
764 1 0.435099 0.294985 0.542066
900 1 0.446702 0.300126 0.542283
1038 1 0.469736 0.285373 0.549204
1106 1 0.457321 0.29076 0.547536
1176 1 0.471008 0.30044 0.545997
965 1 0.480766 0.293801 0.54999
3916 1 0.0153502 0.304288 0.545267
3559 1 0.00225722 0.317141 0.541479
3632 1 0.0194917 0.316405 0.542209
3707 1 -0.000415528 0.305982 0.544546
3982 1 0.0377037 0.313602 0.540362
3633 1 0.0595537 0.305622 0.539406
821 1 0.434642 0.309478 0.539621
956 1 0.446897 0.317761 0.540174
899 1 0.459261 0.307438 0.54542
1041 1 0.472836 0.31779 0.544852
968 1 0.462016 0.322124 0.538639
3571 1 0.485491 0.307513 0.547891
3718 1 0.499004 0.319684 0.547954
969 1 0.475797 0.333213 0.538849
1112 1 0.485803 0.325024 0.54581
3715 1 0.487551 0.33986 0.540213
3572 1 0.497986 0.332511 0.545407
3716 1 0.496024 0.34822 0.539825
2752 1 0.00817989 0.0180584 0.560092
2758 1 0.0119846 0.0053881 0.556755
97 1 0.0225991 0.0160374 0.560706
2747 1 0.0391994 0.0107455 0.562169
21 1 0.0284448 0.00428184 0.558197
319 1 0.258059 0.0227525 0.562328
47 1 0.270904 0.000909723 0.559752
48 1 0.272682 0.0171708 0.560817
124 1 0.286146 0.0091701 0.557957
33 1 0.291721 0.0208014 0.557736
2781 1 0.301831 0.014429 0.556931
190 1 0.29958 0.000578295 0.555556
193 1 0.313153 0.00425126 0.553947
2784 1 0.317491 0.0198493 0.557006
258 1 0.342609 0.0188284 0.555552
52 1 0.327567 0.0101591 0.555133
263 1 0.355935 0.0128954 0.55118
259 1 0.367344 0.0197633 0.55329
80 1 0.0211025 0.0287035 0.562396
187 1 0.269682 0.0330602 0.560604
2622 1 0.281417 0.0301412 0.558553
254 1 0.29597 0.0348574 0.558379
126 1 0.307665 0.028397 0.559714
184 1 0.311751 0.0418986 0.560003
262 1 0.323673 0.0362261 0.559748
340 1 0.331263 0.0255218 0.558297
329 1 0.343411 0.0336485 0.558969
59 1 0.354244 0.0264018 0.557621
320 1 0.356211 0.0432985 0.560125
265 1 0.37013 0.0336451 0.554626
338 1 0.381037 0.0299124 0.550607
611 1 0.397542 0.0374244 0.551702
337 1 0.431712 0.0394593 0.55134
336 1 0.41513 0.0414512 0.551585
57 1 0.296919 0.0495065 0.562553
318 1 0.283884 0.0585353 0.562336
121 1 0.282042 0.0449044 0.559992
2788 1 0.312672 0.0554302 0.562581
327 1 0.326177 0.0494643 0.561418
125 1 0.339409 0.0447648 0.561257
401 1 0.350473 0.057177 0.560999
266 1 0.369372 0.0455917 0.558012
525 1 0.362355 0.0590219 0.560225
331 1 0.383023 0.0442313 0.556085
326 1 0.379333 0.0578262 0.560012
540 1 0.393272 0.0533543 0.555332
207 1 0.40594 0.0501828 0.553677
341 1 0.427191 0.0543847 0.552481
475 1 0.415525 0.0582262 0.552958
132 1 0.439034 0.0546093 0.551433
272 1 0.449616 0.0640032 0.5528
324 1 0.356393 0.0741366 0.562356
397 1 0.367345 0.080672 0.560198
479 1 0.389768 0.0680116 0.558456
462 1 0.373068 0.0684748 0.560032
544 1 0.383062 0.0825824 0.560792
549 1 0.402937 0.0672596 0.555289
400 1 0.396963 0.0804917 0.559637
411 1 0.412873 0.0833727 0.556711
414 1 0.4186 0.0714796 0.553917
409 1 0.429568 0.0846479 0.556632
481 1 0.43153 0.0692771 0.5552
3013 1 0.442211 0.0774524 0.555502
420 1 0.474237 0.0736681 0.551824
485 1 0.459949 0.0736636 0.553923
2892 1 0.499527 0.0846852 0.550759
619 1 0.486467 0.085145 0.553272
407 1 0.359324 0.0927394 0.563112
339 1 0.374465 0.0967123 0.561143
465 1 0.40375 0.0940478 0.557797
466 1 0.391418 0.0960937 0.560582
412 1 0.406839 0.106525 0.559677
415 1 0.417822 0.0983198 0.557799
548 1 0.432746 0.0998057 0.557108
134 1 0.443627 0.0931989 0.558115
419 1 0.454994 0.0900675 0.555047
757 1 0.447904 0.105279 0.558501
343 1 0.461656 0.103598 0.55703
3229 1 0.470122 0.0882078 0.554729
551 1 0.478353 0.0998111 0.555527
3152 1 0.491049 0.0988693 0.553898
174 1 0.281125 0.115035 0.56311
322 1 0.289452 0.125117 0.561867
469 1 0.32844 0.126596 0.562009
395 1 0.365975 0.124389 0.561542
264 1 0.350582 0.11761 0.561939
403 1 0.363208 0.110186 0.562001
332 1 0.380689 0.123448 0.559923
482 1 0.382039 0.109929 0.560782
537 1 0.395475 0.111816 0.559489
393 1 0.400604 0.121995 0.558997
539 1 0.422771 0.111102 0.558219
809 1 0.414323 0.122021 0.559726
402 1 0.42754 0.126802 0.557164
413 1 0.437354 0.114024 0.557055
347 1 0.454173 0.119923 0.558224
473 1 0.441721 0.126993 0.557212
342 1 0.471891 0.113841 0.555663
763 1 0.466227 0.127286 0.556484
478 1 0.478249 0.12661 0.554821
484 1 0.498282 0.11421 0.554855
612 1 0.48575 0.113634 0.554253
456 1 0.257306 0.149663 0.563207
436 1 0.271084 0.144735 0.561514
253 1 0.279436 0.136271 0.562294
457 1 0.292757 0.142353 0.561664
460 1 0.306432 0.148925 0.562731
399 1 0.318498 0.151201 0.562392
404 1 0.340697 0.129262 0.560695
528 1 0.332065 0.143117 0.561389
463 1 0.346914 0.144922 0.560953
601 1 0.35468 0.133804 0.56185
530 1 0.363916 0.148107 0.559343
605 1 0.371814 0.136224 0.560027
674 1 0.389292 0.131977 0.559437
679 1 0.38262 0.146799 0.558225
669 1 0.407923 0.134142 0.557853
606 1 0.395949 0.144034 0.557533
533 1 0.412861 0.149687 0.556132
602 1 0.424756 0.140732 0.557032
815 1 0.438753 0.140917 0.555852
604 1 0.450855 0.135781 0.556347
608 1 0.464346 0.141228 0.556827
755 1 0.493217 0.131253 0.554823
745 1 0.479799 0.142005 0.555951
756 1 0.495014 0.146694 0.55425
379 1 0.140899 0.171034 0.560808
508 1 0.200732 0.172039 0.560368
439 1 0.204697 0.159776 0.561921
387 1 0.220836 0.164268 0.56037
453 1 0.238548 0.165764 0.560683
592 1 0.254671 0.164146 0.558207
454 1 0.269794 0.161386 0.558677
248 1 0.282788 0.166248 0.559493
455 1 0.283597 0.152511 0.561492
180 1 0.296153 0.158671 0.562108
593 1 0.300675 0.171856 0.559687
317 1 0.311559 0.164108 0.561188
526 1 0.326699 0.163672 0.559406
398 1 0.340526 0.159991 0.559478
603 1 0.354881 0.159469 0.558847
873 1 0.363321 0.166671 0.555796
801 1 0.371518 0.156361 0.557313
677 1 0.376623 0.168382 0.556332
814 1 0.388207 0.159908 0.556711
811 1 0.400663 0.157734 0.554616
678 1 0.406346 0.170727 0.553659
472 1 0.427229 0.153573 0.554292
742 1 0.415945 0.164567 0.555337
597 1 0.427598 0.168661 0.553342
477 1 0.439785 0.155205 0.554661
547 1 0.455264 0.152608 0.555251
471 1 0.444262 0.167106 0.554226
616 1 0.460113 0.166379 0.55351
681 1 0.471212 0.155553 0.556235
895 1 0.475784 0.170761 0.553936
690 1 0.499465 0.164591 0.554313
534 1 0.486447 0.16046 0.554679
569 1 0.110754 0.195191 0.560369
302 1 0.128042 0.186994 0.558632
298 1 0.126289 0.1743 0.560923
646 1 0.111913 0.182845 0.562718
568 1 0.139986 0.185944 0.557903
639 1 0.152156 0.176098 0.559341
634 1 0.14592 0.196055 0.555864
514 1 0.16678 0.175558 0.561179
648 1 0.159358 0.186103 0.558216
433 1 0.175216 0.190999 0.557172
505 1 0.178999 0.174889 0.560549
446 1 0.191499 0.182821 0.558386
787 1 0.204356 0.189599 0.556169
935 1 0.214224 0.17609 0.559236
442 1 0.221121 0.188792 0.552952
373 1 0.227786 0.175162 0.557615
522 1 0.234827 0.183003 0.554809
739 1 0.236989 0.19637 0.550564
673 1 0.258699 0.17829 0.555997
391 1 0.245826 0.174517 0.556803
719 1 0.247404 0.187425 0.551067
740 1 0.274067 0.177724 0.555763
449 1 0.276177 0.18984 0.552487
517 1 0.261645 0.189486 0.55138
527 1 0.288256 0.181349 0.556993
384 1 0.291046 0.192795 0.551856
599 1 0.302925 0.187586 0.555047
665 1 0.316092 0.191417 0.553275
532 1 0.316666 0.179008 0.558323
804 1 0.347019 0.175204 0.559015
610 1 0.329793 0.188637 0.554827
668 1 0.334594 0.177641 0.55924
664 1 0.346891 0.185837 0.553476
613 1 0.362732 0.179747 0.555918
950 1 0.369859 0.192823 0.551534
538 1 0.386606 0.19277 0.553129
937 1 0.378689 0.179425 0.552069
746 1 0.408033 0.183793 0.554454
596 1 0.393327 0.175893 0.555665
676 1 0.400358 0.194158 0.552739
468 1 0.421672 0.180159 0.553581
832 1 0.420308 0.19382 0.552746
672 1 0.435567 0.180438 0.553721
535 1 0.45184 0.180135 0.554903
405 1 0.447855 0.192965 0.555269
607 1 0.462159 0.193934 0.557152
687 1 0.464176 0.181602 0.555432
829 1 0.476203 0.184853 0.556032
546 1 0.489074 0.174669 0.556863
621 1 0.492417 0.191367 0.555556
3206 1 0.0465915 0.217254 0.560209
496 1 0.0593962 0.205374 0.5626
565 1 0.0710934 0.207106 0.562379
427 1 0.0851551 0.218667 0.557441
502 1 0.0972702 0.201578 0.560961
844 1 0.0975143 0.213442 0.559249
783 1 0.108964 0.206955 0.558515
708 1 0.124203 0.214147 0.555512
641 1 0.12149 0.200129 0.557861
927 1 0.134982 0.202585 0.556392
785 1 0.149732 0.208782 0.552654
512 1 0.161458 0.199083 0.5557
713 1 0.168876 0.210421 0.551643
581 1 0.181029 0.203323 0.552555
636 1 0.192369 0.196813 0.554413
521 1 0.206221 0.202441 0.552025
578 1 0.326599 0.200555 0.549385
682 1 0.395035 0.206124 0.551597
875 1 0.402415 0.218365 0.551207
752 1 0.409003 0.202413 0.55254
743 1 0.423783 0.207922 0.551206
545 1 0.43557 0.194302 0.55394
750 1 0.439832 0.209629 0.552392
890 1 0.452441 0.20729 0.554266
694 1 0.46588 0.207537 0.556737
3507 1 0.480279 0.213287 0.555261
543 1 0.478983 0.199368 0.55595
696 1 0.494153 0.207944 0.556771
701 1 0.0207751 0.238258 0.558547
3359 1 0.0160599 0.224198 0.56106
3360 1 0.0034597 0.236657 0.561794
355 1 0.0317083 0.215638 0.561536
495 1 0.0309237 0.229888 0.560036
635 1 0.0477294 0.230461 0.558136
494 1 0.0598207 0.218254 0.559303
782 1 0.0620864 0.230979 0.556461
428 1 0.0720769 0.220836 0.559247
501 1 0.0765584 0.234726 0.555789
589 1 0.0890793 0.2347 0.552512
510 1 0.0974656 0.225396 0.555228
504 1 0.110764 0.231828 0.553829
638 1 0.111928 0.219653 0.555712
715 1 0.126773 0.226915 0.550365
707 1 0.138464 0.216756 0.551431
813 1 0.416896 0.223882 0.550366
826 1 0.433205 0.224414 0.551029
889 1 0.442755 0.236874 0.550702
753 1 0.449088 0.222741 0.552528
683 1 0.459883 0.235621 0.552052
827 1 0.464689 0.219473 0.554887
885 1 0.473928 0.229728 0.554518
835 1 0.497202 0.236824 0.556595
754 1 0.487684 0.227345 0.555416
3565 1 0.00454787 0.251938 0.558916
631 1 0.0221435 0.252982 0.556484
562 1 0.0376506 0.254183 0.553675
633 1 0.0352681 0.242141 0.55658
3144 1 0.0533095 0.255242 0.552874
637 1 0.0488621 0.242747 0.554559
776 1 0.062612 0.246588 0.554761
425 1 0.0775677 0.247463 0.552136
564 1 0.0661285 0.259913 0.550999
579 1 0.100366 0.239155 0.55135
818 1 0.452914 0.247994 0.550763
971 1 0.462597 0.259237 0.551464
749 1 0.467976 0.246592 0.552654
769 1 0.476926 0.257967 0.552529
823 1 0.481905 0.243473 0.554213
767 1 0.494583 0.254881 0.553554
704 1 0.0138 0.27827 0.550786
632 1 0.0132302 0.262507 0.554808
709 1 0.0333675 0.279855 0.551245
710 1 0.0287092 0.26757 0.551216
852 1 0.0447138 0.26891 0.551097
758 1 0.47197 0.271695 0.55053
760 1 0.498237 0.271616 0.553344
761 1 0.483574 0.279586 0.551647
762 1 0.485978 0.26535 0.554224
698 1 0.498219 0.299992 0.551239
970 1 0.496582 0.286826 0.551363
163 1 0.0539251 0.0106864 0.564932
2760 1 0.074308 -0.00105096 0.563984
91 1 0.0680763 0.0111842 0.567107
16 1 0.0858966 0.00997239 0.567775
160 1 0.100878 0.0106554 0.569195
229 1 0.113337 0.00201787 0.570877
2748 1 0.118812 0.0133815 0.574197
313 1 0.130619 0.0049217 0.57425
44 1 0.199168 0.0100895 0.57457
378 1 0.21464 0.0098498 0.56974
116 1 0.226841 0.00186933 0.565781
2697 1 0.229834 0.0130422 0.568525
2770 1 0.256107 0.00982757 0.5629
246 1 0.240837 0.0126847 0.565947
5 1 0.00533337 0.0303771 0.563016
82 1 0.0151573 0.0393184 0.565023
2753 1 0.0339676 0.0226834 0.563485
291 1 0.0332146 0.039279 0.564461
101 1 0.0463221 0.0266438 0.564992
245 1 0.0588879 0.0243718 0.566285
18 1 0.0484412 0.0416122 0.566235
2677 1 0.0623091 0.0389086 0.568667
2755 1 0.0726455 0.0249921 0.569719
224 1 0.0804732 0.0373473 0.571132
212 1 0.104402 0.0262081 0.571456
218 1 0.0892859 0.0229837 0.571018
23 1 0.0982723 0.0421793 0.573201
325 1 0.209126 0.0213953 0.572315
103 1 0.207802 0.0360404 0.572939
123 1 0.222727 0.0289927 0.569595
181 1 0.235378 0.0281438 0.566786
182 1 0.248691 0.0271553 0.565184
321 1 0.257235 0.0376074 0.5642
144 1 0.0133048 0.0518693 0.566866
2735 1 0.000470683 0.0603129 0.567645
88 1 0.0270233 0.0517811 0.565917
353 1 0.0303607 0.0628981 0.567957
14 1 0.0414743 0.0553355 0.565946
2937 1 0.0577151 0.05411 0.568375
213 1 0.0743233 0.0625088 0.571198
296 1 0.0712167 0.0508818 0.57101
3150 1 0.0852624 0.051059 0.573693
185 1 0.213047 0.0593168 0.572706
388 1 0.203798 0.0504091 0.574764
239 1 0.219159 0.0435452 0.571979
2685 1 0.230065 0.0447986 0.568567
257 1 0.225592 0.0581091 0.570476
243 1 0.244327 0.0422841 0.565947
104 1 0.239316 0.0562523 0.567404
46 1 0.257245 0.051274 0.563166
375 1 0.252787 0.0626492 0.566898
252 1 0.269409 0.0474854 0.561811
330 1 0.268661 0.0636368 0.564345
40 1 0.297304 0.0629521 0.563906
179 1 0.335687 0.0600765 0.562189
216 1 0.00862542 0.0760892 0.570688
149 1 0.014866 0.0640396 0.567155
81 1 0.0205616 0.077823 0.569222
2543 1 0.0451618 0.067556 0.568157
281 1 0.0349463 0.0782997 0.5695
147 1 0.0602011 0.0673364 0.569353
27 1 0.0529958 0.0806566 0.569053
3077 1 0.0696787 0.0761285 0.571462
3148 1 0.0821606 0.0765307 0.573957
249 1 0.191123 0.0778418 0.57427
170 1 0.199925 0.0670397 0.57446
312 1 0.205844 0.0819773 0.570349
250 1 0.214926 0.0715936 0.571356
41 1 0.220468 0.0858555 0.567917
458 1 0.229237 0.0696987 0.568713
38 1 0.232525 0.0823284 0.568876
244 1 0.242554 0.0730096 0.567035
445 1 0.251633 0.0831195 0.567399
98 1 0.25964 0.0735288 0.564191
507 1 0.271423 0.0801961 0.564602
260 1 0.283094 0.0711464 0.563386
459 1 0.294624 0.0768516 0.564325
114 1 0.324192 0.0657424 0.563039
183 1 0.315035 0.0800195 0.564987
112 1 0.308536 0.0678426 0.563116
392 1 0.343628 0.0687696 0.563837
129 1 0.34626 0.0861007 0.564956
467 1 0.333563 0.0766805 0.564506
220 1 -0.000303531 0.0879418 0.571053
3079 1 0.000941619 0.105573 0.572558
78 1 0.0140501 0.0916524 0.571417
361 1 0.0193748 0.10425 0.572541
3008 1 0.0265406 0.0885363 0.571875
3003 1 0.0419862 0.0919784 0.572363
357 1 0.0314632 0.102899 0.573612
85 1 0.0609158 0.0919533 0.572942
285 1 0.0466663 0.103733 0.572552
152 1 0.0749296 0.0916332 0.574713
362 1 0.0691477 0.108511 0.572714
365 1 0.0854367 0.103254 0.574591
167 1 0.185118 0.0940477 0.572874
109 1 0.197712 0.0912842 0.573559
293 1 0.196997 0.105984 0.570191
305 1 0.210199 0.0975896 0.569463
311 1 0.228645 0.099049 0.568734
240 1 0.240611 0.0914673 0.566214
448 1 0.253264 0.0991445 0.56665
308 1 0.262699 0.0918161 0.56493
381 1 0.276631 0.100142 0.56414
328 1 0.265818 0.109188 0.564726
197 1 0.281648 0.0885483 0.564093
376 1 0.296308 0.0979024 0.56631
255 1 0.302938 0.086978 0.564509
256 1 0.290266 0.108146 0.56448
323 1 0.317672 0.0947837 0.564882
334 1 0.307403 0.104226 0.564845
128 1 0.323014 0.108561 0.563468
531 1 0.334177 0.095645 0.563576
461 1 0.351178 0.103829 0.565232
214 1 0.0088917 0.116764 0.573325
3219 1 0.0249834 0.117145 0.572433
3215 1 0.0382969 0.116157 0.572754
432 1 0.0327479 0.129781 0.573124
3006 1 0.0569342 0.11381 0.571404
435 1 0.0495993 0.123278 0.572698
232 1 0.0672875 0.125298 0.57128
295 1 0.0815419 0.120165 0.572386
235 1 0.0974636 0.115569 0.575544
228 1 0.0992797 0.12798 0.573109
429 1 0.111564 0.126848 0.574501
168 1 0.125251 0.120877 0.573759
450 1 0.137786 0.113868 0.574418
506 1 0.140407 0.129179 0.571894
577 1 0.157543 0.125116 0.571899
154 1 0.181598 0.112396 0.571851
166 1 0.172248 0.123288 0.570705
310 1 0.191529 0.123647 0.569505
237 1 0.207589 0.114986 0.568785
297 1 0.206534 0.127725 0.568034
309 1 0.220146 0.112478 0.568113
382 1 0.238198 0.124644 0.567431
234 1 0.223244 0.124816 0.569012
389 1 0.242191 0.10845 0.568196
316 1 0.253504 0.119502 0.565599
447 1 0.270819 0.123155 0.564632
529 1 0.299475 0.119151 0.564403
595 1 0.31261 0.119345 0.562698
396 1 0.336459 0.112877 0.563201
3220 1 0.0048851 0.132501 0.572009
3290 1 0.0179639 0.129882 0.571556
284 1 0.0125653 0.145282 0.570671
426 1 0.0257653 0.14344 0.569405
498 1 0.0417319 0.139492 0.571226
367 1 0.0592841 0.137253 0.571095
571 1 0.054117 0.149864 0.569109
497 1 0.0859879 0.133086 0.569083
354 1 0.0725706 0.138733 0.569451
292 1 0.0824184 0.148148 0.567844
492 1 0.0676499 0.151091 0.569386
430 1 0.0966829 0.144366 0.568855
360 1 0.110077 0.139706 0.570734
369 1 0.126808 0.13789 0.573785
368 1 0.121252 0.152351 0.568934
294 1 0.137707 0.146497 0.569992
307 1 0.150762 0.141407 0.569641
643 1 0.168533 0.137587 0.57053
372 1 0.166777 0.150897 0.567908
238 1 0.195182 0.136881 0.568816
377 1 0.182347 0.135797 0.56835
738 1 0.17905 0.150297 0.56537
438 1 0.193022 0.151292 0.565903
441 1 0.207338 0.142769 0.564606
314 1 0.220916 0.138834 0.566444
299 1 0.232448 0.139075 0.567032
509 1 0.249142 0.13417 0.564805
383 1 0.240918 0.15139 0.562771
385 1 0.263568 0.133994 0.563964
594 1 0.304399 0.132557 0.563236
390 1 0.315445 0.135302 0.563364
3429 1 0.00688511 0.157117 0.568325
286 1 0.00958277 0.171578 0.567096
356 1 0.0196336 0.160181 0.567467
3289 1 0.0370837 0.155324 0.567353
422 1 0.0341038 0.174143 0.566291
225 1 0.0485676 0.163344 0.567963
1052 1 0.0618448 0.164271 0.566731
434 1 0.0793411 0.164669 0.566897
431 1 0.10847 0.155374 0.567444
570 1 0.0955398 0.160567 0.566315
172 1 0.104576 0.171133 0.565042
640 1 0.117737 0.165339 0.565417
590 1 0.1349 0.158265 0.565702
358 1 0.151398 0.154631 0.566412
575 1 0.157188 0.165347 0.5626
451 1 0.171329 0.161943 0.564033
300 1 0.186926 0.16653 0.563595
443 1 0.215969 0.153033 0.563786
573 1 0.229011 0.152985 0.56468
3140 1 0.00548135 0.183629 0.564056
3145 1 0.0217111 0.177886 0.564839
561 1 0.0181414 0.192859 0.565281
3283 1 0.00222133 0.196195 0.564784
352 1 0.0349596 0.187885 0.565032
423 1 0.0481658 0.176942 0.566654
493 1 0.0616292 0.177382 0.564674
779 1 0.0501913 0.190616 0.564476
500 1 0.0644926 0.192236 0.563944
711 1 0.0811906 0.19159 0.562259
563 1 0.0753403 0.178811 0.564846
566 1 0.0913179 0.177463 0.564431
437 1 0.0967774 0.188108 0.563026
3353 1 0.014519 0.208908 0.561744
424 1 0.00223816 0.216153 0.56339
351 1 0.031112 0.203235 0.563433
3285 1 0.0460898 0.203332 0.561997
165 1 0.0861482 0.207138 0.562383
28 1 0.144397 0.0105673 0.574665
283 1 0.133993 0.0198188 0.577762
178 1 0.15827 0.0108944 0.575166
2762 1 0.17107 0.0162917 0.577819
251 1 0.186364 0.0102815 0.575822
19 1 0.118841 0.0259215 0.574847
3216 1 0.112983 0.0410864 0.575958
162 1 0.154198 0.0215789 0.578763
148 1 0.130037 0.0344522 0.577294
315 1 0.143669 0.0282803 0.578919
176 1 0.167647 0.0331405 0.578651
289 1 0.153704 0.0368341 0.580834
2687 1 0.18206 0.0291005 0.579167
25 1 0.193591 0.0399164 0.57592
2696 1 0.196374 0.0261256 0.576187
155 1 0.0884489 0.0654837 0.575161
227 1 0.100996 0.055671 0.575378
157 1 0.127585 0.0476243 0.579334
90 1 0.116607 0.0575178 0.577699
3212 1 0.146802 0.0597375 0.580507
215 1 0.142581 0.0475312 0.580756
222 1 0.13317 0.0607729 0.580756
94 1 0.157948 0.048112 0.580326
241 1 0.161142 0.0652576 0.580555
22 1 0.179485 0.0460533 0.577651
36 1 0.191838 0.0554363 0.577103
92 1 0.17425 0.0593675 0.578713
95 1 0.0910622 0.0850943 0.576443
359 1 0.09693 0.0728016 0.575972
287 1 0.110364 0.0825733 0.578188
226 1 0.10789 0.0683099 0.577384
304 1 0.121611 0.0733963 0.578963
231 1 0.136678 0.0747599 0.579537
236 1 0.14973 0.0729508 0.578999
164 1 0.142504 0.087917 0.577545
107 1 0.15955 0.0841117 0.576918
171 1 0.169624 0.0733594 0.579142
230 1 0.176241 0.0858392 0.577035
87 1 0.182882 0.0691692 0.576955
364 1 0.101747 0.0979676 0.576479
3287 1 0.114763 0.0995838 0.577058
503 1 0.125784 0.0885624 0.579212
290 1 0.126413 0.105232 0.575958
233 1 0.139022 0.100481 0.575512
242 1 0.153054 0.10016 0.577995
301 1 0.169279 0.0991023 0.574983
366 1 0.111548 0.111589 0.574694
303 1 0.152826 0.112509 0.574177
306 1 0.166447 0.111598 0.573832
1542 1 0.00392882 0.571683 0.435022
1683 1 0.0125834 0.582603 0.434489
1692 1 -0.000569299 0.583225 0.434523
1551 1 0.0177478 0.565167 0.436149
1690 1 0.036543 0.568929 0.438102
1485 1 0.0255719 0.578155 0.435585
1489 1 0.0460386 0.582047 0.436545
1410 1 0.00566842 0.595643 0.431968
1202 1 0.0216964 0.593345 0.433653
1821 1 0.0160989 0.607026 0.429622
1547 1 0.0343988 0.593391 0.435663
1556 1 0.0328571 0.607719 0.432691
1483 1 0.0496233 0.599548 0.435434
1572 1 0.0606753 0.595877 0.438377
1761 1 0.0732071 0.603394 0.438102
1478 1 0.00919552 0.623101 0.428379
1689 1 0.021901 0.617276 0.432014
1562 1 0.0366734 0.622929 0.434552
1276 1 0.0615235 0.610874 0.436757
1687 1 0.0492321 0.616073 0.435252
4539 1 0.00193531 0.636432 0.425806
4543 1 0.016232 0.645694 0.428072
4605 1 0.0208543 0.632205 0.429391
4682 1 0.00291256 0.649735 0.426503
1623 1 0.034135 0.636318 0.433262
1969 1 0.0311801 0.646975 0.429305
1838 1 0.04989 0.630363 0.436007
1694 1 0.0476969 0.642484 0.433169
1757 1 0.0578634 0.645507 0.436977
1837 1 0.0110435 0.660937 0.42886
4759 1 0.0265372 0.660611 0.430888
1626 1 0.0395431 0.669844 0.433554
1917 1 0.0418957 0.656883 0.432361
4620 1 0.0547496 0.657788 0.43594
1695 1 0.0505364 0.670643 0.437912
1831 1 0.0117514 0.67415 0.428931
1828 1 0.00889083 0.689904 0.429678
1976 1 0.0233332 0.687245 0.430948
1699 1 0.0269885 0.673675 0.431862
1760 1 0.0369077 0.685807 0.434813
1762 1 0.0163771 0.702941 0.43261
1967 1 0.00293489 0.705143 0.431178
1693 1 0.0308431 0.697747 0.434823
1752 1 0.0247574 0.713964 0.436256
1912 1 0.0134225 0.719627 0.434682
1546 1 0.0106035 0.515871 0.450099
4410 1 0.0369119 0.518742 0.444968
4473 1 0.0250257 0.516905 0.447909
4265 1 0.0522205 0.522453 0.444502
1472 1 0.0475396 0.50843 0.448776
1413 1 0.0639829 0.512217 0.447419
4337 1 0.0765741 0.501876 0.449363
1408 1 0.0796829 0.513953 0.447437
1482 1 0.0948305 0.517665 0.445883
1200 1 0.106887 0.50603 0.445915
1201 1 0.0903121 0.502317 0.448679
1481 1 0.10954 0.519694 0.443578
1491 1 0.120523 0.510171 0.445907
1495 1 0.134578 0.510016 0.445564
1658 1 0.151023 0.51527 0.444737
1066 1 0.145041 0.501315 0.446929
1423 1 0.166559 0.518619 0.446373
1273 1 0.15804 0.504517 0.447249
1583 1 0.174588 0.506518 0.44831
1506 1 0.181388 0.520736 0.448267
4548 1 0.0109364 0.524381 0.444294
1404 1 0.00367259 0.539633 0.440384
1543 1 0.0153626 0.537318 0.440656
1613 1 0.0290761 0.529218 0.441764
1198 1 0.0414486 0.530121 0.440875
1480 1 0.0307437 0.542922 0.439564
1343 1 0.0575554 0.537388 0.441562
1615 1 0.0694343 0.526482 0.443019
1614 1 0.0825499 0.526493 0.443775
1344 1 0.0717233 0.541129 0.441751
1280 1 0.0858314 0.543289 0.441227
4270 1 0.0999161 0.530459 0.442482
1347 1 0.103816 0.544217 0.442058
1197 1 0.122289 0.524318 0.443343
1340 1 0.115397 0.536775 0.441091
1496 1 0.132067 0.535915 0.443132
1277 1 0.137534 0.523 0.444906
1345 1 0.146381 0.540846 0.442458
1373 1 0.153015 0.528498 0.444579
1455 1 0.170715 0.53324 0.444716
1420 1 0.187989 0.534357 0.447032
1418 1 0.202632 0.537011 0.448865
1439 1 0.197615 0.521449 0.449741
1662 1 0.3791 0.541413 0.449797
1557 1 0.00606506 0.558432 0.43754
1412 1 0.0163154 0.55123 0.43908
1270 1 0.028983 0.556337 0.438216
1416 1 0.0420215 0.556705 0.438817
1688 1 0.0471478 0.545626 0.438625
1549 1 0.0602542 0.553519 0.439512
1282 1 0.0782459 0.555975 0.441425
1353 1 0.0961555 0.557907 0.439687
1348 1 0.11111 0.555397 0.43959
1414 1 0.123633 0.548569 0.440894
1284 1 0.124422 0.560844 0.440506
1494 1 0.137901 0.55235 0.442383
1272 1 0.151604 0.552042 0.441003
1422 1 0.141989 0.565281 0.441207
1488 1 0.161676 0.544981 0.443248
1438 1 0.162634 0.560471 0.443134
1570 1 0.193456 0.550708 0.446403
1501 1 0.180436 0.546185 0.443614
1639 1 0.177921 0.55865 0.444206
1511 1 0.207999 0.547994 0.448352
1502 1 0.205067 0.564803 0.448929
1564 1 0.0521604 0.567404 0.439615
1484 1 0.0626549 0.581594 0.437579
1550 1 0.0787816 0.588704 0.43769
1548 1 0.0713169 0.567771 0.439531
1474 1 0.0863255 0.571304 0.439444
1487 1 0.102197 0.571536 0.438322
1424 1 0.0930025 0.585143 0.437919
1274 1 0.109415 0.586593 0.439202
1575 1 0.114279 0.573045 0.439273
1510 1 0.123317 0.587469 0.440523
1642 1 0.131631 0.574823 0.439084
1833 1 0.1447 0.583955 0.441395
1417 1 0.155256 0.56968 0.440876
1434 1 0.159534 0.584696 0.44346
1568 1 0.170652 0.571645 0.443876
1638 1 0.181427 0.580342 0.445105
1711 1 0.187861 0.565795 0.446361
1640 1 0.194067 0.577867 0.44842
1569 1 0.209183 0.580716 0.449717
1463 1 0.380126 0.57135 0.450246
1730 1 0.383225 0.58655 0.449692
1732 1 0.392502 0.574983 0.449496
1882 1 0.420166 0.580985 0.44985
4204 1 0.434584 0.579315 0.449877
1329 1 0.448131 0.578786 0.448032
1538 1 0.465543 0.575771 0.449099
1500 1 0.0871598 0.600257 0.440679
1767 1 0.0991856 0.597868 0.440429
1428 1 0.117582 0.601553 0.441012
1691 1 0.132694 0.593847 0.441608
1707 1 0.147075 0.597196 0.444148
1555 1 0.130659 0.604895 0.443177
1565 1 0.160956 0.603198 0.446648
1346 1 0.169969 0.592151 0.444734
1714 1 0.177542 0.6064 0.449124
1577 1 0.184985 0.594702 0.448478
1852 1 0.198648 0.593686 0.449939
1736 1 0.404594 0.594112 0.449356
2015 1 0.392755 0.594451 0.450771
2008 1 0.406183 0.607941 0.449707
1601 1 0.417788 0.596139 0.448567
1808 1 0.430272 0.59172 0.448541
1666 1 0.433437 0.604544 0.444913
4693 1 0.446788 0.594719 0.446711
1947 1 0.459778 0.587526 0.447478
1811 1 0.462508 0.604442 0.444916
1749 1 0.476504 0.596601 0.446176
4341 1 0.490194 0.594255 0.448951
1827 1 0.0633809 0.628845 0.438194
1356 1 0.0757199 0.617738 0.440533
1486 1 0.0899785 0.616041 0.440362
1629 1 0.10577 0.626076 0.443411
1493 1 0.104557 0.611088 0.442194
1559 1 0.120745 0.617828 0.443858
1427 1 0.146585 0.610123 0.445921
1759 1 0.134412 0.617466 0.445012
1755 1 0.148103 0.624892 0.44648
1560 1 0.16216 0.614712 0.448501
1785 1 0.172727 0.621509 0.450278
1661 1 0.408267 0.623099 0.448209
1537 1 0.421405 0.612768 0.447248
1885 1 0.424288 0.629895 0.448299
2092 1 0.433885 0.622421 0.447072
1667 1 0.446111 0.610649 0.444769
1670 1 0.446861 0.626697 0.446655
1600 1 0.459991 0.620656 0.444868
1607 1 0.473779 0.615501 0.442743
1675 1 0.48665 0.610023 0.444185
1608 1 0.481965 0.624431 0.443092
4624 1 0.498621 0.620423 0.445164
1553 1 0.0744379 0.637036 0.438651
1825 1 0.0722412 0.650222 0.438764
1561 1 0.0875551 0.646675 0.440001
1617 1 0.08849 0.632541 0.440371
1558 1 0.101845 0.639361 0.4413
1696 1 0.121806 0.635097 0.444533
1914 1 0.129121 0.647285 0.447516
1622 1 0.112452 0.64996 0.444785
1552 1 0.137034 0.634127 0.446945
1563 1 0.147264 0.641145 0.450822
1943 1 0.386715 0.646003 0.449441
2159 1 0.400825 0.652002 0.449851
2083 1 0.411798 0.640386 0.449294
2163 1 0.428581 0.645029 0.448121
2028 1 0.439302 0.636546 0.448693
2166 1 0.444745 0.649461 0.446731
4692 1 0.456895 0.637822 0.445257
1673 1 0.468913 0.631963 0.443373
1746 1 0.469953 0.648689 0.443784
2170 1 0.483779 0.639682 0.442508
1820 1 0.492839 0.649787 0.441168
1812 1 0.496835 0.633234 0.443235
1758 1 0.0648358 0.667239 0.439367
1498 1 0.0820769 0.6629 0.440497
1907 1 0.0978563 0.658764 0.44249
1846 1 0.0949349 0.670809 0.443079
1920 1 0.110339 0.662743 0.445967
1986 1 0.123615 0.660627 0.448891
2030 1 0.406774 0.666198 0.449122
1534 1 0.417597 0.654796 0.447629
1886 1 0.422682 0.671888 0.449352
1889 1 0.430518 0.660428 0.447895
2026 1 0.443587 0.664007 0.44737
1813 1 0.453338 0.672529 0.445443
4769 1 0.457634 0.656781 0.444465
4696 1 0.471761 0.664142 0.445145
4694 1 0.481025 0.659003 0.440974
1817 1 0.491171 0.665666 0.439806
4760 1 0.0538238 0.683424 0.438798
1770 1 0.0635579 0.694965 0.441046
1824 1 0.0463932 0.694942 0.439594
1684 1 0.0846187 0.678714 0.443818
1992 1 0.0691159 0.681439 0.441443
1635 1 0.0810193 0.692507 0.444644
1697 1 0.0966765 0.687339 0.448048
1627 1 0.106185 0.675517 0.447393
1641 1 0.121189 0.673223 0.450567
2239 1 0.424187 0.690305 0.448806
4556 1 0.43646 0.677295 0.4476
4764 1 0.449577 0.684189 0.447484
1883 1 0.466849 0.678188 0.444927
2164 1 0.463276 0.692476 0.446447
1960 1 0.482882 0.675199 0.442926
4762 1 0.477012 0.690433 0.443123
1741 1 0.494825 0.679793 0.440077
4905 1 0.489755 0.69247 0.441716
1990 1 0.0388213 0.708166 0.438917
1768 1 0.0534466 0.704225 0.443467
2057 1 0.0617932 0.712844 0.447609
1993 1 0.0710066 0.703016 0.447069
1887 1 0.450027 0.700914 0.449187
2021 1 0.436682 0.706076 0.450598
4841 1 0.462656 0.709466 0.448191
1956 1 0.475623 0.704074 0.44564
4909 1 0.489516 0.705554 0.442422
1830 1 0.00829634 0.73387 0.43845
1971 1 0.0211985 0.729564 0.440943
1765 1 0.0351626 0.723223 0.442506
1898 1 0.0437255 0.734861 0.445709
1700 1 0.0484816 0.71658 0.443687
1991 1 0.0550453 0.728711 0.448704
4989 1 0.474892 0.734411 0.44829
2310 1 0.464864 0.725189 0.448765
4836 1 0.476144 0.717986 0.445009
2100 1 0.489321 0.718997 0.442774
4840 1 0.488091 0.731648 0.447347
1984 1 0.0157461 0.743508 0.441098
2117 1 0.006504 0.758081 0.443577
1892 1 0.00235691 0.749129 0.43955
1841 1 0.0293633 0.739559 0.444115
2113 1 0.0242355 0.755565 0.44722
1977 1 0.0368065 0.750693 0.447522
4901 1 0.497162 0.742912 0.446528
4975 1 0.482738 0.747824 0.449883
4983 1 0.495329 0.755086 0.448311
1973 1 0.0155228 0.768049 0.447988
1975 1 0.0321149 0.76726 0.450034
1908 1 0.00181228 0.783799 0.450601
1415 1 0.00837771 0.502274 0.452975
4408 1 0.0227852 0.50568 0.451847
4336 1 0.0362917 0.508929 0.452609
4472 1 0.0612325 0.500298 0.450738
1285 1 0.190187 0.511525 0.449371
1584 1 0.206906 0.513734 0.450897
1504 1 0.202334 0.502122 0.4517
1283 1 0.21603 0.502297 0.452557
1444 1 0.221209 0.514848 0.455265
1440 1 0.231244 0.502826 0.456605
1579 1 0.23828 0.515236 0.454756
1507 1 0.243938 0.50109 0.457702
1372 1 0.252416 0.517175 0.456778
1375 1 0.257787 0.502876 0.458713
1646 1 0.264486 0.513848 0.455425
1655 1 0.277909 0.507097 0.457591
1581 1 0.288311 0.513572 0.455128
1588 1 0.300931 0.516141 0.455529
1659 1 0.314635 0.5126 0.455903
1713 1 0.305151 0.500821 0.458146
1311 1 0.328817 0.512697 0.454938
1521 1 0.33943 0.521605 0.452777
1592 1 0.34834 0.511562 0.453688
1645 1 0.364631 0.506486 0.455715
1445 1 0.385771 0.506662 0.455969
1652 1 0.373978 0.516372 0.455224
1522 1 0.40115 0.505578 0.456687
1665 1 0.405132 0.517871 0.455626
1519 1 0.390737 0.517947 0.453953
1457 1 0.417338 0.507966 0.458646
1396 1 0.4346 0.510726 0.460655
1363 1 0.211977 0.52903 0.452012
1429 1 0.22074 0.540361 0.450691
1725 1 0.225361 0.527188 0.452295
1780 1 0.233506 0.539365 0.453093
1644 1 0.241905 0.529201 0.456291
1449 1 0.253054 0.533376 0.454813
1653 1 0.265348 0.526836 0.455226
1589 1 0.27874 0.524083 0.455114
1773 1 0.272139 0.537332 0.455873
1848 1 0.293937 0.530712 0.455971
1441 1 0.286412 0.543918 0.45398
1582 1 0.309765 0.528686 0.454631
1451 1 0.3237 0.526928 0.453629
1783 1 0.30686 0.543511 0.455115
1729 1 0.33632 0.536411 0.452433
1594 1 0.358742 0.521906 0.454537
1802 1 0.350418 0.532396 0.451865
1591 1 0.368032 0.531865 0.452318
1874 1 0.381684 0.5281 0.453258
1805 1 0.395902 0.532031 0.451571
1599 1 0.409051 0.53335 0.454855
1735 1 0.421605 0.524727 0.456804
1610 1 0.420309 0.544095 0.454017
1597 1 0.434113 0.535336 0.455158
1530 1 0.43748 0.522147 0.457865
1248 1 0.445191 0.531407 0.459285
4411 1 0.455231 0.536511 0.457663
1810 1 0.468914 0.541478 0.458957
1734 1 0.467241 0.526175 0.461286
1806 1 0.483715 0.54007 0.46023
1679 1 0.494437 0.532523 0.46281
1442 1 0.217416 0.556447 0.451563
1446 1 0.230392 0.554358 0.452779
1637 1 0.243907 0.544705 0.454593
1512 1 0.246384 0.558242 0.455288
1508 1 0.257819 0.54887 0.456577
1514 1 0.260083 0.562236 0.456021
1718 1 0.277804 0.554314 0.456505
1720 1 0.288727 0.564243 0.458072
1788 1 0.298768 0.553583 0.456343
1385 1 0.320757 0.54309 0.45476
1578 1 0.312762 0.561676 0.455087
1779 1 0.331559 0.549171 0.453553
1524 1 0.345257 0.548149 0.451148
1728 1 0.343333 0.561565 0.453767
1586 1 0.360151 0.544444 0.451631
1868 1 0.35627 0.55801 0.451101
1595 1 0.385111 0.557704 0.450083
1243 1 0.369555 0.555046 0.451329
1804 1 0.390768 0.544734 0.451606
1876 1 0.399167 0.56366 0.450185
1877 1 0.4052 0.547477 0.452472
4277 1 0.415121 0.557108 0.452781
1878 1 0.431103 0.551064 0.452483
1533 1 0.446276 0.547121 0.454059
4344 1 0.439943 0.564463 0.450191
4275 1 0.453677 0.565746 0.451953
1527 1 0.460587 0.551902 0.455398
1536 1 0.474126 0.552924 0.45695
1674 1 0.485752 0.558003 0.458455
4413 1 0.498842 0.548261 0.461183
1959 1 0.499393 0.56521 0.456786
1634 1 0.219602 0.574102 0.451162
1509 1 0.232683 0.568028 0.451694
1517 1 0.228042 0.583852 0.451979
1717 1 0.246136 0.571577 0.454427
1706 1 0.261303 0.579166 0.45475
1703 1 0.271858 0.567765 0.456841
1777 1 0.283017 0.576222 0.456666
1942 1 0.300051 0.569758 0.456165
1710 1 0.292167 0.586522 0.457236
1724 1 0.318138 0.576956 0.45268
1847 1 0.306013 0.583612 0.45586
1649 1 0.328012 0.563748 0.45497
1654 1 0.335144 0.575715 0.452069
1664 1 0.350411 0.57429 0.452837
1799 1 0.368609 0.582137 0.450606
1452 1 0.363536 0.567792 0.450394
1668 1 0.405193 0.580844 0.449819
1879 1 0.415283 0.569996 0.450852
1737 1 0.42759 0.567618 0.450281
4276 1 0.47171 0.566005 0.453566
1958 1 0.477705 0.58329 0.45154
1676 1 0.493392 0.582756 0.452525
1605 1 0.484962 0.572623 0.4558
1843 1 0.215365 0.595046 0.450315
1849 1 0.202501 0.605645 0.453879
1774 1 0.228395 0.599044 0.453096
1708 1 0.2446 0.585334 0.45305
1643 1 0.261454 0.592241 0.453842
1778 1 0.242774 0.599821 0.453518
1781 1 0.254816 0.604617 0.454227
1580 1 0.273608 0.588665 0.456331
1705 1 0.269053 0.603379 0.455715
2136 1 0.283189 0.598524 0.456961
1782 1 0.297902 0.600545 0.4571
1940 1 0.313471 0.594831 0.454059
1576 1 0.320416 0.607149 0.453932
1792 1 0.327763 0.588688 0.452438
2003 1 0.341184 0.590975 0.454273
1867 1 0.334427 0.604511 0.455028
1794 1 0.350651 0.608015 0.454306
1526 1 0.356474 0.592354 0.452751
1456 1 0.372009 0.596788 0.450465
2011 1 0.380425 0.605254 0.450511
1554 1 0.157631 0.627369 0.45
1567 1 0.188887 0.607962 0.453144
1636 1 0.188939 0.621879 0.45152
1851 1 0.204817 0.618921 0.453491
1857 1 0.216121 0.608589 0.452898
1574 1 0.230638 0.614068 0.454921
1704 1 0.221573 0.624054 0.455374
1797 1 0.235249 0.627439 0.455971
1719 1 0.245432 0.616918 0.455595
1776 1 0.252225 0.629545 0.456818
1796 1 0.257681 0.617652 0.457168
1842 1 0.274234 0.613618 0.456144
1934 1 0.283979 0.626096 0.456165
1929 1 0.289432 0.614045 0.456568
1871 1 0.306313 0.609401 0.45609
1656 1 0.305544 0.621626 0.454481
1731 1 0.321122 0.623834 0.455448
1650 1 0.335776 0.615906 0.453865
1807 1 0.352677 0.622476 0.451528
2020 1 0.365835 0.613846 0.45148
1955 1 0.379377 0.62027 0.450674
1880 1 0.393934 0.607748 0.451653
2160 1 0.396822 0.621738 0.452273
1715 1 0.166913 0.634165 0.453184
1702 1 0.158746 0.646256 0.453023
1573 1 0.172021 0.650218 0.455232
1425 1 0.180661 0.635847 0.452098
4550 1 0.187414 0.649313 0.45774
1845 1 0.195252 0.637076 0.453976
1722 1 0.210387 0.6331 0.454124
1712 1 0.212728 0.645658 0.457288
1923 1 0.199037 0.65073 0.46014
1648 1 0.225092 0.638781 0.456104
1855 1 0.234316 0.649263 0.459215
2013 1 0.242371 0.639927 0.457635
1721 1 0.256947 0.640827 0.459826
1844 1 0.268792 0.629505 0.458433
1723 1 0.275202 0.646493 0.459123
1938 1 0.2648 0.651392 0.460601
1869 1 0.286242 0.640542 0.458567
2007 1 0.296988 0.630661 0.456945
2024 1 0.301086 0.644664 0.457525
1946 1 0.312501 0.633138 0.456291
1865 1 0.314717 0.64797 0.457389
1872 1 0.337162 0.632518 0.45489
1590 1 0.32649 0.641524 0.45609
1873 1 0.341267 0.650335 0.454438
1459 1 0.365667 0.629958 0.452198
1875 1 0.352505 0.638551 0.453585
4202 1 0.369254 0.643743 0.452089
1803 1 0.38019 0.633902 0.451424
1945 1 0.395998 0.635716 0.45043
1619 1 0.137956 0.65814 0.451239
1497 1 0.149264 0.655349 0.453246
1628 1 0.147771 0.66941 0.455212
1709 1 0.135318 0.670357 0.453536
1632 1 0.161811 0.662596 0.456157
1919 1 0.177793 0.659099 0.459192
1686 1 0.191778 0.665235 0.461242
1701 1 0.175502 0.672605 0.460213
1863 1 0.21071 0.659811 0.461704
1726 1 0.222402 0.655626 0.459513
1866 1 0.234937 0.664164 0.462415
1716 1 0.25016 0.652711 0.462328
1798 1 0.276331 0.661477 0.46161
1795 1 0.289859 0.656571 0.460157
2018 1 0.30446 0.660972 0.456527
2093 1 0.288828 0.671184 0.462473
2153 1 0.304239 0.671901 0.461259
2223 1 0.318178 0.665195 0.456863
1949 1 0.345677 0.664089 0.453704
2089 1 0.328675 0.657625 0.455538
1948 1 0.358448 0.65377 0.453019
1663 1 0.367128 0.662495 0.452726
2165 1 0.358512 0.671631 0.451778
2076 1 0.378883 0.655315 0.45204
1881 1 0.379303 0.671783 0.452737
1884 1 0.392575 0.661895 0.450474
2061 1 0.1134 0.686696 0.450965
1988 1 0.129714 0.685348 0.455322
1925 1 0.143508 0.685696 0.455708
1862 1 0.155363 0.691323 0.459075
1997 1 0.159479 0.676414 0.457908
1772 1 0.172249 0.687366 0.461905
1839 1 0.186597 0.680479 0.462616
2293 1 0.29968 0.685594 0.462404
2161 1 0.315822 0.679669 0.459744
2370 1 0.333113 0.672169 0.456793
1861 1 0.345137 0.680993 0.454852
2229 1 0.331124 0.687539 0.459107
2090 1 0.345594 0.697066 0.458098
2019 1 0.356173 0.682907 0.453558
1727 1 0.369992 0.680274 0.452652
2025 1 0.359467 0.696738 0.455358
1801 1 0.381276 0.687743 0.453399
1944 1 0.371968 0.695265 0.453447
2169 1 0.393772 0.677492 0.451617
2097 1 0.410125 0.679876 0.452388
4903 1 0.398299 0.692422 0.452849
4837 1 0.437602 0.690812 0.450055
1921 1 0.0811263 0.712769 0.450534
1987 1 0.0875599 0.701804 0.451073
1620 1 0.101641 0.701485 0.452091
2059 1 0.0967931 0.717435 0.455839
1630 1 0.10986 0.709755 0.456417
1924 1 0.121037 0.69795 0.454024
1633 1 0.126063 0.712977 0.459145
2284 1 0.136536 0.697523 0.458461
2080 1 0.31524 0.696397 0.461997
2010 1 0.330373 0.704422 0.46173
2235 1 0.340691 0.7143 0.460975
1950 1 0.352475 0.709387 0.458954
1954 1 0.383833 0.70241 0.454342
2017 1 0.367339 0.707288 0.456227
2085 1 0.380445 0.713924 0.456299
2095 1 0.410017 0.696357 0.451788
2148 1 0.396467 0.707282 0.4534
2157 1 0.409428 0.709606 0.453032
4902 1 0.424798 0.704524 0.449732
2167 1 0.423403 0.718492 0.452233
4907 1 0.449815 0.716907 0.449858
2064 1 0.0636337 0.737057 0.452386
2131 1 0.0702056 0.723523 0.451884
1916 1 0.0836509 0.724204 0.456468
1922 1 0.0764997 0.73639 0.455969
1566 1 0.0972824 0.730441 0.460692
2060 1 0.111373 0.722555 0.458268
2023 1 0.362205 0.719655 0.459078
2156 1 0.349835 0.725525 0.461572
2154 1 0.361082 0.73326 0.463143
2094 1 0.373863 0.728685 0.460503
1952 1 0.38924 0.729796 0.459761
2226 1 0.393653 0.721233 0.455145
4832 1 0.401376 0.736158 0.457588
1951 1 0.406442 0.722869 0.455472
2087 1 0.416443 0.732358 0.45592
2168 1 0.432831 0.733661 0.455591
4622 1 0.436428 0.720831 0.452428
2098 1 0.447062 0.731891 0.45374
5041 1 0.459166 0.7333 0.451564
1901 1 0.0405248 0.759409 0.452835
1766 1 0.0500587 0.743639 0.449618
1832 1 0.0511811 0.754456 0.454765
1763 1 0.063938 0.750767 0.45568
2195 1 0.0737172 0.748717 0.459704
1980 1 0.0857645 0.742076 0.462163
2374 1 0.388985 0.746775 0.460296
1809 1 0.40246 0.752601 0.462081
2096 1 0.413719 0.747126 0.458912
4919 1 0.427045 0.744988 0.458631
4906 1 0.432705 0.75973 0.460717
4831 1 0.440542 0.74593 0.45781
1738 1 0.454256 0.748297 0.453932
4911 1 0.470172 0.746051 0.452445
5123 1 0.478093 0.758969 0.452855
2043 1 0.0169278 0.779596 0.451586
2033 1 0.0335466 0.782006 0.454329
1896 1 0.0450317 0.770073 0.456133
1840 1 0.0567065 0.774696 0.461755
1985 1 0.060446 0.762544 0.459357
1739 1 0.415696 0.7616 0.463342
4845 1 0.445285 0.759815 0.457884
4908 1 0.454741 0.772523 0.46033
2236 1 0.439395 0.775029 0.461067
4987 1 0.464406 0.761788 0.457226
4915 1 0.466899 0.7783 0.459899
4917 1 0.477538 0.770173 0.456186
4773 1 0.492951 0.766807 0.451804
4980 1 0.495642 0.780855 0.454922
2042 1 0.00846272 0.793444 0.453907
2176 1 0.0244774 0.79249 0.455286
4899 1 0.0380281 0.793999 0.460677
2049 1 0.0474294 0.784875 0.459309
4979 1 0.476463 0.79733 0.459233
4973 1 0.481743 0.782367 0.457046
4914 1 0.488601 0.79717 0.457369
1970 1 0.0167505 0.804567 0.458234
5032 1 0.00157749 0.807048 0.456694
2041 1 0.030569 0.806465 0.46179
5052 1 0.501361 0.807297 0.456356
5192 1 0.497815 0.824933 0.461437
5259 1 0.488108 0.811411 0.460133
4272 1 0.450843 0.516919 0.461191
1386 1 0.446787 0.505515 0.465544
1464 1 0.461755 0.512546 0.465767
1394 1 0.475483 0.514692 0.464046
4208 1 0.471589 0.501965 0.46767
4140 1 0.487562 0.504587 0.469365
4131 1 0.496198 0.514709 0.465459
4273 1 0.483993 0.523495 0.46341
1998 1 0.220281 0.671984 0.464368
1994 1 0.247001 0.666909 0.464567
2009 1 0.263094 0.663531 0.462969
1989 1 0.204343 0.676936 0.46381
2145 1 0.199552 0.689383 0.465779
1791 1 0.213025 0.687933 0.465824
1927 1 0.233143 0.676003 0.464891
1859 1 0.227137 0.686785 0.46551
1860 1 0.258784 0.678083 0.4644
1930 1 0.242391 0.683434 0.464631
1939 1 0.253164 0.696558 0.467131
1935 1 0.274918 0.675168 0.465677
1941 1 0.269336 0.692427 0.465676
2005 1 0.2862 0.685273 0.46429
1787 1 0.138042 0.71648 0.462899
2149 1 0.146895 0.706648 0.461757
1631 1 0.166976 0.69939 0.464023
2137 1 0.160501 0.711585 0.466441
1793 1 0.1831 0.695461 0.465335
2146 1 0.177007 0.707943 0.468724
2069 1 0.196263 0.704503 0.467016
2277 1 0.188555 0.71418 0.470747
2063 1 0.210517 0.701397 0.467035
2201 1 0.203838 0.712685 0.470898
1937 1 0.225245 0.700835 0.469012
2289 1 0.219046 0.714966 0.471408
2360 1 0.235019 0.711176 0.468997
1786 1 0.237057 0.697513 0.467825
2001 1 0.249188 0.709793 0.468983
1933 1 0.264816 0.707391 0.467956
1995 1 0.27772 0.715971 0.468742
2016 1 0.279311 0.701216 0.466478
2091 1 0.291599 0.703801 0.465097
1931 1 0.293338 0.716324 0.466991
2081 1 0.320688 0.711841 0.463689
2002 1 0.304977 0.70168 0.464423
2147 1 0.306687 0.714428 0.467013
1571 1 0.124456 0.727559 0.463455
1915 1 0.113377 0.7343 0.46331
1790 1 0.147765 0.720877 0.466458
1775 1 0.134966 0.730392 0.466906
2067 1 0.148318 0.735005 0.471168
2073 1 0.163115 0.722842 0.469481
2065 1 0.164943 0.733913 0.473972
2292 1 0.176381 0.721451 0.470971
2141 1 0.203542 0.72303 0.475432
2359 1 0.216088 0.730362 0.474875
2213 1 0.231497 0.724158 0.472702
2428 1 0.230249 0.738677 0.475036
2074 1 0.245087 0.724913 0.469909
1996 1 0.256393 0.733607 0.471397
1864 1 0.261816 0.720334 0.470226
2000 1 0.269844 0.730496 0.468898
2155 1 0.298174 0.727301 0.469132
2084 1 0.283213 0.729384 0.469327
2441 1 0.304127 0.737405 0.470788
1932 1 0.315087 0.727082 0.466864
2291 1 0.332015 0.722573 0.464071
2234 1 0.340375 0.733479 0.465209
2082 1 0.328239 0.734037 0.466345
2271 1 0.0894706 0.752065 0.465642
1913 1 0.101877 0.743196 0.465885
1918 1 0.100471 0.758272 0.471026
2058 1 0.122324 0.740443 0.469662
2132 1 0.112904 0.749107 0.469898
2071 1 0.136312 0.743805 0.473427
2205 1 0.153771 0.746418 0.473855
1854 1 0.242986 0.740908 0.472343
2431 1 0.263217 0.744811 0.472767
2150 1 0.274973 0.741604 0.471762
2220 1 0.281325 0.754967 0.473871
2012 1 0.292222 0.742339 0.4712
2286 1 0.299927 0.752129 0.473611
2301 1 0.31561 0.744017 0.470484
2077 1 0.316539 0.75528 0.473619
2079 1 0.340622 0.748345 0.469919
2217 1 0.328407 0.748498 0.470321
2227 1 0.351894 0.740954 0.464705
2014 1 0.365056 0.747225 0.464262
2086 1 0.354347 0.750367 0.468968
2305 1 0.374946 0.740438 0.460989
2233 1 0.373564 0.75426 0.465468
1911 1 0.0705554 0.763105 0.464078
2050 1 0.0667844 0.777429 0.466653
1983 1 0.0770325 0.775046 0.470074
1926 1 0.0872718 0.765066 0.467868
2143 1 0.0930708 0.772934 0.475344
2225 1 0.347611 0.76018 0.470741
2290 1 0.327683 0.762463 0.4735
1936 1 0.339226 0.769528 0.475022
2300 1 0.354922 0.773081 0.472636
2303 1 0.364875 0.76288 0.46884
2158 1 0.379079 0.769482 0.467659
2435 1 0.36948 0.776505 0.471623
2231 1 0.387326 0.759933 0.464587
2022 1 0.402745 0.767655 0.462854
2027 1 0.39183 0.774021 0.464454
5044 1 0.426799 0.772766 0.464324
4838 1 0.412516 0.776272 0.466187
1906 1 0.0464041 0.799225 0.465862
1905 1 0.056746 0.788323 0.465966
1982 1 0.0628923 0.798555 0.470942
2051 1 0.0730167 0.789598 0.471911
2237 1 0.384782 0.783064 0.469777
5043 1 0.373357 0.789621 0.475502
4834 1 0.388731 0.796292 0.472655
4971 1 0.401398 0.787571 0.468125
2306 1 0.401926 0.801565 0.47212
4974 1 0.428017 0.785329 0.463688
5046 1 0.417373 0.791656 0.468783
5047 1 0.430667 0.801661 0.468619
5121 1 0.437179 0.793699 0.464532
5117 1 0.44822 0.785941 0.461488
5049 1 0.447452 0.800648 0.465083
2240 1 0.462216 0.789817 0.462628
1964 1 0.00925804 0.817103 0.462313
2183 1 0.025045 0.818463 0.464363
1764 1 0.0405638 0.814847 0.468388
1974 1 0.0318678 0.824626 0.468945
2461 1 0.0549701 0.810332 0.472564
2263 1 0.0458084 0.823986 0.475317
2376 1 0.407397 0.814136 0.474397
2363 1 0.419976 0.806605 0.471118
5042 1 0.426715 0.816351 0.473953
2378 1 0.439375 0.815371 0.469648
5050 1 0.452095 0.814863 0.467579
2308 1 0.462127 0.806911 0.463872
4842 1 0.47498 0.814553 0.463973
4978 1 0.463223 0.82467 0.465973
4898 1 0.0143382 0.829137 0.468041
5109 1 0.00798578 0.840407 0.473938
2173 1 0.000579602 0.825885 0.464633
2188 1 0.0234556 0.836419 0.474324
5125 1 0.449881 0.82776 0.471334
4976 1 0.436149 0.829116 0.474629
5193 1 0.461009 0.836423 0.470272
5119 1 0.473046 0.836155 0.467912
5051 1 0.485589 0.826235 0.464033
4913 1 0.491026 0.840334 0.464541
5185 1 0.481171 0.846111 0.469526
5124 1 0.469185 0.848949 0.472043
5475 1 0.491675 0.854231 0.470043
5198 1 0.482909 0.86195 0.472746
5463 1 0.496009 0.86999 0.471734
5472 1 0.488341 0.879332 0.475107
2004 1 0.178305 0.734789 0.474226
2210 1 0.192519 0.729989 0.47445
2203 1 0.20269 0.736156 0.479312
2135 1 0.124625 0.750803 0.475196
2054 1 0.111897 0.757405 0.475089
2275 1 0.143859 0.754788 0.477045
1999 1 0.159378 0.753868 0.480058
1789 1 0.168862 0.746998 0.476662
2200 1 0.173459 0.761656 0.484279
2066 1 0.189553 0.75963 0.485437
1784 1 0.179661 0.749661 0.480255
2413 1 0.192027 0.744383 0.478474
2288 1 0.203691 0.752075 0.483498
2218 1 0.218346 0.746311 0.479401
2196 1 0.220828 0.757306 0.483861
2279 1 0.233646 0.752277 0.476617
2078 1 0.250483 0.753615 0.474614
2198 1 0.105775 0.770279 0.478046
1858 1 0.110014 0.780029 0.484693
2335 1 0.121034 0.768731 0.481006
1850 1 0.133003 0.763103 0.479609
2206 1 0.148284 0.764507 0.483659
2068 1 0.135913 0.774129 0.486492
2129 1 0.204537 0.764056 0.487106
2355 1 0.229066 0.770813 0.484709
2212 1 0.240989 0.779184 0.486073
2278 1 0.237694 0.765596 0.479532
2503 1 0.251636 0.762928 0.478691
2219 1 0.251432 0.778241 0.483905
2427 1 0.266572 0.760532 0.475327
2075 1 0.278395 0.772095 0.478049
2151 1 0.265189 0.775908 0.479254
2518 1 0.292737 0.765728 0.475109
2505 1 0.28968 0.777018 0.480358
2364 1 0.303262 0.776185 0.479159
2579 1 0.310885 0.765481 0.475663
2299 1 0.320837 0.773294 0.478821
2285 1 0.345605 0.78199 0.476812
2294 1 0.331646 0.782261 0.480204
2125 1 0.0870589 0.783661 0.47585
1771 1 0.0784954 0.798485 0.479751
2268 1 0.0904723 0.796422 0.484832
2124 1 0.0972252 0.785635 0.481516
2425 1 0.266167 0.788237 0.483336
2727 1 0.277101 0.794904 0.487814
2361 1 0.278445 0.78642 0.481001
2511 1 0.29698 0.788636 0.483774
2369 1 0.314057 0.785291 0.483686
2368 1 0.323309 0.795881 0.486643
2358 1 0.335772 0.793743 0.48414
2302 1 0.359118 0.785854 0.478335
2444 1 0.350317 0.795567 0.482114
2304 1 0.364592 0.800061 0.48016
1910 1 0.057765 0.819042 0.478799
2070 1 0.0682392 0.823169 0.486823
2120 1 0.0678475 0.80396 0.477351
2053 1 0.0677276 0.813115 0.482797
2273 1 0.0819644 0.809172 0.486652
2006 1 0.343985 0.805563 0.485646
2162 1 0.355362 0.811361 0.485014
2437 1 0.368511 0.817242 0.483166
2307 1 0.377679 0.80442 0.478564
2088 1 0.381369 0.818108 0.479607
5055 1 0.392126 0.808937 0.475342
5183 1 0.396645 0.821873 0.477411
4982 1 0.417421 0.824454 0.474995
2038 1 0.0139602 0.846579 0.479905
2118 1 0.0359492 0.832854 0.477934
2171 1 0.030632 0.8461 0.482675
2036 1 0.0547654 0.830867 0.483085
2191 1 0.0471061 0.842972 0.485707
2373 1 0.374995 0.830262 0.486254
5188 1 0.388903 0.827808 0.482174
5403 1 0.406213 0.829482 0.477629
2379 1 0.398311 0.839791 0.483394
5182 1 0.411082 0.841819 0.482014
2447 1 0.424458 0.835825 0.479318
4981 1 0.449641 0.839911 0.474813
2238 1 0.439423 0.843925 0.479052
2107 1 0.00394655 0.855874 0.479422
2480 1 0.010026 0.863212 0.486375
2177 1 0.024501 0.856974 0.486246
5252 1 0.398378 0.852901 0.486724
5184 1 0.426002 0.849229 0.481504
5253 1 0.411286 0.856977 0.485713
2297 1 0.426691 0.862973 0.48575
5264 1 0.448755 0.857755 0.480568
5270 1 0.436693 0.861459 0.482368
5330 1 0.457463 0.849252 0.476025
4977 1 0.460667 0.864706 0.478687
5191 1 0.470673 0.860966 0.474298
5400 1 0.451391 0.874698 0.483222
5186 1 0.468139 0.878231 0.482198
5112 1 0.476315 0.871907 0.477579
5474 1 0.466777 0.891212 0.486503
5122 1 0.479663 0.887955 0.480553
5410 1 0.480372 0.902373 0.484045
5189 1 0.49189 0.891467 0.47759
5181 1 0.494499 0.906063 0.480902
5465 1 0.496737 0.917681 0.483448
2056 1 0.123254 0.782787 0.488048
2134 1 0.149987 0.77835 0.490113
1928 1 0.158827 0.768197 0.486759
1853 1 0.164428 0.77763 0.492736
1856 1 0.176308 0.770384 0.490143
2347 1 0.191816 0.771389 0.489073
2072 1 0.190532 0.780814 0.495313
2216 1 0.216803 0.771855 0.486974
2500 1 0.202595 0.777913 0.491097
2209 1 0.228967 0.782943 0.49016
2202 1 0.101217 0.794441 0.488017
2338 1 0.114513 0.792872 0.490615
2345 1 0.126848 0.797051 0.496001
2214 1 0.109963 0.804971 0.494581
2139 1 0.137782 0.787406 0.490729
2140 1 0.144335 0.7948 0.497082
2138 1 0.160122 0.788036 0.497291
2272 1 0.17603 0.783512 0.497051
2495 1 0.212981 0.800183 0.499644
2152 1 0.203621 0.790224 0.496436
2483 1 0.215337 0.783299 0.492867
2287 1 0.225521 0.793524 0.496702
2215 1 0.236792 0.800029 0.497546
2283 1 0.258829 0.788993 0.487964
2436 1 0.253249 0.795717 0.494576
2499 1 0.242583 0.790867 0.491885
2501 1 0.265066 0.800188 0.490927
2442 1 0.288137 0.800705 0.487737
2367 1 0.30828 0.797664 0.487758
1981 1 0.0802039 0.820393 0.49073
2269 1 0.0968456 0.805209 0.491612
2055 1 0.0911584 0.817166 0.493954
2144 1 0.104779 0.814637 0.498027
2337 1 0.122105 0.811733 0.500414
2488 1 0.249867 0.807362 0.497281
2207 1 0.279834 0.820696 0.499539
2448 1 0.277356 0.808776 0.492637
2352 1 0.265796 0.812117 0.497168
2639 1 0.292259 0.816459 0.494863
2433 1 0.302748 0.822137 0.498238
2365 1 0.300556 0.810579 0.491694
2440 1 0.318125 0.805639 0.490957
2498 1 0.312557 0.815605 0.494534
2567 1 0.315978 0.825244 0.499452
2228 1 0.332748 0.80655 0.48914
2296 1 0.328266 0.817574 0.494266
2377 1 0.346447 0.817703 0.490198
2224 1 0.35827 0.824421 0.488091
2189 1 0.0619812 0.838091 0.489507
2194 1 0.0676055 0.847194 0.493922
2341 1 0.0731289 0.834776 0.494072
2130 1 0.0840496 0.840121 0.49899
2344 1 0.0900099 0.826879 0.49917
2371 1 0.344637 0.841644 0.498164
2295 1 0.338338 0.826802 0.494833
4972 1 0.366354 0.838914 0.491579
2222 1 0.352547 0.83256 0.493667
2221 1 0.355191 0.845866 0.495657
5111 1 0.384168 0.841001 0.487923
2111 1 0.0385331 0.851941 0.488186
2115 1 0.0322544 0.864447 0.490503
2199 1 0.055228 0.848527 0.491031
2122 1 0.0581462 0.858956 0.498556
2121 1 0.0480653 0.86044 0.493543
2232 1 0.362634 0.85612 0.498673
2439 1 0.375375 0.850036 0.494152
2298 1 0.388 0.8563 0.49124
5113 1 0.378404 0.864885 0.496903
5321 1 0.402132 0.864609 0.490799
4895 1 0.0201232 0.869403 0.491109
2245 1 0.00441604 0.887828 0.499732
2393 1 0.020224 0.882151 0.497805
2181 1 0.00876868 0.878234 0.492074
2047 1 0.042185 0.870991 0.496863
1968 1 0.0304143 0.872412 0.4951
2517 1 0.402496 0.88414 0.500136
5048 1 0.4069 0.87504 0.496024
2449 1 0.3926 0.869732 0.49554
5260 1 0.418507 0.87209 0.490709
2588 1 0.416729 0.88554 0.496039
2372 1 0.428454 0.883266 0.493971
5254 1 0.452395 0.886799 0.489469
2574 1 0.436821 0.877145 0.487564
5258 1 0.440944 0.890444 0.492709
2515 1 0.430739 0.894772 0.498579
2507 1 0.450078 0.902162 0.495612
5464 1 0.470197 0.907428 0.488294
2516 1 0.460443 0.899939 0.491371
5255 1 0.463227 0.926543 0.499679
5462 1 0.472805 0.922556 0.493482
5115 1 0.478329 0.933933 0.495731
5256 1 0.462744 0.913665 0.494099
5473 1 0.484396 0.916528 0.488341
2730 1 0.487982 0.929085 0.490842
2877 1 0.489897 0.939144 0.49613
2282 1 0.155104 0.801726 0.503107
2133 1 0.171663 0.796973 0.500242
2128 1 0.187049 0.793159 0.499451
2569 1 0.198739 0.80483 0.502345
2408 1 0.115277 0.820505 0.502952
2123 1 0.132391 0.820611 0.504723
2190 1 0.13808 0.80676 0.50138
2418 1 0.14766 0.817304 0.505824
2274 1 0.16777 0.810016 0.504549
2421 1 0.163971 0.822566 0.510137
2414 1 0.180288 0.806601 0.503229
2281 1 0.179038 0.817183 0.508526
2062 1 0.192868 0.813693 0.506741
2700 1 0.191141 0.825368 0.513111
2426 1 0.209632 0.811691 0.505841
2637 1 0.206167 0.824532 0.50995
2493 1 0.222946 0.821302 0.508
2354 1 0.238931 0.816588 0.503609
2142 1 0.227676 0.808258 0.502617
2705 1 0.250498 0.821401 0.504015
2353 1 0.262895 0.821209 0.501345
2211 1 0.0972957 0.839162 0.504247
2484 1 0.103652 0.827544 0.502988
2396 1 0.122594 0.828337 0.507344
2127 1 0.112394 0.838029 0.508572
2265 1 0.151027 0.828787 0.513047
2204 1 0.138963 0.828837 0.509994
2565 1 0.234926 0.828439 0.508004
2627 1 0.21761 0.832722 0.512376
2640 1 0.249055 0.832769 0.510638
2280 1 0.263097 0.831329 0.506972
2504 1 0.27683 0.833025 0.5046
2510 1 0.273711 0.842409 0.510118
2572 1 0.292622 0.825484 0.501344
2357 1 0.288975 0.835617 0.506075
2230 1 0.302858 0.841001 0.507997
2423 1 0.288982 0.847445 0.511427
2496 1 0.305803 0.832686 0.502566
5116 1 0.317967 0.839126 0.505539
5120 1 0.329021 0.846054 0.50881
5187 1 0.334729 0.842122 0.501614
2375 1 0.328254 0.831659 0.499377
2119 1 0.0732948 0.850007 0.501043
2052 1 0.0698922 0.861691 0.503302
1979 1 0.0806094 0.860763 0.507682
2046 1 0.103767 0.851091 0.509376
2126 1 0.088404 0.847685 0.50475
2193 1 0.0945128 0.858753 0.511034
2646 1 0.312201 0.848202 0.511316
2380 1 0.336901 0.856575 0.507668
2519 1 0.34439 0.867997 0.508971
2434 1 0.346425 0.854734 0.500408
2577 1 0.356617 0.867368 0.503634
2109 1 0.0309345 0.882402 0.500504
2250 1 0.041402 0.890071 0.508569
2197 1 0.0419769 0.879749 0.504548
2342 1 0.0552481 0.870773 0.502143
2323 1 0.0540679 0.88123 0.50798
2044 1 0.0658259 0.872872 0.506206
2583 1 0.362761 0.881127 0.508952
2590 1 0.349801 0.878256 0.511443
5268 1 0.369374 0.87346 0.503568
5251 1 0.38428 0.878112 0.501568
2508 1 0.377462 0.887911 0.507096
2636 1 0.39092 0.889117 0.505897
2256 1 0.0153957 0.89252 0.502829
2180 1 -0.000871509 0.899649 0.504916
2251 1 0.0120644 0.89972 0.507858
2262 1 0.0278178 0.893472 0.507491
5324 1 0.401637 0.899502 0.506885
2520 1 0.413759 0.896191 0.500241
2445 1 0.414799 0.908692 0.506619
2659 1 0.425369 0.902995 0.503043
5393 1 0.439148 0.905911 0.501811
5322 1 0.411279 0.921016 0.512577
2729 1 0.427674 0.914208 0.50635
5470 1 0.423272 0.926321 0.510564
2450 1 0.439848 0.920672 0.504503
2366 1 0.450782 0.916899 0.500743
2514 1 0.452079 0.932169 0.503271
5394 1 0.434836 0.93576 0.509045
2802 1 0.449262 0.943513 0.510859
2446 1 0.462016 0.941713 0.505404
5118 1 0.47436 0.941674 0.503619
2718 1 0.462965 0.95369 0.509854
5325 1 0.476123 0.955498 0.50773
5534 1 0.483397 0.947215 0.500835
2587 1 0.473247 0.967686 0.512427
5398 1 0.49054 0.958294 0.504497
2945 1 0.485388 0.967985 0.509433
2332 1 0.124314 0.842691 0.512482
2346 1 0.139005 0.840049 0.515548
2485 1 0.150838 0.839563 0.517266
2773 1 0.164288 0.833331 0.514817
2276 1 0.17107 0.842223 0.51915
2362 1 0.177807 0.830563 0.514244
2429 1 0.186728 0.837255 0.517206
2417 1 0.202177 0.833234 0.514852
2634 1 0.217161 0.84381 0.518557
2348 1 0.201759 0.84129 0.520906
2560 1 0.235139 0.838243 0.513571
2422 1 0.233863 0.849218 0.520018
2563 1 0.248853 0.845608 0.517016
2430 1 0.262175 0.844145 0.513022
2208 1 0.106763 0.863474 0.517082
2340 1 0.114188 0.852628 0.513865
2336 1 0.127402 0.851584 0.518867
2395 1 0.120268 0.86291 0.520526
2412 1 0.143575 0.850227 0.520809
2415 1 0.134089 0.861392 0.524263
2356 1 0.151895 0.856408 0.523674
2351 1 0.161501 0.850002 0.520918
2331 1 0.172303 0.856727 0.525213
2411 1 0.185372 0.84788 0.52341
2481 1 0.24772 0.855536 0.522811
119 1 0.260586 0.86684 0.524185
2568 1 0.259326 0.856005 0.519646
2502 1 0.276846 0.852611 0.516469
2420 1 0.274182 0.861958 0.522515
2709 1 0.290409 0.86004 0.518727
2438 1 0.298117 0.853298 0.513745
2509 1 0.308367 0.860766 0.516484
2641 1 0.321567 0.857385 0.513035
2513 1 0.330765 0.866518 0.512269
2249 1 0.0630078 0.885753 0.513974
2409 1 0.0762064 0.873929 0.512383
2407 1 0.0762976 0.886039 0.518368
2192 1 0.0888305 0.868675 0.514607
2264 1 0.0892824 0.884164 0.517666
2270 1 0.0998742 0.876096 0.519523
2410 1 0.101369 0.887764 0.523428
2339 1 0.113395 0.876459 0.523176
2566 1 0.302109 0.870555 0.522225
2309 1 0.318447 0.868861 0.518362
2721 1 0.310591 0.881814 0.523281
2805 1 0.32392 0.880402 0.520607
2578 1 0.334729 0.87778 0.515318
2586 1 0.348091 0.890461 0.51671
2320 1 0.0118981 0.910043 0.514948
2114 1 0.0234555 0.904631 0.511885
2253 1 0.0369087 0.90303 0.51412
2459 1 0.0342253 0.91341 0.519548
2110 1 0.0517302 0.89553 0.513747
2254 1 0.050795 0.90656 0.519976
2390 1 0.0635099 0.913275 0.523817
2460 1 0.0660156 0.898371 0.518642
2467 1 0.0778065 0.903978 0.523364
2535 1 0.0865671 0.894393 0.522429
2497 1 0.317256 0.894775 0.52535
2706 1 0.333506 0.895 0.521169
2576 1 0.359944 0.892613 0.514206
2506 1 0.3483 0.903385 0.521133
5466 1 0.362849 0.902498 0.518652
2655 1 0.367609 0.916221 0.519273
2581 1 0.388822 0.898755 0.513151
2647 1 0.374862 0.895099 0.513277
2722 1 0.377465 0.90548 0.517207
130 1 0.399833 0.909605 0.513389
2534 1 0.00778741 0.921339 0.520307
2184 1 0.0223336 0.916444 0.518994
2179 1 0.00663351 0.930495 0.524724
2389 1 0.032656 0.924762 0.525528
2260 1 0.047884 0.918198 0.523835
2777 1 0.356412 0.914725 0.522573
136 1 0.360901 0.927772 0.523798
2720 1 0.385757 0.917132 0.518286
2644 1 0.37333 0.927276 0.521957
2719 1 0.386243 0.930181 0.519807
2789 1 0.401001 0.924196 0.516499
138 1 0.412525 0.933605 0.516452
2651 1 0.382945 0.940643 0.522914
2796 1 0.401057 0.937252 0.519582
2800 1 0.412415 0.94838 0.520706
2807 1 0.395214 0.947519 0.522502
133 1 0.422234 0.942169 0.515876
348 1 0.427954 0.955971 0.520243
2725 1 0.435338 0.949802 0.513684
131 1 0.418155 0.964449 0.523704
553 1 0.434555 0.970792 0.52462
2443 1 0.449776 0.956799 0.515721
2946 1 0.440485 0.961115 0.519614
2941 1 0.448871 0.97263 0.521662
2723 1 0.458599 0.96724 0.51708
5546 1 0.471051 0.975344 0.519129
2652 1 0.498632 0.977714 0.513269
2799 1 0.458658 0.979281 0.523579
2726 1 0.484296 0.979027 0.518334
2875 1 0.478609 0.989815 0.523243
2724 1 0.494355 0.991656 0.519975
2424 1 0.145718 0.86693 0.528616
2343 1 0.161011 0.86565 0.526311
2475 1 0.183272 0.863482 0.527114
2562 1 0.207446 0.853113 0.524532
2553 1 0.19657 0.859119 0.527064
2419 1 0.206786 0.865739 0.530057
2558 1 0.220939 0.852877 0.525904
2550 1 0.232234 0.861362 0.527265
2486 1 0.220268 0.867689 0.532168
2489 1 0.244705 0.86814 0.526134
2333 1 0.129168 0.886204 0.529218
2349 1 0.12946 0.873021 0.52706
2557 1 0.141127 0.880611 0.531861
2691 1 0.157018 0.877148 0.532864
2552 1 0.170638 0.872726 0.530635
2252 1 0.169332 0.887671 0.536089
2479 1 0.153494 0.890777 0.536123
2328 1 0.182504 0.877294 0.532985
2404 1 0.195919 0.87444 0.528876
2490 1 0.184035 0.890185 0.537527
2561 1 0.205356 0.880166 0.533665
2703 1 0.195391 0.888828 0.535131
2633 1 0.218895 0.879597 0.535143
2643 1 0.231998 0.875674 0.534166
2492 1 0.258641 0.87736 0.528922
2416 1 0.244665 0.881453 0.531584
49 1 0.275249 0.873661 0.526766
2771 1 0.267569 0.889134 0.531775
2559 1 0.288888 0.869674 0.526248
2710 1 0.281232 0.884467 0.530724
2575 1 0.298933 0.881747 0.52796
2400 1 0.0847666 0.90954 0.529651
2325 1 0.0947596 0.898031 0.528498
2466 1 0.107282 0.90203 0.531914
2545 1 0.0960532 0.912008 0.5359
2324 1 0.114804 0.889973 0.529706
2048 1 0.123478 0.900184 0.533477
2186 1 0.135201 0.894742 0.536983
2631 1 0.228199 0.892722 0.536828
2714 1 0.254075 0.89305 0.532704
2642 1 0.242539 0.89189 0.536277
2491 1 0.278727 0.899092 0.534169
118 1 0.265067 0.901179 0.536734
2707 1 0.292379 0.896498 0.531926
2580 1 0.304551 0.910603 0.535431
2629 1 0.288587 0.911043 0.537007
2432 1 0.305484 0.895456 0.53011
2584 1 0.314626 0.906456 0.53152
2704 1 0.325032 0.902338 0.526754
2638 1 0.335751 0.911519 0.525601
2322 1 0.019787 0.929098 0.524408
2610 1 0.0427129 0.93032 0.529596
2533 1 0.0575857 0.922261 0.53025
2542 1 0.056802 0.936293 0.535976
2539 1 0.072394 0.916995 0.529942
2537 1 0.0848315 0.921068 0.534336
2531 1 0.0715576 0.928451 0.535391
2589 1 0.326012 0.915702 0.532332
2657 1 0.315114 0.923351 0.535984
53 1 0.325698 0.932858 0.536662
2582 1 0.33566 0.92461 0.530668
2660 1 0.347627 0.923471 0.527549
2570 1 0.339458 0.935101 0.533848
2776 1 0.353352 0.934105 0.529797
2469 1 -0.00195579 0.941045 0.528805
2457 1 0.0145682 0.939269 0.530933
2620 1 0.00182371 0.952544 0.533112
2679 1 0.0156789 0.951619 0.535593
2454 1 0.0297906 0.935491 0.530919
2540 1 0.0411706 0.942178 0.536081
2468 1 0.0287727 0.944524 0.536395
2650 1 0.348303 0.94714 0.534692
2656 1 0.360756 0.947156 0.530727
2512 1 0.371746 0.941947 0.52768
2943 1 0.385613 0.957754 0.525413
61 1 0.36047 0.961143 0.53456
2782 1 0.367579 0.976853 0.537505
5391 1 0.374688 0.955394 0.529262
2585 1 0.374672 0.968151 0.533163
64 1 0.390122 0.968042 0.52964
2794 1 0.401486 0.958509 0.524256
196 1 0.404021 0.973054 0.528683
192 1 0.418772 0.976439 0.527384
63 1 0.389636 0.979051 0.532352
194 1 0.392571 0.997987 0.538074
137 1 0.403484 0.987519 0.532282
200 1 0.416758 0.98922 0.529862
2645 1 0.430228 0.984963 0.529476
188 1 0.419958 0.999158 0.534503
56 1 0.443082 0.980554 0.527242
201 1 0.436265 0.995628 0.531427
199 1 0.45094 0.992042 0.52878
2873 1 0.466588 0.990076 0.525118
2394 1 0.116383 0.908486 0.538038
2326 1 0.129953 0.909891 0.541536
2334 1 0.143028 0.902099 0.541013
2405 1 0.15962 0.900701 0.54023
2487 1 0.173979 0.901048 0.541116
2329 1 0.189192 0.903259 0.541605
2765 1 0.212576 0.893282 0.537484
2258 1 0.201823 0.901639 0.538546
2767 1 0.213905 0.909793 0.542728
2259 1 0.224292 0.903307 0.541301
2711 1 0.238023 0.90442 0.540779
117 1 0.253629 0.904745 0.539903
2702 1 0.270469 0.911447 0.541714
2751 1 0.0958436 0.923504 0.541168
2402 1 0.109523 0.92872 0.545689
2618 1 0.108482 0.916567 0.541434
2476 1 0.119367 0.930978 0.54966
2678 1 0.123968 0.920713 0.543424
2474 1 0.139096 0.918019 0.544713
2548 1 0.148722 0.927925 0.548727
2401 1 0.153351 0.915468 0.542919
2330 1 0.170559 0.916732 0.542396
2463 1 0.161294 0.923752 0.546842
2321 1 0.183092 0.916793 0.54249
2551 1 0.174448 0.928734 0.549599
2478 1 0.189173 0.926739 0.547072
2397 1 0.20004 0.916442 0.543286
2625 1 0.224591 0.914651 0.54669
2698 1 0.239265 0.917163 0.545524
2628 1 0.25515 0.930245 0.548379
2546 1 0.253943 0.9161 0.545158
2701 1 0.241932 0.928564 0.549731
2769 1 0.267689 0.927351 0.545028
2712 1 0.283093 0.923377 0.541505
2654 1 0.296428 0.923637 0.538695
2635 1 0.311934 0.934812 0.541128
2398 1 0.037605 0.956101 0.544022
10 1 0.0521442 0.946664 0.541958
2688 1 0.0645954 0.954846 0.546227
2471 1 0.0680585 0.941808 0.540848
2527 1 0.0823501 0.934084 0.540717
2692 1 0.0799274 0.94791 0.546657
2544 1 0.0964099 0.937001 0.546987
2780 1 0.280107 0.93502 0.5459
45 1 0.276027 0.946864 0.548725
115 1 0.262158 0.941637 0.549547
2778 1 0.29577 0.936781 0.543894
2653 1 0.291156 0.952372 0.547144
191 1 0.306837 0.948396 0.54575
2494 1 0.318585 0.946984 0.541959
2571 1 0.33419 0.944534 0.53763
2756 1 0.0104445 0.962209 0.539333
17 1 0.00592731 0.974085 0.54331
2601 1 0.0201273 0.97007 0.546245
2680 1 0.023384 0.956752 0.541838
2611 1 0.0334322 0.96863 0.547865
24 1 0.0516069 0.960004 0.547066
122 1 0.278718 0.961291 0.550732
189 1 0.299798 0.964134 0.547685
51 1 0.316162 0.960437 0.54521
2790 1 0.324987 0.97235 0.547297
58 1 0.307523 0.974067 0.548864
2728 1 0.329045 0.961509 0.54346
2792 1 0.341888 0.974098 0.543634
2573 1 0.340826 0.961271 0.538444
2715 1 0.355305 0.970725 0.539434
2745 1 0.0129392 0.983563 0.548207
2785 1 0.320484 0.982209 0.548252
2649 1 0.33406 0.986759 0.546861
2783 1 0.347829 0.993755 0.547774
2717 1 0.355088 0.985466 0.543047
261 1 0.367181 0.99395 0.54167
198 1 0.380747 0.985999 0.537661
2529 1 0.135615 0.932041 0.549757
2257 1 0.163316 0.93514 0.551943
2266 1 0.214017 0.92351 0.550921
2482 1 0.200307 0.929482 0.550368
2772 1 0.229971 0.928935 0.551679
106 1 0.0960696 0.948931 0.550159
105 1 0.103747 0.955642 0.555396
2763 1 0.108492 0.942244 0.551623
2477 1 0.123097 0.940083 0.554886
2403 1 0.116974 0.953117 0.55762
2406 1 0.131773 0.955884 0.560292
2609 1 0.136089 0.945116 0.555224
2555 1 0.147123 0.952021 0.558599
2267 1 0.14905 0.939478 0.553961
2613 1 0.16173 0.944978 0.557246
2619 1 0.172732 0.954317 0.560429
2399 1 0.190521 0.939238 0.551539
2614 1 0.177498 0.943807 0.554615
2327 1 0.18842 0.952057 0.556635
2350 1 0.201904 0.944843 0.554297
2261 1 0.20323 0.955206 0.558327
2554 1 0.215415 0.937231 0.553272
2699 1 0.217671 0.949179 0.556625
2774 1 0.230762 0.942213 0.553698
2564 1 0.248686 0.944897 0.552554
2695 1 0.239412 0.956161 0.557307
50 1 0.262461 0.957267 0.552051
31 1 0.0440259 0.970285 0.552196
247 1 0.0603944 0.976736 0.55601
2689 1 0.0633709 0.96611 0.552675
99 1 0.0773331 0.960645 0.553626
2615 1 0.0739834 0.97377 0.557231
175 1 0.0884178 0.97177 0.558259
2547 1 0.0904535 0.960621 0.553296
108 1 0.100964 0.968484 0.560107
110 1 0.114767 0.966985 0.561295
2473 1 0.185155 0.962313 0.561584
37 1 0.216351 0.963959 0.560678
2708 1 0.198791 0.965852 0.561602
2632 1 0.227244 0.959409 0.5581
2768 1 0.224513 0.977602 0.561738
2556 1 0.236512 0.971841 0.560317
120 1 0.252 0.96479 0.55675
186 1 0.264422 0.970536 0.555175
2779 1 0.290433 0.968585 0.551936
2453 1 0.00540748 0.997515 0.552164
2676 1 0.0203722 0.992819 0.553719
173 1 0.029221 0.980099 0.551721
2683 1 0.0348913 0.990562 0.557372
29 1 0.0428811 0.980051 0.556233
20 1 0.0591043 0.996572 0.562723
2686 1 0.045158 0.999539 0.559696
96 1 0.0518621 0.986942 0.55833
34 1 0.0659746 0.984612 0.560234
26 1 0.0796386 0.985753 0.562691
100 1 0.237359 0.987755 0.561471
111 1 0.249898 0.979693 0.559359
35 1 0.253155 0.996992 0.560387
2791 1 0.278802 0.979835 0.555138
2621 1 0.26422 0.985068 0.55767
374 1 0.286654 0.991037 0.557095
2761 1 0.30011 0.982838 0.55314
2716 1 0.311513 0.990744 0.55082
195 1 0.325075 0.99825 0.551233
2626 1 0.129059 0.968902 0.562928
2616 1 0.144036 0.962641 0.56339
2684 1 0.139899 0.975392 0.568409
2693 1 0.157413 0.958485 0.562875
2624 1 0.15515 0.971996 0.566584
30 1 0.171395 0.967353 0.564392
2630 1 0.18607 0.975637 0.567076
2759 1 0.210705 0.978763 0.563829
32 1 0.0889814 0.996446 0.567537
2754 1 0.096512 0.980532 0.563257
15 1 0.105065 0.992679 0.567088
102 1 0.114599 0.979306 0.565923
93 1 0.127001 0.979912 0.568657
161 1 0.121086 0.991818 0.570577
2764 1 0.147944 0.996271 0.573681
2694 1 0.153986 0.983024 0.57027
177 1 0.135842 0.991515 0.571815
39 1 0.167404 0.979516 0.569507
2775 1 0.161615 0.993302 0.572116
2690 1 0.172513 0.999718 0.574082
2549 1 0.189349 0.996781 0.571641
42 1 0.17917 0.985571 0.57142
2617 1 0.212524 0.991421 0.565424
2623 1 0.199094 0.98645 0.568296
2766 1 0.205735 1.00041 0.570821
43 1 0.224742 0.990668 0.564458
113 1 0.240124 1.00101 0.564469
4092 1 0.809067 0.498139 0.460264
4100 1 0.827558 0.497995 0.457086
4302 1 0.843413 0.496253 0.456605
4166 1 0.851767 0.487674 0.462823
4303 1 0.861576 0.495045 0.457808
4388 1 0.890186 0.492139 0.459784
4379 1 0.876435 0.486512 0.461291
4380 1 0.880443 0.498384 0.455878
4386 1 0.904794 0.492776 0.460341
4515 1 0.92037 0.495572 0.459711
4327 1 0.934676 0.489916 0.461235
4394 1 0.947328 0.491957 0.459141
4393 1 0.964882 0.492079 0.458789
4396 1 0.977562 0.500047 0.457504
4402 1 0.985082 0.491611 0.45867
4330 1 0.994949 0.485351 0.461902
4452 1 0.993882 0.500807 0.455487
4179 1 0.843676 0.469376 0.47225
4150 1 0.843168 0.479098 0.465991
4517 1 0.855669 0.47283 0.470106
4246 1 0.865474 0.46249 0.474824
4442 1 0.891088 0.472595 0.471736
4444 1 0.874165 0.472667 0.468535
4108 1 0.8787 0.46544 0.473809
4454 1 0.902925 0.477511 0.470493
4390 1 0.918193 0.473735 0.472062
4609 1 0.934696 0.477173 0.469993
4176 1 0.947104 0.472762 0.47262
4178 1 0.975216 0.475068 0.46737
4252 1 0.959481 0.471756 0.470719
4450 1 0.968213 0.464349 0.473908
4326 1 0.991247 0.475044 0.466684
4322 1 0.998473 0.46549 0.473338
4316 1 0.983051 0.465518 0.472922
4099 1 0.78993 0.493129 0.470638
4368 1 0.805023 0.48946 0.467169
4168 1 0.817689 0.483007 0.46907
4173 1 0.821693 0.490514 0.463141
4458 1 0.835929 0.48693 0.462188
4106 1 0.830427 0.478699 0.469682
4314 1 0.86277 0.480342 0.464693
4037 1 0.884546 0.479439 0.466312
4375 1 0.911891 0.483363 0.464689
4317 1 0.8973 0.482823 0.464629
4459 1 0.926975 0.482797 0.465805
4318 1 0.946087 0.482945 0.464768
4397 1 0.977588 0.484092 0.461669
4323 1 0.961266 0.482856 0.464901
4177 1 0.850425 0.451934 0.483715
3965 1 0.86373 0.456209 0.480443
4310 1 0.860545 0.4454 0.486094
4043 1 0.878466 0.456353 0.480535
4109 1 0.875688 0.446454 0.486003
4111 1 0.910137 0.457984 0.481411
4172 1 0.897935 0.45293 0.481832
4381 1 0.921985 0.449955 0.484617
3906 1 0.954116 0.45027 0.48496
4181 1 0.937504 0.449171 0.487131
4182 1 0.968339 0.445852 0.485782
4115 1 0.964997 0.454669 0.479612
4248 1 0.976191 0.455715 0.479691
4038 1 0.985166 0.448167 0.484928
4387 1 0.992493 0.455714 0.479251
1733 1 0.508555 0.471672 0.486745
4297 1 0.802257 0.476577 0.483318
4241 1 0.824069 0.468884 0.483514
4169 1 0.813613 0.469566 0.486107
4238 1 0.816347 0.47473 0.477007
4244 1 0.827096 0.458125 0.487364
4443 1 0.82991 0.471768 0.475651
4372 1 0.837645 0.461454 0.480829
4102 1 0.850837 0.46157 0.477758
4040 1 0.892004 0.463895 0.477677
4462 1 0.907136 0.467293 0.474438
4384 1 0.933435 0.468251 0.476437
4249 1 0.929737 0.459019 0.482342
4382 1 0.919711 0.464608 0.478761
4036 1 0.942143 0.460756 0.480903
4039 1 0.953935 0.462607 0.478141
4138 1 0.500086 0.481595 0.481409
1598 1 0.52 0.481199 0.485196
4133 1 0.512724 0.488352 0.479793
4279 1 0.524431 0.492805 0.481746
4062 1 0.535008 0.482011 0.485845
1957 1 0.540133 0.497827 0.481981
1678 1 0.550917 0.490491 0.485646
1744 1 0.562463 0.483684 0.486971
4136 1 0.56167 0.497101 0.483138
4349 1 0.5878 0.493607 0.486657
4137 1 0.574396 0.486709 0.487188
4481 1 0.629667 0.49834 0.485055
3935 1 0.669467 0.493528 0.485838
1259 1 0.682837 0.497328 0.48319
4081 1 0.695533 0.493585 0.484711
3670 1 0.708237 0.494112 0.484599
4142 1 0.716136 0.499566 0.478717
4164 1 0.735793 0.494847 0.477952
4008 1 0.723573 0.488699 0.484755
3740 1 0.758722 0.485048 0.484835
4013 1 0.739938 0.485949 0.484744
4024 1 0.75284 0.493623 0.479382
4104 1 0.782467 0.493301 0.476778
4107 1 0.774252 0.484967 0.48422
3958 1 0.765993 0.495584 0.480444
4307 1 0.80104 0.481543 0.475175
4308 1 0.788683 0.480548 0.482604
4242 1 0.890744 0.431707 0.496058
3967 1 0.923094 0.433016 0.497551
4049 1 0.935264 0.426029 0.49899
4378 1 0.95058 0.432393 0.497363
3900 1 0.961668 0.426192 0.49982
3907 1 0.973866 0.429701 0.495301
3905 1 0.988255 0.419667 0.497395
4257 1 0.987846 0.433738 0.493603
1466 1 0.505278 0.4399 0.496657
1398 1 0.511071 0.453863 0.494376
4203 1 0.51938 0.444374 0.49992
4002 1 0.54989 0.452368 0.497999
3886 1 0.766241 0.453428 0.499762
4167 1 0.808668 0.45072 0.496614
3821 1 0.815816 0.440252 0.499797
3896 1 0.816933 0.458613 0.491177
3970 1 0.826084 0.446883 0.495314
4311 1 0.842339 0.44301 0.4953
4239 1 0.840394 0.449641 0.48864
4236 1 0.833347 0.435739 0.500952
4243 1 0.854376 0.441289 0.49355
4096 1 0.865984 0.438978 0.49402
4035 1 0.878838 0.439539 0.492329
3888 1 0.907116 0.437962 0.49384
4377 1 0.892714 0.444289 0.488073
4029 1 0.908295 0.445556 0.486089
4250 1 0.92271 0.44357 0.490718
4312 1 0.936711 0.438997 0.493936
4313 1 0.949013 0.441748 0.491594
3969 1 0.962291 0.439682 0.493154
4110 1 0.996908 0.4397 0.489613
4044 1 0.979479 0.440081 0.489722
1315 1 0.501823 0.459131 0.488458
1317 1 0.519452 0.466019 0.4896
1470 1 0.525071 0.45706 0.494927
4271 1 0.532455 0.470235 0.490732
1399 1 0.5392 0.458062 0.494332
4205 1 0.548999 0.467017 0.492719
1322 1 0.562669 0.463951 0.495754
1184 1 0.552585 0.476963 0.488734
4551 1 0.568003 0.474756 0.493315
4016 1 0.577195 0.464256 0.499627
4139 1 0.580719 0.472439 0.492976
1330 1 0.59389 0.469439 0.498077
4420 1 0.605065 0.477176 0.494793
3995 1 0.623537 0.470162 0.499447
3921 1 0.640385 0.472465 0.498708
3930 1 0.654417 0.47378 0.499018
3937 1 0.670837 0.474517 0.498229
1325 1 0.687306 0.475489 0.49877
4085 1 0.71335 0.473498 0.497322
3881 1 0.726869 0.47005 0.495933
3882 1 0.750992 0.477229 0.490127
3936 1 0.742915 0.468034 0.497158
3950 1 0.757999 0.468709 0.494262
4158 1 0.764202 0.476699 0.490267
4034 1 0.774855 0.463653 0.494641
3957 1 0.779527 0.471983 0.489376
4240 1 0.791802 0.46968 0.488792
4027 1 0.788838 0.458627 0.495202
4230 1 0.802993 0.464764 0.491818
4068 1 0.604681 0.489331 0.489908
4412 1 0.590007 0.479353 0.49119
4064 1 0.619328 0.491634 0.488369
4065 1 0.619283 0.480927 0.494581
3992 1 0.645628 0.496428 0.487104
1400 1 0.63311 0.48012 0.494768
4132 1 0.633412 0.490101 0.490823
4004 1 0.647002 0.48566 0.493367
3923 1 0.660509 0.483338 0.494711
4351 1 0.659529 0.492232 0.48934
4067 1 0.676885 0.48586 0.492461
4342 1 0.69341 0.486616 0.492246
4009 1 0.702593 0.478195 0.496314
4012 1 0.709865 0.486121 0.490358
4023 1 0.721133 0.48085 0.492414
3951 1 0.737905 0.476696 0.490755
2895 1 0.597982 0.00383524 0.5101
5348 1 0.611016 0.00291149 0.511436
2897 1 0.670558 -0.000511424 0.510562
3504 1 0.501742 0.40653 0.51284
3972 1 0.922153 0.406417 0.510299
3760 1 0.950594 0.407601 0.509402
3822 1 0.937935 0.414025 0.506661
4117 1 0.972832 0.409827 0.505763
4260 1 0.964309 0.403128 0.512317
3773 1 0.978755 0.401299 0.510992
4185 1 0.985893 0.40803 0.504081
3909 1 0.993214 0.39956 0.50815
1188 1 0.515821 0.428757 0.50399
1392 1 0.507518 0.417907 0.507951
3782 1 0.523352 0.420628 0.509615
1258 1 0.539155 0.42532 0.510017
1323 1 0.553777 0.434338 0.507529
1458 1 0.563148 0.426375 0.510621
1395 1 0.58249 0.434901 0.511073
3819 1 0.759118 0.434183 0.510673
4170 1 0.774529 0.430034 0.510818
4105 1 0.79671 0.431218 0.506918
4093 1 0.822977 0.429532 0.503969
3756 1 0.808773 0.423613 0.50883
3964 1 0.826382 0.420871 0.510318
3671 1 0.840301 0.42796 0.504487
3898 1 0.843728 0.419237 0.510637
3894 1 0.855539 0.42369 0.505946
3616 1 0.853102 0.431942 0.49972
3674 1 0.865296 0.428887 0.502684
3830 1 0.871995 0.423342 0.508271
3838 1 0.885776 0.424129 0.505818
3904 1 0.886318 0.416357 0.51257
4114 1 0.878019 0.431407 0.500554
4032 1 0.909085 0.415834 0.50575
3889 1 0.897689 0.425183 0.502735
3975 1 0.899721 0.417686 0.510694
4041 1 0.910383 0.42992 0.499674
3901 1 0.925068 0.419401 0.503848
3968 1 0.947414 0.420423 0.503063
3750 1 0.958466 0.41437 0.504892
3977 1 0.97559 0.420193 0.499541
3574 1 0.528479 0.434387 0.505273
1245 1 0.533713 0.446686 0.500362
1120 1 0.562639 0.443288 0.50413
1050 1 0.543497 0.438476 0.503463
1255 1 0.570685 0.434798 0.508363
1190 1 0.569265 0.454354 0.501805
3946 1 0.578432 0.446948 0.50632
3998 1 0.59286 0.446413 0.508192
3932 1 0.604595 0.454575 0.506308
3852 1 0.613841 0.447431 0.511441
3993 1 0.626682 0.453004 0.508319
3851 1 0.639171 0.454277 0.510049
3944 1 0.657589 0.454697 0.510608
3929 1 0.671223 0.453777 0.510014
3955 1 0.691729 0.455052 0.507798
3737 1 0.683668 0.446248 0.511942
3875 1 0.709949 0.454146 0.507252
3952 1 0.715441 0.44269 0.512277
4003 1 0.727131 0.45372 0.508117
3885 1 0.728875 0.443528 0.512987
4033 1 0.74358 0.451007 0.506216
3744 1 0.757599 0.446851 0.505698
3883 1 0.772361 0.439546 0.504755
4171 1 0.782135 0.447458 0.499619
3823 1 0.786042 0.438064 0.506548
4097 1 0.795794 0.445286 0.501743
4174 1 0.804805 0.435124 0.502314
1462 1 0.589379 0.45694 0.502482
4206 1 0.608609 0.467418 0.501382
3991 1 0.618594 0.458475 0.505327
4066 1 0.633502 0.463293 0.503613
1260 1 0.65064 0.46239 0.504472
4074 1 0.66485 0.466174 0.502642
3934 1 0.679615 0.462206 0.503981
3872 1 0.69635 0.465152 0.503008
4083 1 0.709775 0.464272 0.502206
4021 1 0.721209 0.462241 0.50161
3809 1 0.734019 0.461648 0.501919
3945 1 0.752706 0.459416 0.500352
2810 1 0.520096 -0.000312211 0.519282
65 1 0.504631 0.00151399 0.52325
486 1 0.530155 0.0117506 0.522561
2806 1 0.531988 0.00176555 0.515881
5479 1 0.55894 0.00284408 0.515629
2874 1 0.5442 0.0106387 0.519971
2958 1 0.558619 0.0158271 0.520361
5461 1 0.586436 0.00688464 0.514077
2813 1 0.570496 0.0105196 0.516325
3249 1 0.580497 0.0178968 0.519073
2891 1 0.598022 0.0157145 0.517358
2963 1 0.624838 0.00536569 0.514127
2964 1 0.613033 0.0163404 0.517064
3031 1 0.628178 0.0173285 0.519313
3099 1 0.643095 0.011753 0.517529
2968 1 0.655936 0.00344245 0.51381
2973 1 0.655009 0.0179226 0.518056
2962 1 0.66542 0.0128352 0.514951
5560 1 0.698178 0.00277371 0.514728
2910 1 0.682535 0.00852812 0.515237
3051 1 0.692837 0.0178272 0.519569
2886 1 0.677202 0.0211905 0.519399
2969 1 0.710749 0.00321872 0.516034
5343 1 0.706488 0.015822 0.518158
3047 1 0.728333 0.00500946 0.514999
2903 1 0.721668 0.0154641 0.519399
2977 1 0.738721 0.0164381 0.520246
2982 1 0.757563 9.63504e-06 0.514615
3123 1 0.760901 0.0128947 0.521946
5574 1 0.742641 0.00358527 0.513613
5517 1 0.769728 0.00405254 0.519118
5586 1 0.778138 0.0152337 0.522574
5512 1 0.789113 0.0043885 0.519703
2854 1 0.805582 0.00196579 0.521715
208 1 0.569073 0.0238796 0.521385
140 1 0.591247 0.0271724 0.52143
2951 1 0.605726 0.0297899 0.522001
2948 1 0.592713 0.0424623 0.526752
2890 1 0.622648 0.0331063 0.523293
3172 1 0.639731 0.0280808 0.521679
3035 1 0.653008 0.0291757 0.521263
3032 1 0.666685 0.0276648 0.519878
2819 1 0.667591 0.0401827 0.524252
3110 1 0.653453 0.0406648 0.524502
2821 1 0.690032 0.0277256 0.522699
2983 1 0.68133 0.0356017 0.52428
3039 1 0.715866 0.0265897 0.521485
5552 1 0.704415 0.030704 0.522159
2855 1 0.72997 0.0282325 0.524737
3114 1 0.750617 0.0254304 0.524779
2829 1 0.692398 0.0430956 0.524883
2816 1 0.707642 0.0448565 0.526917
3897 1 0.932328 0.368408 0.524182
3828 1 0.918485 0.364546 0.524338
3697 1 0.956957 0.365697 0.524245
3765 1 0.999245 0.366901 0.52359
979 1 0.512938 0.389962 0.523539
1185 1 0.526934 0.388144 0.523183
3690 1 0.897196 0.387776 0.521367
3754 1 0.9099 0.392198 0.518073
3692 1 0.907312 0.377582 0.52315
3698 1 0.922842 0.380261 0.519176
3976 1 0.945344 0.374279 0.520477
3834 1 0.940151 0.387673 0.516658
3974 1 0.956835 0.382003 0.51798
3835 1 0.970257 0.372949 0.522
3558 1 0.968988 0.391648 0.515996
3560 1 0.977171 0.38388 0.520528
4127 1 0.998036 0.390995 0.512738
4125 1 0.992191 0.379562 0.519041
3978 1 0.984011 0.391341 0.514566
1250 1 0.517678 0.408389 0.514195
1254 1 0.510219 0.398918 0.517856
1320 1 0.525768 0.400534 0.519114
1187 1 0.542048 0.396682 0.522887
906 1 0.543096 0.409285 0.519349
1186 1 0.533379 0.41502 0.514352
1105 1 0.556428 0.404915 0.521601
1246 1 0.573835 0.410909 0.521768
3575 1 0.566089 0.400433 0.525585
3818 1 0.765409 0.410422 0.523198
3891 1 0.778863 0.409609 0.521278
3806 1 0.793243 0.404357 0.519153
4030 1 0.807476 0.40449 0.520721
3960 1 0.821392 0.405347 0.521271
4103 1 0.833796 0.411874 0.516312
3759 1 0.838167 0.401637 0.522857
3816 1 0.848843 0.408134 0.517293
3630 1 0.852258 0.396659 0.525389
3755 1 0.863144 0.406886 0.520246
3839 1 0.884572 0.393474 0.522991
3774 1 0.878061 0.406397 0.518642
3761 1 0.90786 0.404956 0.513307
3749 1 0.892307 0.402429 0.517328
3767 1 0.921961 0.395529 0.515298
4255 1 0.938255 0.401642 0.511798
4113 1 0.952484 0.396403 0.514129
3999 1 0.561187 0.415192 0.51815
1118 1 0.549704 0.421067 0.513689
3860 1 0.585184 0.418846 0.52165
3927 1 0.574276 0.425202 0.515832
3854 1 0.589484 0.427851 0.516384
980 1 0.602019 0.424924 0.520645
4141 1 0.617092 0.424373 0.525234
3783 1 0.611168 0.433908 0.517882
3880 1 0.64287 0.433646 0.522758
4090 1 0.710365 0.432949 0.517822
3726 1 0.696962 0.434993 0.517902
3799 1 0.695692 0.42747 0.524064
3963 1 0.727139 0.422059 0.524626
3801 1 0.723752 0.432021 0.518121
3813 1 0.737181 0.429608 0.519215
3787 1 0.742976 0.41793 0.522729
3804 1 0.754623 0.412479 0.521573
3941 1 0.753511 0.426044 0.518715
4026 1 0.775032 0.419608 0.517416
3679 1 0.787669 0.415694 0.517587
3887 1 0.786662 0.424391 0.512331
3966 1 0.801006 0.416394 0.514235
3829 1 0.817945 0.415065 0.515597
3689 1 0.860954 0.418041 0.51232
4045 1 0.870911 0.414222 0.515148
1256 1 0.599123 0.438693 0.513946
1117 1 0.627309 0.444574 0.514117
3928 1 0.628247 0.43509 0.520354
4075 1 0.642459 0.442561 0.516175
3873 1 0.655216 0.442117 0.518678
3717 1 0.670123 0.44575 0.518248
3808 1 0.680209 0.436604 0.519939
3812 1 0.699846 0.44282 0.512088
3871 1 0.745208 0.440541 0.513597
490 1 0.517511 0.0095084 0.525962
5538 1 0.503032 0.0129695 0.528626
2925 1 0.793237 0.0160649 0.525728
5453 1 0.807147 0.0113733 0.528302
5580 1 0.820922 0.00662826 0.527802
2931 1 0.824992 0.0157934 0.53438
2849 1 0.810966 0.0197059 0.534352
2853 1 0.832597 0.00406495 0.526925
145 1 0.840611 0.0131435 0.531958
5599 1 0.846045 0.000511318 0.525464
2985 1 0.854204 0.0107549 0.529803
5458 1 0.872501 0.00804914 0.534367
72 1 0.881553 0.00162496 0.529419
2867 1 0.883451 0.0147725 0.536989
5600 1 0.895764 0.00883642 0.532017
74 1 0.915042 0.00950022 0.534532
75 1 0.928835 0.0102112 0.53677
2594 1 0.939538 0.00302705 0.534304
2797 1 0.512493 0.0226994 0.530309
489 1 0.511022 0.0318778 0.536696
2871 1 0.538195 0.0190976 0.525741
70 1 0.524118 0.0191266 0.527844
3027 1 0.521994 0.0341505 0.533824
349 1 0.533227 0.0315124 0.53062
2795 1 0.550502 0.0230049 0.525705
3028 1 0.548135 0.0359186 0.530646
2808 1 0.563314 0.0300559 0.527605
2878 1 0.563554 0.0410354 0.532351
3017 1 0.579771 0.0338527 0.527027
2894 1 0.638845 0.0412417 0.526058
3189 1 0.722229 0.0383411 0.526009
3049 1 0.758649 0.0372689 0.529143
3183 1 0.741793 0.0343501 0.526407
3048 1 0.765803 0.025473 0.52657
5508 1 0.780129 0.0281776 0.528722
2991 1 0.771617 0.0379845 0.532765
2848 1 0.787247 0.039023 0.535711
5588 1 0.795395 0.0264468 0.532415
2913 1 0.805175 0.0346269 0.53733
2842 1 0.851685 0.0224363 0.537627
5530 1 0.864995 0.0209018 0.537558
2658 1 0.536041 0.0443135 0.53495
615 1 0.550208 0.050725 0.534721
205 1 0.577317 0.0471253 0.532952
3022 1 0.564733 0.052619 0.536042
3034 1 0.607395 0.0459876 0.529291
3154 1 0.589851 0.049492 0.531984
2882 1 0.604665 0.0566995 0.53231
2880 1 0.621466 0.0453811 0.527465
2953 1 0.621636 0.0590854 0.531304
2970 1 0.636834 0.0539175 0.530068
3021 1 0.649125 0.050734 0.528992
2974 1 0.65457 0.0624027 0.532099
3046 1 0.666329 0.053827 0.529051
3043 1 0.672518 0.064193 0.532816
2967 1 0.679569 0.049048 0.527382
2898 1 0.685808 0.0570087 0.530257
2976 1 0.696335 0.0526172 0.528942
2966 1 0.707635 0.061851 0.530262
2833 1 0.731589 0.0460304 0.52719
3045 1 0.719153 0.0517199 0.529159
3116 1 0.736068 0.0542138 0.53228
3040 1 0.724283 0.0638506 0.533683
3256 1 0.746992 0.0452328 0.529334
2832 1 0.759022 0.049722 0.53301
3258 1 0.748946 0.0606138 0.534852
2904 1 0.762549 0.0593707 0.538053
5576 1 0.773781 0.0494879 0.536439
3015 1 0.595313 0.0657533 0.535761
3089 1 0.628054 0.0720183 0.536156
204 1 0.610777 0.0668861 0.535333
3093 1 0.642438 0.0635415 0.534649
3185 1 0.670749 0.0771009 0.538062
3184 1 0.697239 0.0694307 0.532636
3180 1 0.683553 0.0704674 0.535622
3319 1 0.710524 0.0727472 0.534611
3333 1 0.734815 0.0711364 0.535978
3703 1 0.954781 0.316462 0.537063
3561 1 0.967891 0.323807 0.535143
3832 1 0.904219 0.344148 0.535488
3827 1 0.919195 0.342701 0.534801
3415 1 0.933142 0.341609 0.53201
3494 1 0.927101 0.325752 0.53626
3557 1 0.94511 0.341943 0.530205
3564 1 0.943546 0.327519 0.533618
3629 1 0.971231 0.344487 0.530355
3779 1 0.958487 0.33436 0.531613
3769 1 0.98187 0.334986 0.534812
3843 1 0.993579 0.344068 0.533955
4121 1 0.997908 0.33076 0.536535
1327 1 0.510215 0.363987 0.532113
3577 1 0.521367 0.363605 0.536943
3903 1 0.883041 0.357697 0.536437
3608 1 0.880747 0.367485 0.528683
3770 1 0.893517 0.365156 0.530077
3549 1 0.905865 0.363435 0.528858
3699 1 0.897026 0.354376 0.535482
3695 1 0.912778 0.352902 0.530585
3708 1 0.927314 0.354178 0.528313
3628 1 0.943272 0.355682 0.526058
3771 1 0.957747 0.349531 0.527792
3421 1 0.968936 0.360953 0.527211
3845 1 0.99667 0.354804 0.529275
3622 1 0.984077 0.354051 0.529826
1116 1 0.512014 0.379016 0.528316
978 1 0.524494 0.379897 0.528477
1182 1 0.531178 0.373046 0.533354
1257 1 0.540353 0.384199 0.527867
3862 1 0.543325 0.373551 0.535263
3861 1 0.551144 0.384549 0.532211
4000 1 0.565675 0.38847 0.53032
3859 1 0.561261 0.376092 0.536341
972 1 0.573174 0.380574 0.534538
3997 1 0.585171 0.380083 0.534722
3753 1 0.761026 0.382941 0.539002
4163 1 0.76722 0.388514 0.533646
3673 1 0.799435 0.385472 0.532214
3666 1 0.781765 0.38806 0.531369
3865 1 0.791701 0.378555 0.536681
3902 1 0.825988 0.383522 0.533664
3757 1 0.813604 0.385192 0.531165
3748 1 0.814984 0.376925 0.537113
4028 1 0.838432 0.378607 0.534303
3758 1 0.846615 0.38678 0.530412
3540 1 0.832113 0.390852 0.528333
3825 1 0.869458 0.368463 0.532941
3672 1 0.853135 0.37431 0.534626
3615 1 0.861309 0.384323 0.529012
3831 1 0.877743 0.381626 0.527358
4031 1 0.893162 0.376219 0.52624
3842 1 0.983512 0.367361 0.524604
1115 1 0.553755 0.394472 0.526366
1326 1 0.585487 0.406793 0.526778
3802 1 0.577025 0.393989 0.528904
3924 1 0.588721 0.392292 0.533169
3853 1 0.597857 0.403549 0.532012
3864 1 0.602728 0.39474 0.536459
4069 1 0.611979 0.406511 0.533485
3926 1 0.629201 0.406218 0.537522
4019 1 0.642612 0.400769 0.536404
3720 1 0.666715 0.399698 0.537586
3858 1 0.657069 0.40989 0.533137
3729 1 0.691996 0.405953 0.534696
3857 1 0.675377 0.408921 0.533481
3791 1 0.705521 0.410437 0.53587
3790 1 0.733175 0.408999 0.527237
3947 1 0.727664 0.401755 0.532638
3735 1 0.737181 0.393633 0.535893
3931 1 0.718255 0.412624 0.531451
3810 1 0.761285 0.401104 0.528324
3675 1 0.752732 0.392878 0.535233
3869 1 0.747032 0.405455 0.528594
3890 1 0.773796 0.39762 0.527615
3876 1 0.789218 0.392108 0.525832
3665 1 0.804278 0.395012 0.525608
3879 1 0.818556 0.392739 0.526711
3762 1 0.870906 0.395106 0.524524
909 1 0.596916 0.416656 0.526735
4005 1 0.60928 0.417752 0.529108
3867 1 0.62308 0.415892 0.530981
3949 1 0.630368 0.425285 0.525167
3878 1 0.64075 0.41232 0.531204
3953 1 0.651472 0.423671 0.528456
3874 1 0.664865 0.433008 0.524901
3855 1 0.668452 0.419034 0.529434
3798 1 0.686189 0.41628 0.532536
4018 1 0.681582 0.424338 0.526256
3939 1 0.712051 0.424353 0.525016
3713 1 0.699543 0.418343 0.529189
2750 1 0.902037 0.0187589 0.538035
2598 1 0.915425 0.0199106 0.541687
11 1 0.932168 0.0213717 0.542501
2665 1 0.952593 0.00243927 0.539469
2742 1 0.943061 0.0126687 0.539296
89 1 0.955252 0.0147727 0.546305
2538 1 0.943678 0.0231055 0.546971
2607 1 0.965473 0.00328223 0.543899
2741 1 0.980609 0.00406446 0.54771
3055 1 0.818214 0.0290645 0.539003
2923 1 0.83507 0.0340567 0.542609
2996 1 0.838205 0.0240059 0.536255
2993 1 0.847346 0.0319167 0.543421
2920 1 0.860641 0.0299085 0.544277
5584 1 0.854458 0.0427505 0.548544
2926 1 0.874168 0.0221846 0.542632
2743 1 0.886565 0.025345 0.543521
2 1 0.876211 0.0337907 0.547354
2669 1 0.904393 0.0293808 0.544947
2604 1 0.922322 0.0294896 0.548024
3011 1 0.511482 0.0438328 0.539721
552 1 0.508194 0.0572607 0.544211
2949 1 0.52292 0.0467099 0.537516
276 1 0.520914 0.0585763 0.542168
279 1 0.535408 0.0592832 0.539146
3019 1 0.550977 0.0609138 0.540092
2798 1 0.581007 0.0576792 0.536914
2908 1 0.783618 0.0573885 0.539727
2851 1 0.795635 0.0477078 0.540258
2841 1 0.825894 0.0460061 0.545295
2921 1 0.810152 0.045283 0.542091
3194 1 0.805574 0.0611703 0.545097
2850 1 0.820341 0.059329 0.546248
2930 1 0.839458 0.0471128 0.54715
2876 1 0.517738 0.0719947 0.546849
275 1 0.505214 0.0714792 0.547578
206 1 0.512288 0.0860972 0.549003
278 1 0.531082 0.073231 0.543428
345 1 0.525939 0.0865574 0.547903
3151 1 0.539551 0.0857743 0.547436
3221 1 0.544597 0.0708469 0.544496
350 1 0.556025 0.0844865 0.545386
139 1 0.564439 0.0665637 0.541473
3037 1 0.579178 0.0701225 0.541663
2944 1 0.570812 0.0818759 0.543835
2950 1 0.588337 0.0837133 0.543457
3025 1 0.601081 0.0772059 0.54084
2961 1 0.616783 0.0792411 0.540624
3024 1 0.631352 0.0853905 0.541012
3012 1 0.643304 0.0778251 0.539276
3085 1 0.656052 0.0740474 0.537531
3117 1 0.667116 0.0883552 0.541567
3111 1 0.685861 0.0824185 0.538926
3023 1 0.698995 0.0798203 0.537556
3029 1 0.710724 0.0855909 0.540746
3255 1 0.721638 0.0784016 0.539421
2984 1 0.737835 0.0835996 0.541209
3191 1 0.74703 0.0722827 0.5384
3118 1 0.754263 0.0798722 0.543975
2844 1 0.773679 0.0653391 0.540172
3120 1 0.761808 0.0725996 0.539602
3324 1 0.7678 0.0796217 0.543985
2918 1 0.782563 0.0749609 0.544002
3050 1 0.791809 0.0660961 0.543471
3268 1 0.78783 0.0810568 0.549262
2916 1 0.801559 0.0740176 0.547996
480 1 0.535625 0.101997 0.549962
3153 1 0.551248 0.0984199 0.54881
3224 1 0.564404 0.0995101 0.54728
688 1 0.579439 0.0930872 0.547202
3101 1 0.603658 0.0888485 0.54582
3083 1 0.591665 0.0995396 0.5489
3173 1 0.613068 0.101988 0.54772
2954 1 0.61638 0.0898746 0.545095
3168 1 0.628825 0.097425 0.545236
3157 1 0.624584 0.108793 0.548797
2881 1 0.64221 0.100112 0.545156
3105 1 0.651241 0.0893465 0.541672
3033 1 0.658341 0.0995214 0.544811
3169 1 0.675079 0.102561 0.545875
3175 1 0.681092 0.0933141 0.541641
3251 1 0.688884 0.102331 0.544929
3257 1 0.697675 0.0939562 0.541357
3395 1 0.714409 0.096462 0.546042
3178 1 0.702942 0.104172 0.547134
2831 1 0.727292 0.0921651 0.544931
3192 1 0.721357 0.106736 0.549734
3253 1 0.733316 0.102611 0.548874
3122 1 0.743538 0.0919773 0.547349
3119 1 0.757313 0.090756 0.548038
3095 1 0.542326 0.115266 0.548967
3082 1 0.559802 0.114906 0.550707
346 1 0.573453 0.109334 0.550366
3016 1 0.602841 0.112608 0.550271
3174 1 0.636547 0.111764 0.549371
3186 1 0.650505 0.114033 0.548381
3020 1 0.664882 0.114409 0.547355
2972 1 0.678884 0.115737 0.549363
3284 1 0.99718 0.279835 0.550469
3635 1 0.927936 0.300655 0.544494
3706 1 0.93878 0.287348 0.548264
706 1 0.953 0.289801 0.548822
3701 1 0.941609 0.30023 0.543601
3624 1 0.953396 0.304135 0.542645
3634 1 0.963918 0.299978 0.547913
3702 1 0.9675 0.284042 0.549427
777 1 0.976465 0.298574 0.54554
3570 1 0.983323 0.281813 0.549199
3566 1 0.990017 0.293736 0.547309
3649 1 0.510488 0.312096 0.549628
3502 1 0.533921 0.320304 0.549716
3627 1 0.853456 0.326455 0.550823
3487 1 0.899293 0.311464 0.54881
3413 1 0.893575 0.325667 0.544546
3625 1 0.906574 0.32067 0.542857
3491 1 0.912072 0.30684 0.547684
3492 1 0.92032 0.315855 0.541445
3639 1 0.937061 0.311567 0.539322
3775 1 0.970428 0.311725 0.540859
1193 1 0.986547 0.306229 0.54382
3700 1 0.983863 0.319814 0.539152
3648 1 0.518797 0.342268 0.543649
838 1 0.506011 0.343302 0.544795
3722 1 0.511819 0.328603 0.54648
3433 1 0.527919 0.334177 0.547239
3294 1 0.55523 0.343742 0.547266
3870 1 0.569139 0.346294 0.54853
3734 1 0.799057 0.348651 0.550113
3693 1 0.838226 0.342978 0.547957
3598 1 0.850207 0.341913 0.548215
3526 1 0.863229 0.337534 0.546705
3554 1 0.856945 0.348634 0.54289
3893 1 0.875007 0.345567 0.543532
3826 1 0.880683 0.333132 0.544239
3763 1 0.887293 0.345069 0.539693
3681 1 0.897404 0.338207 0.541782
3484 1 0.914992 0.330585 0.539228
3792 1 0.50863 0.353919 0.540052
3432 1 0.537027 0.345062 0.547078
3642 1 0.525857 0.35535 0.542071
3784 1 0.535989 0.361713 0.53814
1045 1 0.550714 0.364776 0.538962
3712 1 0.544994 0.352467 0.542854
1119 1 0.560856 0.356488 0.544671
3511 1 0.57444 0.360619 0.545971
3650 1 0.582243 0.352964 0.549177
3512 1 0.567491 0.366897 0.540431
3711 1 0.59102 0.367506 0.545321
3595 1 0.662764 0.369978 0.547847
3597 1 0.677488 0.361454 0.55087
3664 1 0.724011 0.356327 0.549216
3961 1 0.741122 0.359046 0.545876
3677 1 0.762061 0.36106 0.54516
3682 1 0.7443 0.371208 0.542626
4101 1 0.751311 0.347264 0.547015
3613 1 0.778997 0.359391 0.545364
3456 1 0.771187 0.369402 0.542291
3752 1 0.768571 0.346546 0.547512
3680 1 0.790674 0.357793 0.547983
3899 1 0.802909 0.363422 0.545692
3691 1 0.816066 0.365032 0.544265
3892 1 0.829266 0.360041 0.54607
3684 1 0.84056 0.353029 0.54307
3820 1 0.856019 0.362193 0.538436
3621 1 0.868979 0.354468 0.538606
3644 1 0.58114 0.371456 0.540665
3444 1 0.603219 0.371468 0.545845
3587 1 0.597302 0.380438 0.540059
3856 1 0.610018 0.38678 0.540972
3933 1 0.61787 0.373288 0.546965
3653 1 0.62013 0.386448 0.545123
3714 1 0.631954 0.378462 0.546632
3866 1 0.645993 0.387726 0.543037
3661 1 0.648047 0.37379 0.547107
3668 1 0.660652 0.383804 0.543643
3730 1 0.673995 0.378755 0.547183
3527 1 0.687711 0.37475 0.548524
3525 1 0.683737 0.388482 0.546113
3657 1 0.702631 0.370081 0.549579
3741 1 0.716393 0.370195 0.547057
3807 1 0.700184 0.384006 0.546288
3732 1 0.713784 0.381839 0.544495
3669 1 0.730244 0.371543 0.545534
3817 1 0.734343 0.380918 0.541934
3725 1 0.721923 0.387419 0.539863
3739 1 0.746934 0.382968 0.540343
3811 1 0.756263 0.37385 0.542637
3796 1 0.776252 0.379139 0.538918
3742 1 0.78858 0.36911 0.543212
3683 1 0.803635 0.374009 0.54004
3601 1 0.8409 0.368732 0.540465
3824 1 0.827367 0.37108 0.540642
3719 1 0.619713 0.397455 0.539148
3786 1 0.630649 0.391689 0.541536
3593 1 0.673107 0.390942 0.541973
3800 1 0.65633 0.393702 0.539483
3877 1 0.682809 0.401823 0.538704
3789 1 0.693528 0.397945 0.542385
3795 1 0.707995 0.395466 0.54084
3962 1 0.718748 0.400585 0.538644
7 1 0.972873 0.0146087 0.549149
2668 1 0.981685 0.00928514 0.555199
2383 1 0.997313 0.00842688 0.556922
2682 1 0.990688 0.0219398 0.56066
5589 1 0.866219 0.0422616 0.550039
142 1 0.892831 0.0377565 0.550049
84 1 0.910421 0.0355925 0.550771
73 1 0.924768 0.0420982 0.55422
77 1 0.935304 0.0299169 0.550407
13 1 0.947775 0.0320986 0.553579
2757 1 0.937773 0.0433835 0.55673
6 1 0.95912 0.0240502 0.550789
2749 1 0.976245 0.0211086 0.557199
2737 1 0.964187 0.0332598 0.557688
86 1 0.979737 0.032192 0.561577
3002 1 0.84605 0.0567535 0.550714
3193 1 0.832966 0.0615835 0.549676
2847 1 0.860693 0.052901 0.554739
2843 1 0.854923 0.0648068 0.558515
2859 1 0.870194 0.0604392 0.558476
3056 1 0.87502 0.0462942 0.55457
3063 1 0.885156 0.0613667 0.560141
2924 1 0.893356 0.0508187 0.558914
5592 1 0.899789 0.0450939 0.554482
76 1 0.90289 0.0597426 0.559289
2870 1 0.913299 0.0490491 0.556838
8 1 0.927632 0.0564125 0.56014
141 1 0.914886 0.0605369 0.561411
2675 1 0.954005 0.0441369 0.559689
2606 1 0.942094 0.0541125 0.562186
2674 1 0.967762 0.0456681 0.562081
3053 1 0.817491 0.0712151 0.549831
3054 1 0.812521 0.0851946 0.551681
3129 1 0.829981 0.0755152 0.553348
2936 1 0.841763 0.0680406 0.556476
3124 1 0.839039 0.0819751 0.55926
2862 1 0.86473 0.0716848 0.562516
3057 1 0.853474 0.0800007 0.56159
211 1 0.894313 0.072562 0.561715
3156 1 0.506843 0.100183 0.552998
488 1 0.520997 0.098735 0.551015
3104 1 0.752241 0.103768 0.549695
3200 1 0.774713 0.0898184 0.548462
3259 1 0.766508 0.103455 0.551024
2987 1 0.784764 0.0996313 0.553556
3254 1 0.796759 0.0892795 0.551573
3121 1 0.799735 0.105615 0.556984
2914 1 0.823731 0.0869304 0.555426
3052 1 0.80933 0.0965216 0.555571
3267 1 0.82287 0.10009 0.558624
3058 1 0.834767 0.0973737 0.560504
2947 1 0.513489 0.114196 0.553028
555 1 0.508239 0.126706 0.553366
689 1 0.523067 0.127645 0.550195
3158 1 0.525916 0.114155 0.550967
3159 1 0.53519 0.128494 0.552331
3030 1 0.552883 0.129632 0.553738
3241 1 0.570851 0.120556 0.552007
3100 1 0.587488 0.111742 0.550211
3091 1 0.583064 0.125203 0.551816
3179 1 0.599832 0.125385 0.552245
3167 1 0.612191 0.131232 0.553607
3088 1 0.615 0.117878 0.550179
3250 1 0.627893 0.125102 0.551172
3014 1 0.644465 0.126911 0.552338
3044 1 0.65649 0.1249 0.55008
3042 1 0.687488 0.123782 0.552493
3182 1 0.696339 0.1157 0.550797
3261 1 0.712327 0.116577 0.550705
3113 1 0.705123 0.123385 0.554908
3403 1 0.716948 0.129092 0.554481
3463 1 0.727395 0.11635 0.552264
3399 1 0.733676 0.127382 0.55612
3321 1 0.758113 0.116226 0.553386
3391 1 0.742437 0.113166 0.552635
3461 1 0.747463 0.127126 0.556477
3190 1 0.777904 0.111571 0.553255
3195 1 0.772265 0.120998 0.555861
3341 1 0.789056 0.117627 0.557544
3266 1 0.814052 0.111609 0.55953
3265 1 0.804006 0.121207 0.560095
474 1 0.507055 0.142692 0.554437
487 1 0.518248 0.141228 0.553602
550 1 0.531268 0.143276 0.554802
559 1 0.546873 0.141471 0.553666
3094 1 0.561964 0.145928 0.553733
3102 1 0.564762 0.132454 0.552953
3084 1 0.578405 0.141171 0.554053
3165 1 0.594533 0.137842 0.554249
3237 1 0.610129 0.143936 0.556275
3107 1 0.625298 0.138526 0.554495
3171 1 0.637788 0.140438 0.555699
3260 1 0.667471 0.130186 0.55185
3181 1 0.652468 0.140119 0.552689
3187 1 0.668144 0.146835 0.554507
3038 1 0.682589 0.133966 0.555143
3238 1 0.695379 0.134933 0.557044
3465 1 0.684948 0.148361 0.557438
3106 1 0.707737 0.138829 0.558246
3248 1 0.698361 0.152008 0.558324
3264 1 0.722446 0.139961 0.557753
3402 1 0.739455 0.140274 0.560166
3269 1 0.760959 0.130322 0.559385
3243 1 0.780691 0.131965 0.558972
3318 1 0.769924 0.14222 0.560254
3323 1 0.799041 0.131581 0.562554
3392 1 0.789324 0.140224 0.56145
541 1 0.50786 0.15529 0.553885
685 1 0.514877 0.168621 0.553999
617 1 0.523932 0.156572 0.554606
684 1 0.540952 0.156166 0.55496
625 1 0.533834 0.171703 0.554297
554 1 0.549372 0.168901 0.555203
695 1 0.553895 0.157991 0.554388
3291 1 0.562635 0.172668 0.556723
3160 1 0.572243 0.155392 0.555738
3081 1 0.584976 0.154826 0.556176
620 1 0.575904 0.170022 0.555204
3098 1 0.591415 0.168043 0.556518
3176 1 0.599618 0.153241 0.555929
3322 1 0.605214 0.16892 0.557677
3026 1 0.626319 0.151269 0.557158
3244 1 0.61412 0.158694 0.556832
3163 1 0.617018 0.172382 0.559553
3108 1 0.62607 0.164007 0.557197
3103 1 0.64333 0.153677 0.556345
3170 1 0.638496 0.169097 0.55835
3112 1 0.659908 0.156412 0.555735
3383 1 0.665896 0.171125 0.559792
3245 1 0.677645 0.159636 0.559413
3331 1 0.693884 0.164827 0.559894
3393 1 0.715026 0.152888 0.559656
3314 1 0.707317 0.164123 0.561078
3385 1 0.727532 0.151675 0.562665
692 1 0.505079 0.178902 0.555844
614 1 0.520004 0.182044 0.555091
759 1 0.505475 0.19526 0.554802
691 1 0.532258 0.188531 0.556038
476 1 0.546549 0.182701 0.555939
3293 1 0.556933 0.190047 0.5572
3018 1 0.569741 0.188189 0.558278
3240 1 0.579824 0.181797 0.556889
3242 1 0.585826 0.193341 0.560647
3087 1 0.593079 0.18305 0.557992
3246 1 0.608466 0.181912 0.559506
3164 1 0.625984 0.179748 0.560641
3309 1 0.614633 0.193393 0.560274
3303 1 0.626936 0.195393 0.5616
3378 1 0.652471 0.171208 0.558584
3316 1 0.643739 0.183109 0.563709
3379 1 0.673456 0.184016 0.561774
3448 1 0.684742 0.174539 0.562206
3369 1 0.518794 0.196465 0.555841
556 1 0.510367 0.206848 0.55438
622 1 0.525733 0.208386 0.554911
3371 1 0.536507 0.202824 0.556956
560 1 0.535933 0.216288 0.557031
3234 1 0.548519 0.198655 0.5583
700 1 0.551156 0.213805 0.558919
557 1 0.560949 0.2035 0.55835
3231 1 0.567552 0.215331 0.560552
3166 1 0.575573 0.202034 0.559791
3227 1 0.591805 0.207788 0.561179
3096 1 0.599431 0.196628 0.560633
3372 1 0.609073 0.207267 0.562564
3308 1 0.622158 0.209751 0.563092
3296 1 0.517067 0.218936 0.55479
748 1 0.502648 0.222054 0.556939
839 1 0.511246 0.230273 0.556855
840 1 0.529235 0.227553 0.556442
3225 1 0.558422 0.226203 0.559351
3161 1 0.545801 0.230705 0.558993
3230 1 0.573161 0.227437 0.560109
3090 1 0.583152 0.217831 0.562188
3233 1 0.57758 0.237725 0.562015
3155 1 0.593089 0.229214 0.561803
3370 1 0.612607 0.223801 0.562078
3305 1 0.69186 0.229385 0.563123
3388 1 0.703772 0.233341 0.562867
702 1 0.928621 0.238056 0.561038
3202 1 0.943864 0.237031 0.561289
3496 1 0.962129 0.238964 0.559815
901 1 0.509489 0.24828 0.555523
903 1 0.520384 0.255761 0.555412
686 1 0.520976 0.240773 0.555499
831 1 0.506838 0.261006 0.555129
768 1 0.534196 0.251821 0.555245
3222 1 0.534864 0.239722 0.557656
3226 1 0.562566 0.240468 0.560388
904 1 0.54989 0.244347 0.558383
3366 1 0.562819 0.254973 0.558361
697 1 0.546459 0.26003 0.557856
3301 1 0.576754 0.251535 0.56025
3373 1 0.589401 0.255458 0.561412
3367 1 0.589782 0.241762 0.561824
3299 1 0.601372 0.251713 0.562507
3529 1 0.730952 0.246951 0.563213
3417 1 0.866077 0.258207 0.560737
3547 1 0.878335 0.257139 0.55978
3475 1 0.875964 0.243795 0.56352
3568 1 0.891043 0.255198 0.558889
3273 1 0.902934 0.240863 0.559488
3563 1 0.906515 0.253761 0.557917
3495 1 0.916848 0.23955 0.56026
3640 1 0.923952 0.251565 0.557576
3569 1 0.936335 0.250719 0.557591
3636 1 0.949665 0.248352 0.558299
3498 1 0.964893 0.25486 0.555955
3205 1 0.975859 0.247055 0.559419
3288 1 0.990426 0.242346 0.561763
3354 1 0.990945 0.255253 0.557364
976 1 0.516869 0.271479 0.55394
3506 1 0.533446 0.267619 0.555932
974 1 0.53692 0.27815 0.556765
618 1 0.55277 0.272027 0.558333
3304 1 0.578269 0.265077 0.55915
628 1 0.566925 0.271238 0.557546
629 1 0.580963 0.28134 0.558956
3302 1 0.591867 0.266962 0.559888
3503 1 0.600131 0.279414 0.56044
3375 1 0.606761 0.266955 0.560928
3445 1 0.620865 0.264497 0.561473
3361 1 0.617242 0.280559 0.560198
699 1 0.63058 0.278118 0.562652
3452 1 0.701907 0.276456 0.562293
3535 1 0.759688 0.269257 0.562272
3271 1 0.869603 0.271719 0.558713
3486 1 0.882213 0.274538 0.557845
3637 1 0.8984 0.269948 0.555258
3840 1 0.909769 0.280728 0.553172
3420 1 0.916353 0.265544 0.555769
3499 1 0.925163 0.280281 0.553445
3489 1 0.933271 0.26336 0.555882
775 1 0.941233 0.273224 0.552603
3917 1 0.954092 0.277369 0.550944
3500 1 0.949013 0.263041 0.555509
3356 1 0.978002 0.260104 0.556746
771 1 0.966951 0.269865 0.553478
288 1 0.998497 0.265999 0.554111
3209 1 0.984637 0.269592 0.552334
907 1 0.512378 0.297385 0.551096
836 1 0.510536 0.283881 0.55177
1095 1 0.525087 0.287414 0.552646
3434 1 0.536728 0.294985 0.555016
3295 1 0.563415 0.284728 0.557462
623 1 0.548555 0.28852 0.557301
624 1 0.560775 0.298542 0.55559
3297 1 0.57666 0.295622 0.55886
558 1 0.590661 0.293408 0.561023
3228 1 0.607788 0.294542 0.560657
3437 1 0.623389 0.292644 0.561219
3513 1 0.635455 0.293823 0.561136
3443 1 0.651113 0.29427 0.562637
3652 1 0.667689 0.297802 0.562711
3723 1 0.680716 0.293527 0.561498
3312 1 0.689562 0.302908 0.560006
3446 1 0.702331 0.297693 0.560153
3610 1 0.730938 0.29629 0.561553
3538 1 0.757168 0.283483 0.561293
3519 1 0.739232 0.283426 0.562363
3451 1 0.747297 0.296932 0.560827
3612 1 0.761127 0.295503 0.560203
3678 1 0.771611 0.281831 0.562263
3542 1 0.775044 0.297926 0.560797
3614 1 0.787081 0.292158 0.561482
3611 1 0.799692 0.293869 0.561354
3548 1 0.815048 0.287396 0.56145
3544 1 0.811581 0.30611 0.558786
3623 1 0.823554 0.300667 0.560678
3422 1 0.841444 0.282838 0.562046
3619 1 0.849632 0.297838 0.560259
3694 1 0.831912 0.292403 0.563533
3620 1 0.860736 0.285395 0.55995
3552 1 0.865559 0.300995 0.557885
3567 1 0.877227 0.29242 0.556873
3350 1 0.887592 0.29998 0.553417
3424 1 0.903546 0.294124 0.55159
421 1 0.892281 0.283488 0.555773
3426 1 0.91842 0.293019 0.548891
1047 1 0.522179 0.319548 0.54952
905 1 0.524399 0.305087 0.552127
3436 1 0.537373 0.310095 0.553258
765 1 0.549124 0.303941 0.55361
3300 1 0.548088 0.318446 0.552849
770 1 0.562227 0.313695 0.554118
3362 1 0.572244 0.323119 0.556384
3363 1 0.57727 0.309664 0.557564
1107 1 0.58872 0.306403 0.559353
3501 1 0.588455 0.320482 0.557524
3583 1 0.603016 0.307316 0.560128
3232 1 0.602554 0.31843 0.55839
3431 1 0.618108 0.310313 0.561362
3510 1 0.612926 0.324008 0.559191
3509 1 0.628817 0.323848 0.559408
3586 1 0.629775 0.307362 0.559732
3439 1 0.644611 0.308627 0.559922
3785 1 0.645363 0.324434 0.559127
3656 1 0.659045 0.310246 0.559553
3651 1 0.670727 0.322332 0.557477
3528 1 0.674679 0.309057 0.559439
3524 1 0.686561 0.319771 0.557897
3521 1 0.699224 0.315259 0.558637
3721 1 0.71176 0.313389 0.558723
3596 1 0.726297 0.311871 0.558732
3520 1 0.735091 0.325419 0.555412
3663 1 0.740781 0.311155 0.557923
3522 1 0.757132 0.309902 0.557553
3606 1 0.750861 0.322621 0.553361
3600 1 0.770826 0.312546 0.559458
3609 1 0.765144 0.323063 0.553526
3733 1 0.780815 0.320218 0.555457
3803 1 0.789894 0.308357 0.558436
3490 1 0.793978 0.321552 0.554986
3685 1 0.801654 0.310868 0.556677
3478 1 0.820731 0.316719 0.555823
3745 1 0.810976 0.324588 0.554024
3550 1 0.836344 0.30633 0.558089
3618 1 0.836796 0.319123 0.552582
3833 1 0.850292 0.311773 0.557026
3688 1 0.861608 0.316969 0.553782
3546 1 0.871432 0.325253 0.550556
3766 1 0.875787 0.307801 0.554135
3276 1 0.884012 0.318841 0.549177
693 1 0.543505 0.333618 0.54997
837 1 0.556963 0.330442 0.55267
3788 1 0.568421 0.333845 0.551955
3365 1 0.582019 0.330008 0.554677
3584 1 0.582801 0.341999 0.553245
627 1 0.594408 0.345859 0.554017
3442 1 0.598777 0.331788 0.555706
630 1 0.622597 0.338553 0.558289
3573 1 0.609932 0.336081 0.557151
3738 1 0.636683 0.340325 0.558148
3576 1 0.660138 0.328537 0.556564
3797 1 0.666033 0.340249 0.553696
3438 1 0.651638 0.343545 0.554345
3441 1 0.679368 0.332777 0.556211
3590 1 0.692798 0.343215 0.553322
3660 1 0.694765 0.331711 0.555139
3794 1 0.706071 0.325356 0.555558
3805 1 0.708506 0.339219 0.554213
3667 1 0.72184 0.324652 0.556868
3731 1 0.720956 0.339465 0.553481
3607 1 0.733623 0.336684 0.551944
3687 1 0.747164 0.336483 0.552108
3895 1 0.760322 0.335402 0.550276
3602 1 0.775802 0.334919 0.552343
3387 1 0.785208 0.344543 0.54994
3617 1 0.795245 0.335173 0.552924
3676 1 0.812347 0.337266 0.552271
3479 1 0.826596 0.328023 0.552706
3743 1 0.826753 0.346867 0.550138
3686 1 0.840944 0.331232 0.551872
3654 1 0.594959 0.357687 0.549998
3728 1 0.621703 0.352267 0.555235
3863 1 0.610575 0.360826 0.550481
3655 1 0.607621 0.35111 0.55514
3793 1 0.626618 0.362401 0.551607
3578 1 0.638657 0.354186 0.554386
3382 1 0.650561 0.360214 0.551073
3736 1 0.662987 0.353756 0.552581
3658 1 0.690012 0.361953 0.551601
3591 1 0.677429 0.349796 0.552816
3594 1 0.707761 0.353007 0.55174
3530 1 0.735375 0.347616 0.548456
3746 1 0.813936 0.353719 0.550316
3724 1 0.638106 0.367901 0.551042
169 1 0.991915 0.0327174 0.564828
217 1 0.956344 0.056503 0.564086
153 1 0.970993 0.0567679 0.565461
159 1 0.998856 0.0466652 0.565444
12 1 0.98234 0.0465423 0.564491
2746 1 0.987811 0.0600563 0.56705
2852 1 0.870251 0.0871169 0.565364
3000 1 0.878535 0.0737765 0.563122
2927 1 0.882869 0.0853793 0.563526
71 1 0.907318 0.0732136 0.563351
2731 1 0.899647 0.0850564 0.564219
2863 1 0.921224 0.071754 0.564106
2938 1 0.925866 0.0827719 0.566788
219 1 0.934159 0.0682537 0.564954
3073 1 0.946132 0.0690304 0.565259
150 1 0.941045 0.0824625 0.568397
3066 1 0.958412 0.0848877 0.567524
2861 1 0.962428 0.0673102 0.567998
3074 1 0.972027 0.082818 0.570201
3080 1 0.977212 0.0705099 0.569441
151 1 0.994049 0.0714809 0.569212
3009 1 0.986135 0.0821161 0.571272
2997 1 0.846266 0.108983 0.565477
2988 1 0.84568 0.09481 0.564182
2865 1 0.857934 0.0933611 0.564491
2919 1 0.858961 0.105571 0.566484
2935 1 0.888911 0.0978514 0.565499
2995 1 0.873679 0.100606 0.564536
2933 1 0.90111 0.0991702 0.567503
2856 1 0.912162 0.0880896 0.566216
2734 1 0.916905 0.10079 0.566549
156 1 0.930287 0.096844 0.568994
3143 1 0.941736 0.1057 0.570102
3005 1 0.9471 0.0939194 0.569831
223 1 0.958153 0.103504 0.570961
2866 1 0.971731 0.0969104 0.572937
221 1 0.988868 0.0969401 0.572184
3394 1 0.816197 0.12558 0.563406
3412 1 0.828555 0.112846 0.563447
3059 1 0.840433 0.119806 0.566502
3337 1 0.827722 0.129447 0.564956
2986 1 0.855176 0.121233 0.569056
2999 1 0.868428 0.129917 0.569525
2868 1 0.886384 0.109154 0.567059
2989 1 0.868873 0.114231 0.568126
2922 1 0.882092 0.120761 0.569156
3213 1 0.91172 0.111932 0.570436
2929 1 0.897793 0.112851 0.569266
2994 1 0.89702 0.123946 0.569862
3004 1 0.909121 0.126493 0.570551
2864 1 0.926577 0.113052 0.570285
3071 1 0.923676 0.126755 0.570487
2939 1 0.940413 0.119607 0.570655
3214 1 0.954759 0.118315 0.57168
3149 1 0.969277 0.114195 0.573193
3217 1 0.969302 0.127384 0.572488
3218 1 0.981764 0.125839 0.573331
3010 1 0.983145 0.109215 0.574157
3282 1 0.994814 0.120146 0.572746
3247 1 0.752824 0.148533 0.562773
3188 1 0.780921 0.148922 0.561924
3335 1 0.798684 0.148998 0.564917
3325 1 0.812681 0.14093 0.564878
3201 1 0.831348 0.145722 0.567709
3252 1 0.841797 0.135249 0.568201
2990 1 0.85687 0.138093 0.569242
3136 1 0.846991 0.15016 0.569964
3067 1 0.869827 0.143187 0.570152
3065 1 0.883336 0.134516 0.570234
2992 1 0.884704 0.148097 0.570267
3138 1 0.896954 0.137497 0.571351
3007 1 0.907922 0.141632 0.572966
2928 1 0.927182 0.140584 0.572263
3070 1 0.916814 0.154075 0.574113
363 1 0.954963 0.13302 0.57231
3072 1 0.938282 0.135163 0.570703
3351 1 0.946257 0.146061 0.573407
3076 1 0.964815 0.144569 0.572484
146 1 0.978743 0.142837 0.572827
3139 1 0.991325 0.135018 0.572583
3142 1 0.995897 0.146751 0.571352
3320 1 0.716667 0.172808 0.564422
3462 1 0.725525 0.164267 0.563302
3603 1 0.742567 0.170723 0.564998
3177 1 0.739775 0.156015 0.563671
3397 1 0.757844 0.163912 0.565703
3317 1 0.765012 0.153479 0.564349
3469 1 0.773986 0.161665 0.566483
3334 1 0.790729 0.159409 0.566084
3262 1 0.798838 0.169903 0.567853
3336 1 0.808835 0.158364 0.566856
3473 1 0.820342 0.155484 0.568523
3197 1 0.815752 0.170975 0.569698
3199 1 0.826454 0.167022 0.567768
3125 1 0.836585 0.157352 0.570557
3060 1 0.848625 0.165566 0.571184
3061 1 0.859676 0.152865 0.570815
3131 1 0.862906 0.171415 0.569763
3278 1 0.891573 0.162272 0.571116
3064 1 0.875863 0.160308 0.570316
3207 1 0.900056 0.152347 0.571773
3280 1 0.906599 0.165159 0.572768
3068 1 0.93165 0.153546 0.573203
3137 1 0.91942 0.166942 0.569703
3428 1 0.936161 0.170521 0.570521
3134 1 0.951315 0.171687 0.570648
3147 1 0.943906 0.160311 0.573388
3078 1 0.958374 0.158128 0.571014
9 1 0.974712 0.156771 0.570616
3211 1 0.966073 0.169292 0.571096
3210 1 0.996577 0.165306 0.569071
3279 1 0.986122 0.156339 0.571335
3345 1 0.980192 0.170685 0.569835
3514 1 0.660779 0.183543 0.563382
3384 1 0.686108 0.190885 0.562622
3381 1 0.702969 0.195131 0.564867
3239 1 0.698925 0.179838 0.563891
3531 1 0.715073 0.186845 0.564367
3464 1 0.728056 0.179362 0.564589
3307 1 0.726672 0.194187 0.564733
3466 1 0.751393 0.179761 0.567577
3470 1 0.74004 0.187913 0.56566
3401 1 0.760836 0.189254 0.567699
3326 1 0.7677 0.177481 0.566481
3330 1 0.782581 0.174133 0.567339
3332 1 0.776876 0.192169 0.568366
3329 1 0.791874 0.185638 0.568006
3126 1 0.808579 0.179721 0.566954
3196 1 0.825939 0.181722 0.569728
3277 1 0.818606 0.194177 0.570077
3474 1 0.804276 0.194643 0.569289
3062 1 0.83644 0.173856 0.569209
3342 1 0.839028 0.191109 0.570649
3001 1 0.85011 0.182295 0.570505
3127 1 0.863853 0.186719 0.572854
3135 1 0.876424 0.176275 0.570478
3414 1 0.882171 0.190088 0.570318
3423 1 0.893316 0.178055 0.571711
3275 1 0.910156 0.179758 0.570873
3274 1 0.896614 0.190166 0.568707
3203 1 0.916474 0.190224 0.56861
3343 1 0.927201 0.182436 0.567855
3198 1 0.931887 0.195466 0.567826
3427 1 0.943213 0.184191 0.569049
3425 1 0.957906 0.184133 0.569196
3146 1 0.97577 0.185069 0.568367
2940 1 0.993757 0.180378 0.567353
3075 1 0.987711 0.190844 0.564601
3298 1 0.636702 0.208144 0.563641
3518 1 0.641867 0.196093 0.563429
3398 1 0.650306 0.209719 0.56559
3435 1 0.655276 0.198125 0.563884
3310 1 0.6704 0.196434 0.563052
3368 1 0.667041 0.212456 0.565283
3306 1 0.680554 0.206657 0.564934
3236 1 0.692836 0.205183 0.563751
3390 1 0.704557 0.206365 0.563643
3396 1 0.715991 0.204111 0.567023
3389 1 0.733125 0.203595 0.565538
3455 1 0.749701 0.202142 0.565627
3460 1 0.741398 0.215196 0.563871
3386 1 0.767092 0.205704 0.56519
3400 1 0.780197 0.210055 0.566384
3327 1 0.788385 0.201076 0.568312
3532 1 0.800523 0.209645 0.566211
3406 1 0.814293 0.208375 0.568897
3405 1 0.825498 0.215409 0.569153
3132 1 0.829325 0.202912 0.571168
3133 1 0.844545 0.207944 0.568881
3339 1 0.8525 0.195434 0.57074
3272 1 0.858335 0.21173 0.568406
3347 1 0.868513 0.199964 0.569953
3346 1 0.885806 0.200834 0.568956
3430 1 0.89389 0.214178 0.567204
3130 1 0.876322 0.212373 0.567457
3705 1 0.905833 0.212791 0.566819
2998 1 0.904184 0.200124 0.568889
3488 1 0.918205 0.204521 0.569752
3208 1 0.93338 0.210037 0.566678
3349 1 0.919724 0.217382 0.566349
3348 1 0.949147 0.213672 0.565972
3358 1 0.945728 0.198195 0.567623
2932 1 0.966145 0.213195 0.568098
3281 1 0.975743 0.201099 0.565933
3141 1 0.959902 0.198241 0.569257
282 1 0.989658 0.206827 0.564422
3086 1 0.60029 0.218529 0.563194
3162 1 0.60685 0.238681 0.561307
3097 1 0.627687 0.221163 0.563577
3092 1 0.621969 0.235891 0.564229
3447 1 0.640126 0.219814 0.565578
3235 1 0.636447 0.234635 0.565127
3376 1 0.653944 0.226319 0.564439
3313 1 0.665788 0.236013 0.563505
3364 1 0.68542 0.218795 0.564425
3662 1 0.672856 0.225144 0.563389
3605 1 0.682629 0.236201 0.563556
3472 1 0.713388 0.220672 0.563351
3517 1 0.699236 0.217709 0.564317
3457 1 0.725984 0.218207 0.563835
3458 1 0.719573 0.235153 0.563204
3328 1 0.734906 0.231561 0.56336
3536 1 0.746866 0.228935 0.563261
3533 1 0.758243 0.216384 0.563774
3471 1 0.772437 0.222843 0.566628
3408 1 0.764814 0.232391 0.564654
3539 1 0.782633 0.230167 0.565997
3467 1 0.790559 0.220767 0.566842
3480 1 0.797795 0.233432 0.567061
3411 1 0.807753 0.223554 0.567746
3482 1 0.821358 0.227905 0.566494
3555 1 0.810356 0.238601 0.567726
3541 1 0.836975 0.222176 0.568497
3404 1 0.835895 0.236082 0.567535
3407 1 0.850956 0.237991 0.568372
3418 1 0.849436 0.22394 0.56736
3340 1 0.86586 0.228772 0.56638
3352 1 0.884142 0.226408 0.565743
3493 1 0.913119 0.229282 0.5635
3477 1 0.898985 0.22484 0.562911
3069 1 0.926994 0.226011 0.565059
3355 1 0.938101 0.224789 0.564231
3357 1 0.954597 0.226929 0.563082
705 1 0.968433 0.225724 0.564913
3497 1 0.978138 0.235902 0.56347
491 1 0.989553 0.228448 0.564738
3286 1 0.981861 0.217379 0.565596
626 1 0.616411 0.250303 0.563218
3292 1 0.630278 0.250768 0.562487
3505 1 0.651831 0.238816 0.564971
3374 1 0.64361 0.249221 0.564933
3727 1 0.660129 0.251991 0.565103
3588 1 0.673403 0.247526 0.564858
3449 1 0.686164 0.25292 0.564044
3543 1 0.695012 0.243888 0.563877
3589 1 0.70977 0.249523 0.563052
3380 1 0.699067 0.260888 0.564794
3604 1 0.736011 0.260565 0.563751
3410 1 0.745568 0.24489 0.562663
3545 1 0.759098 0.243411 0.565578
3551 1 0.752739 0.257054 0.56404
3476 1 0.773336 0.242006 0.565775
3747 1 0.764935 0.256399 0.565025
3338 1 0.777881 0.253774 0.565989
3485 1 0.788029 0.244583 0.566178
3263 1 0.801055 0.249673 0.567149
3344 1 0.814231 0.255447 0.566373
3468 1 0.824576 0.244839 0.567618
3128 1 0.838913 0.249694 0.566582
3270 1 0.862214 0.245481 0.563329
3537 1 0.851314 0.255015 0.565235
3638 1 0.888541 0.239299 0.562082
3515 1 0.64528 0.280365 0.563435
3440 1 0.635594 0.264437 0.562574
3377 1 0.648888 0.261733 0.563583
3315 1 0.673431 0.263473 0.566185
3453 1 0.660586 0.270091 0.565092
3534 1 0.685552 0.270712 0.563182
3582 1 0.675525 0.279987 0.565001
3585 1 0.712616 0.273531 0.565347
3450 1 0.721791 0.261839 0.564351
3581 1 0.731462 0.272661 0.563334
3523 1 0.745096 0.270561 0.561517
3592 1 0.773086 0.268321 0.565031
3556 1 0.800915 0.277113 0.562779
3483 1 0.787539 0.278046 0.563628
3459 1 0.788567 0.262418 0.56587
3204 1 0.80074 0.263053 0.565137
3416 1 0.813635 0.271227 0.563349
3481 1 0.828173 0.279161 0.563927
3553 1 0.840895 0.269031 0.56642
3409 1 0.828638 0.26208 0.56568
3419 1 0.855884 0.271228 0.562879
3659 1 0.662825 0.285012 0.564405
3311 1 0.690483 0.284304 0.562839
3516 1 0.708885 0.28832 0.563363
3454 1 0.717124 0.300052 0.563421
3599 1 0.723079 0.284584 0.56245
4522 1 0.826981 0.604236 0.414278
4743 1 0.80873 0.628695 0.412129
4742 1 0.855472 0.629062 0.411419
4677 1 0.879774 0.615886 0.412575
4817 1 0.890058 0.626255 0.412203
4294 1 0.793022 0.631009 0.412133
4526 1 0.800764 0.642693 0.411585
4673 1 0.814223 0.64292 0.411466
4593 1 0.824254 0.63738 0.412432
4957 1 0.825934 0.652698 0.410333
4674 1 0.840188 0.650622 0.411662
4886 1 0.840403 0.634817 0.41105
4679 1 0.854949 0.643906 0.411023
4752 1 0.869681 0.643559 0.410853
4301 1 0.881964 0.651077 0.412481
4602 1 0.899363 0.639611 0.412042
4446 1 0.753837 0.671132 0.411754
4523 1 0.769005 0.668145 0.410961
4363 1 0.777165 0.654605 0.411173
4881 1 0.78544 0.665422 0.411722
4732 1 0.798427 0.668495 0.411243
4451 1 0.795025 0.654821 0.411193
4657 1 0.809533 0.658472 0.411559
4606 1 0.820022 0.667428 0.409433
4741 1 0.835233 0.66368 0.409022
4667 1 0.865209 0.656561 0.410742
4664 1 0.851933 0.662173 0.409699
4961 1 0.867513 0.673839 0.410208
4888 1 0.877278 0.66357 0.411525
4748 1 0.888243 0.667137 0.412907
4671 1 0.897109 0.651413 0.414386
4653 1 0.737647 0.6818 0.412879
4867 1 0.752756 0.6862 0.412124
4960 1 0.781736 0.690472 0.411139
4519 1 0.767348 0.681714 0.408947
4892 1 0.796856 0.682777 0.410262
4740 1 0.783405 0.677069 0.409889
4878 1 0.810301 0.694257 0.411154
4890 1 0.824487 0.691078 0.410399
4669 1 0.810026 0.679625 0.410932
5095 1 0.827371 0.678392 0.40995
4956 1 0.840904 0.677396 0.407918
4668 1 0.841235 0.692093 0.410402
4820 1 0.854056 0.674828 0.409395
4955 1 0.856019 0.687651 0.410066
4815 1 0.869898 0.686693 0.410479
4813 1 0.87917 0.679434 0.411422
2102 1 0.881657 0.695666 0.412006
4614 1 0.893512 0.683292 0.412531
4688 1 0.908163 0.676742 0.413195
4870 1 0.751652 0.701533 0.412797
4818 1 0.76661 0.697437 0.410764
4941 1 0.780111 0.704376 0.410993
4938 1 0.764811 0.711459 0.412491
4805 1 0.794979 0.695872 0.411856
5027 1 0.790942 0.710768 0.411971
4882 1 0.804004 0.707895 0.411245
4953 1 0.816617 0.706707 0.412655
4959 1 0.833636 0.705441 0.410425
4952 1 0.844975 0.713686 0.410989
4954 1 0.865781 0.700187 0.41101
4730 1 0.85075 0.701084 0.410479
4675 1 0.859254 0.713014 0.411587
4814 1 0.873734 0.711239 0.410067
2039 1 0.889927 0.710613 0.412009
4604 1 0.897452 0.695756 0.411484
4800 1 0.738728 0.725726 0.411941
4934 1 0.724966 0.733963 0.412113
4738 1 0.751061 0.730683 0.411573
4736 1 0.764913 0.727993 0.41049
4655 1 0.775562 0.720991 0.409895
4799 1 0.779619 0.735466 0.41047
4718 1 0.791135 0.724608 0.409953
5155 1 0.801575 0.733624 0.411643
5023 1 0.808734 0.722237 0.410056
4885 1 0.824019 0.717564 0.4108
5093 1 0.836627 0.727139 0.412062
4958 1 0.82938 0.738113 0.41149
4823 1 0.849511 0.727398 0.411639
4967 1 0.86756 0.723709 0.411349
4937 1 0.73831 0.742675 0.410891
5013 1 0.722932 0.748127 0.412369
4872 1 0.749558 0.749899 0.411253
4798 1 0.763519 0.740459 0.411355
4940 1 0.777232 0.7491 0.411456
5009 1 0.791903 0.746984 0.41215
4509 1 0.869803 0.562684 0.427258
4228 1 0.814143 0.584872 0.420046
4587 1 0.830254 0.579182 0.421865
4612 1 0.84482 0.579799 0.419276
4461 1 0.857433 0.571865 0.423592
4610 1 0.858313 0.58536 0.416045
4460 1 0.870496 0.577226 0.421013
4463 1 0.885504 0.577555 0.420633
4525 1 0.900194 0.584324 0.42206
4291 1 0.758253 0.6085 0.423859
4436 1 0.7411 0.606536 0.42583
4588 1 0.779687 0.597134 0.422832
4438 1 0.772044 0.60964 0.419229
4146 1 0.764841 0.597108 0.425225
4449 1 0.791016 0.60435 0.419242
4665 1 0.799256 0.592325 0.420074
4159 1 0.8035 0.603657 0.417937
4447 1 0.813401 0.595365 0.416042
4811 1 0.826555 0.591008 0.41589
4600 1 0.840927 0.591715 0.415423
4654 1 0.838698 0.607881 0.414806
4455 1 0.8531 0.601121 0.412778
4672 1 0.867363 0.600034 0.414851
4592 1 0.878194 0.591907 0.418441
4527 1 0.881207 0.604124 0.416212
4616 1 0.890976 0.590587 0.417679
4608 1 0.897858 0.602328 0.416524
4319 1 0.90926 0.593407 0.42007
4389 1 0.922321 0.589202 0.424156
1891 1 0.923697 0.600672 0.418644
1823 1 0.911201 0.606792 0.41533
4680 1 0.935217 0.596953 0.421596
4467 1 0.955258 0.601033 0.424096
4676 1 0.943015 0.607152 0.420503
1612 1 0.946643 0.592823 0.424151
4300 1 0.726005 0.625941 0.420351
4156 1 0.741033 0.617477 0.421065
4433 1 0.755432 0.619594 0.418481
4376 1 0.768455 0.62224 0.417659
4439 1 0.784397 0.618671 0.414931
4598 1 0.799271 0.6163 0.413981
4662 1 0.815465 0.612242 0.413386
4521 1 0.827979 0.619462 0.413751
4666 1 0.84251 0.620701 0.412984
4440 1 0.85476 0.614475 0.412965
4599 1 0.866102 0.615647 0.412449
4746 1 0.872251 0.629536 0.412796
4392 1 0.895151 0.614519 0.412668
4607 1 0.906484 0.624254 0.414156
4744 1 0.920077 0.617077 0.41532
5026 1 0.933829 0.615797 0.417851
4544 1 0.955631 0.614005 0.42065
4613 1 0.950215 0.623653 0.417378
1754 1 0.969965 0.613923 0.422816
1616 1 0.963562 0.629336 0.420072
1611 1 0.978757 0.623686 0.422873
4783 1 0.6962 0.639108 0.423568
4638 1 0.688719 0.653538 0.42179
4861 1 0.700913 0.650458 0.419815
4650 1 0.711357 0.636636 0.422532
4155 1 0.71741 0.648225 0.418368
4222 1 0.729899 0.639209 0.416996
4362 1 0.760157 0.63213 0.415744
4586 1 0.74441 0.634576 0.417406
4434 1 0.75654 0.64544 0.415252
4658 1 0.740092 0.649591 0.414584
4649 1 0.777734 0.631019 0.415049
4365 1 0.77146 0.644246 0.414573
4663 1 0.785466 0.64285 0.411829
4619 1 0.883672 0.637677 0.413027
1897 1 0.922221 0.62972 0.415873
4471 1 0.913697 0.64195 0.414487
1962 1 0.930613 0.644032 0.415836
4689 1 0.933665 0.630825 0.415467
1751 1 0.94401 0.649188 0.415416
4686 1 0.950644 0.636248 0.416222
1685 1 0.972118 0.639751 0.421496
4538 1 0.958714 0.646901 0.417859
4819 1 0.972149 0.653981 0.422732
1822 1 0.986876 0.635125 0.422771
4758 1 0.98991 0.646981 0.424467
4574 1 0.632267 0.668582 0.425724
4944 1 0.64692 0.66529 0.424154
4717 1 0.660491 0.658861 0.423313
4727 1 0.67037 0.669326 0.42043
4942 1 0.67517 0.65562 0.421405
4589 1 0.683932 0.667322 0.41909
4583 1 0.711423 0.659762 0.417118
4644 1 0.699341 0.667035 0.418147
4510 1 0.722344 0.667217 0.415515
4733 1 0.736851 0.669123 0.413881
4296 1 0.727294 0.655298 0.415126
4508 1 0.750001 0.659321 0.413485
4660 1 0.76168 0.658392 0.413722
4542 1 0.906175 0.662116 0.412152
4750 1 0.920244 0.65556 0.414213
4825 1 0.920388 0.670471 0.414922
4816 1 0.932985 0.662507 0.416878
4601 1 0.947654 0.66544 0.418486
2034 1 0.963264 0.662135 0.420664
4891 1 0.975599 0.671324 0.421908
4685 1 0.982146 0.661537 0.422876
1624 1 0.989675 0.670864 0.422783
4716 1 0.643339 0.682693 0.422998
4869 1 0.656064 0.69512 0.421405
4791 1 0.657963 0.673999 0.422516
4797 1 0.665757 0.682905 0.41975
4721 1 0.67619 0.694962 0.418004
4864 1 0.679378 0.679515 0.41641
4735 1 0.687786 0.694381 0.414028
4785 1 0.695203 0.680641 0.4155
4871 1 0.709275 0.690692 0.413225
4728 1 0.709066 0.674421 0.414169
4943 1 0.737356 0.694562 0.413265
4584 1 0.722908 0.683153 0.413083
5022 1 0.91182 0.689488 0.41303
4969 1 0.929722 0.690849 0.418224
4747 1 0.936331 0.678148 0.419673
1963 1 0.948682 0.683364 0.420932
4968 1 0.94367 0.696459 0.421436
2037 1 0.960365 0.692295 0.422447
2035 1 0.959688 0.675753 0.420416
1826 1 0.97313 0.685677 0.421445
1834 1 0.984936 0.6848 0.423969
4930 1 0.640265 0.695776 0.422555
4862 1 0.649638 0.707834 0.42242
4579 1 0.664871 0.707634 0.421538
4591 1 0.690633 0.707384 0.415145
4794 1 0.677656 0.709508 0.418572
4573 1 0.702843 0.702291 0.4139
4739 1 0.714422 0.711106 0.413456
4724 1 0.69787 0.717294 0.416156
4807 1 0.737286 0.709308 0.412638
4793 1 0.723019 0.699014 0.41439
4803 1 0.752468 0.71682 0.412352
4749 1 0.907547 0.704953 0.412464
4745 1 0.920883 0.699624 0.413064
4887 1 0.918976 0.709569 0.417031
4965 1 0.931748 0.707118 0.420135
5091 1 0.945524 0.709612 0.422675
1900 1 0.957915 0.707119 0.423987
4795 1 0.669503 0.720589 0.42155
4787 1 0.657392 0.722977 0.422355
5085 1 0.663759 0.735929 0.421009
4929 1 0.685447 0.724449 0.417215
5010 1 0.674879 0.732424 0.417945
4594 1 0.712814 0.725894 0.413555
5007 1 0.699246 0.730188 0.415584
4597 1 0.724409 0.718946 0.412946
4889 1 0.817767 0.732777 0.413117
4824 1 0.861039 0.735841 0.413845
4894 1 0.881972 0.722596 0.414006
5025 1 0.877475 0.737292 0.414518
4821 1 0.903009 0.716783 0.41435
5034 1 0.89584 0.732816 0.416167
2104 1 0.911828 0.725314 0.419506
5096 1 0.924764 0.722488 0.421446
4806 1 0.918467 0.736706 0.423407
5029 1 0.936204 0.720393 0.424508
4566 1 0.654034 0.740719 0.422313
4854 1 0.662794 0.757749 0.422611
4777 1 0.670199 0.748003 0.420284
4858 1 0.68528 0.753034 0.418959
5082 1 0.68535 0.741139 0.417336
4726 1 0.711405 0.740454 0.414203
4932 1 0.69861 0.743961 0.415179
5001 1 0.712704 0.754938 0.41516
4786 1 0.698432 0.756908 0.418583
4935 1 0.735024 0.759244 0.412409
5299 1 0.76522 0.753784 0.412928
4796 1 0.785483 0.757765 0.413705
4731 1 0.79919 0.757184 0.414785
4737 1 0.807074 0.745384 0.412523
4951 1 0.818625 0.746653 0.413941
5028 1 0.825937 0.759028 0.414423
5019 1 0.84589 0.742716 0.412324
4884 1 0.836028 0.751887 0.413954
4802 1 0.854597 0.75095 0.41568
4809 1 0.866643 0.747071 0.416362
4946 1 0.886504 0.746104 0.418472
4950 1 0.875002 0.756564 0.420154
4963 1 0.890847 0.753615 0.422968
5098 1 0.902508 0.740222 0.421049
5097 1 0.904341 0.758652 0.425536
4995 1 0.662667 0.771325 0.425167
4847 1 0.67602 0.763438 0.42001
4851 1 0.680014 0.775209 0.423552
4846 1 0.692077 0.769437 0.41995
4925 1 0.706103 0.769983 0.418182
4927 1 0.712704 0.78139 0.419435
4860 1 0.721637 0.766982 0.416261
4931 1 0.729591 0.777995 0.418201
4997 1 0.741465 0.768539 0.415662
5083 1 0.752301 0.761905 0.412992
5301 1 0.753095 0.778023 0.417156
4874 1 0.764008 0.772328 0.414299
4936 1 0.774336 0.76649 0.414297
5224 1 0.780387 0.777952 0.416094
4933 1 0.791486 0.770419 0.414695
4801 1 0.803555 0.772653 0.417033
4810 1 0.812562 0.761535 0.415258
4812 1 0.819965 0.776706 0.417465
4868 1 0.84593 0.76317 0.416768
4947 1 0.834676 0.768371 0.416761
5086 1 0.836802 0.779875 0.419977
5233 1 0.851023 0.777446 0.4193
5011 1 0.864392 0.777857 0.422384
5230 1 0.860171 0.765348 0.418673
5300 1 0.87701 0.769152 0.423452
5024 1 0.891376 0.767923 0.423103
5290 1 0.698104 0.784493 0.422032
5421 1 0.725923 0.792115 0.421462
5216 1 0.740748 0.78708 0.420127
5081 1 0.757014 0.792715 0.419615
5077 1 0.770629 0.786549 0.418781
5150 1 0.77146 0.801481 0.421816
4939 1 0.782958 0.79166 0.419778
4883 1 0.795079 0.782842 0.41667
5080 1 0.79676 0.796115 0.42093
5012 1 0.810024 0.788045 0.418512
4879 1 0.814995 0.79835 0.423755
4875 1 0.825621 0.788709 0.421354
5033 1 0.83962 0.792177 0.423726
4877 1 0.853541 0.78824 0.423566
5071 1 0.726062 0.804736 0.425014
5079 1 0.754946 0.807025 0.42416
5017 1 0.786863 0.807379 0.423422
5016 1 0.827671 0.804972 0.424367
4511 1 0.864612 0.537105 0.435958
4466 1 0.878209 0.538595 0.435598
4532 1 0.891851 0.541482 0.436742
4223 1 0.790535 0.554835 0.437034
4091 1 0.805879 0.555849 0.43425
4516 1 0.81847 0.561663 0.432107
4148 1 0.838986 0.544021 0.436926
4371 1 0.82895 0.5514 0.435054
4229 1 0.829954 0.565109 0.428779
4531 1 0.841892 0.554083 0.432012
4524 1 0.85376 0.560907 0.429373
4512 1 0.866239 0.548752 0.429617
4456 1 0.854753 0.546414 0.434088
4540 1 0.883043 0.551368 0.43065
4518 1 0.895517 0.562642 0.428628
4520 1 0.901284 0.550337 0.431639
4514 1 0.91082 0.5642 0.429415
4476 1 0.914333 0.550869 0.433768
4468 1 0.923848 0.561146 0.430506
4535 1 0.924614 0.54539 0.435385
4328 1 0.938012 0.554997 0.433427
1618 1 0.952054 0.565029 0.433391
1682 1 0.9535 0.550468 0.435825
4474 1 0.966861 0.561369 0.434035
4465 1 0.98003 0.56071 0.437152
4577 1 0.732385 0.578328 0.437472
4719 1 0.74868 0.580398 0.435951
4367 1 0.758844 0.570177 0.436162
4227 1 0.759409 0.584366 0.43119
4221 1 0.774381 0.576133 0.43245
4506 1 0.774912 0.586427 0.428525
4725 1 0.79169 0.585152 0.425879
4580 1 0.803513 0.577689 0.425217
4298 1 0.784405 0.565925 0.435781
4304 1 0.800449 0.56653 0.431036
4670 1 0.785829 0.576148 0.430878
4590 1 0.814933 0.571682 0.425836
4585 1 0.842024 0.570516 0.426262
4528 1 0.882392 0.566701 0.426277
4457 1 0.911542 0.578025 0.425538
4681 1 0.899855 0.57133 0.424848
4530 1 0.934938 0.581947 0.424739
4537 1 0.921668 0.575157 0.42938
4751 1 0.937632 0.570192 0.43039
4618 1 0.948128 0.577652 0.428383
4687 1 0.962594 0.575842 0.43135
4545 1 0.978451 0.573615 0.434127
1829 1 0.98886 0.582895 0.432352
1753 1 0.993464 0.56705 0.435676
4011 1 0.698885 0.607077 0.435936
4645 1 0.715744 0.60633 0.431245
4360 1 0.711772 0.59477 0.435653
4366 1 0.738412 0.587048 0.433697
4643 1 0.723675 0.591709 0.433775
4581 1 0.732136 0.601767 0.429906
4652 1 0.749892 0.596893 0.428715
4547 1 0.967496 0.60139 0.426115
4549 1 0.975415 0.587798 0.429771
4469 1 0.961106 0.589751 0.428832
4546 1 0.989019 0.596909 0.430499
1756 1 0.982398 0.606461 0.427377
4435 1 0.651047 0.631021 0.436165
4152 1 0.662925 0.62571 0.435673
4500 1 0.675852 0.620307 0.434607
4723 1 0.684933 0.629785 0.428207
4656 1 0.690369 0.616266 0.433973
4505 1 0.69908 0.625451 0.428201
4651 1 0.713328 0.620756 0.42522
4648 1 0.704906 0.615497 0.430395
4582 1 0.725816 0.614802 0.425385
4470 1 0.991882 0.623926 0.426908
1621 1 0.996994 0.607926 0.429411
4565 1 0.554597 0.649591 0.437526
4563 1 0.573411 0.648707 0.434608
4417 1 0.600937 0.637424 0.436252
4859 1 0.586733 0.641049 0.435394
4430 1 0.619971 0.633065 0.436865
5015 1 0.613745 0.645468 0.434277
4486 1 0.627632 0.644896 0.432885
4782 1 0.633801 0.631678 0.436901
4640 1 0.640955 0.642308 0.433163
4713 1 0.651287 0.649725 0.428508
4641 1 0.669218 0.634441 0.430137
4790 1 0.657893 0.638883 0.431289
4646 1 0.666878 0.648212 0.42681
4865 1 0.67925 0.642281 0.424662
4844 1 0.507169 0.672038 0.436509
4559 1 0.532585 0.657398 0.438297
4766 1 0.532956 0.673137 0.435552
4482 1 0.546912 0.661565 0.432874
4558 1 0.561145 0.660624 0.434381
4570 1 0.584553 0.658189 0.432004
4628 1 0.572553 0.666103 0.431089
4792 1 0.597902 0.653181 0.431286
4710 1 0.594695 0.669643 0.430834
4569 1 0.609578 0.660593 0.429986
4711 1 0.622636 0.657029 0.428377
4715 1 0.617553 0.67177 0.424786
4866 1 0.639018 0.653006 0.426901
1625 1 0.999597 0.661719 0.425978
4621 1 0.52202 0.677416 0.437632
4705 1 0.507352 0.684873 0.437965
4763 1 0.530188 0.686994 0.437384
4784 1 0.562982 0.674145 0.432284
4636 1 0.549339 0.674765 0.434062
4552 1 0.557488 0.689179 0.434296
4631 1 0.570907 0.684052 0.430297
4779 1 0.585305 0.691606 0.42812
4568 1 0.583065 0.674929 0.429026
4647 1 0.606266 0.674408 0.426396
4637 1 0.598993 0.686336 0.42795
4709 1 0.612936 0.689182 0.425088
4774 1 0.629407 0.686471 0.426437
1895 1 0.994826 0.693006 0.427691
1836 1 0.998603 0.679082 0.426138
4708 1 0.549174 0.703112 0.435645
4634 1 0.54423 0.716239 0.436447
4492 1 0.562488 0.702973 0.43302
4562 1 0.57479 0.700946 0.43023
4629 1 0.583457 0.709977 0.428455
4706 1 0.572943 0.717802 0.432144
5002 1 0.594873 0.702144 0.428477
4926 1 0.601499 0.716268 0.426983
4853 1 0.607149 0.70176 0.426886
4857 1 0.625344 0.700242 0.426384
4863 1 0.615297 0.710838 0.425623
4999 1 0.63565 0.709727 0.425377
4756 1 0.971492 0.702794 0.424738
4757 1 0.981558 0.69627 0.426321
1899 1 0.987104 0.708024 0.427856
4922 1 0.557728 0.717499 0.434519
4776 1 0.55402 0.730551 0.436236
4856 1 0.567058 0.736496 0.436227
4714 1 0.578477 0.729869 0.433903
4849 1 0.589852 0.722446 0.429314
4924 1 0.598346 0.732665 0.430087
4789 1 0.627795 0.724347 0.425556
4855 1 0.612282 0.727725 0.428271
4703 1 0.626612 0.738353 0.427701
4921 1 0.611716 0.740096 0.430067
4788 1 0.643655 0.721436 0.424318
5139 1 0.640386 0.735975 0.425319
2031 1 0.932511 0.736938 0.426607
4830 1 0.947885 0.728655 0.427149
4753 1 0.958186 0.736739 0.430094
4964 1 0.960647 0.720624 0.427058
1893 1 0.96975 0.732175 0.430348
4684 1 0.977703 0.718248 0.427783
1961 1 0.985673 0.725889 0.430517
1769 1 0.995363 0.735066 0.434426
4690 1 0.995201 0.720631 0.431995
4768 1 0.577122 0.747746 0.436609
4707 1 0.588634 0.741332 0.433482
4775 1 0.605005 0.750406 0.432063
5000 1 0.588646 0.755875 0.435267
4994 1 0.620708 0.750266 0.428762
5075 1 0.649903 0.750866 0.42659
5004 1 0.636524 0.753255 0.426791
5094 1 0.910797 0.747289 0.424417
5166 1 0.924698 0.749494 0.428613
5171 1 0.94383 0.745026 0.430559
4734 1 0.937482 0.756185 0.431179
1894 1 0.952978 0.758181 0.433359
1698 1 0.964924 0.74726 0.432219
4683 1 0.977609 0.753015 0.435231
1903 1 0.980171 0.740135 0.433543
1909 1 0.988216 0.75048 0.437261
4700 1 0.600989 0.766818 0.434147
5067 1 0.603907 0.779614 0.436367
4923 1 0.589734 0.772646 0.438371
5275 1 0.612197 0.762309 0.431366
5070 1 0.625272 0.766802 0.428119
5058 1 0.615442 0.774746 0.43115
4998 1 0.639415 0.769729 0.427365
4996 1 0.650693 0.764226 0.426452
5061 1 0.653665 0.781332 0.428702
4970 1 0.907099 0.771857 0.427233
5092 1 0.894782 0.778106 0.427839
5030 1 0.918432 0.761135 0.428401
5021 1 0.928587 0.766904 0.431062
4822 1 0.919567 0.779 0.432311
5232 1 0.944456 0.770944 0.432942
2101 1 0.955131 0.772952 0.43642
1965 1 0.964012 0.762714 0.434968
5068 1 0.615443 0.788445 0.433313
5074 1 0.629729 0.783123 0.430156
5280 1 0.616488 0.801967 0.438611
4992 1 0.62864 0.797724 0.432489
5261 1 0.642441 0.788681 0.430768
5207 1 0.642947 0.801139 0.431828
5006 1 0.669606 0.784185 0.426815
5073 1 0.660319 0.792697 0.429004
5066 1 0.674814 0.800598 0.429545
5145 1 0.686344 0.792003 0.424193
5072 1 0.712068 0.794498 0.424183
5564 1 0.698798 0.800703 0.427635
5138 1 0.7413 0.801347 0.423899
4808 1 0.864418 0.792768 0.426552
5020 1 0.85111 0.803874 0.428022
5039 1 0.880341 0.783975 0.426842
4873 1 0.87765 0.801257 0.428952
5107 1 0.891245 0.79223 0.429777
4962 1 0.90666 0.785222 0.432001
5239 1 0.905897 0.799142 0.435344
5170 1 0.933263 0.783886 0.433839
5038 1 0.921402 0.796987 0.436155
5105 1 0.934451 0.797631 0.436303
5165 1 0.947476 0.785313 0.434905
5283 1 0.627238 0.810401 0.435716
5215 1 0.641937 0.813465 0.433645
5359 1 0.659634 0.805834 0.430022
5352 1 0.656042 0.818311 0.434746
5059 1 0.672276 0.816021 0.432922
4990 1 0.687441 0.808781 0.430894
5141 1 0.686434 0.820334 0.435005
5147 1 0.702012 0.814716 0.431154
4993 1 0.713891 0.808403 0.428695
5495 1 0.702211 0.825081 0.434869
5563 1 0.717727 0.822334 0.431723
5491 1 0.730229 0.817105 0.427271
5292 1 0.743763 0.81452 0.42722
5423 1 0.758331 0.821376 0.428283
5018 1 0.773626 0.814457 0.425036
5088 1 0.777812 0.826156 0.428977
5008 1 0.80182 0.807814 0.425151
5014 1 0.790033 0.817642 0.427713
5084 1 0.804291 0.818791 0.430863
5212 1 0.813432 0.811522 0.428468
4876 1 0.820946 0.823625 0.433351
5227 1 0.82945 0.816008 0.429916
5144 1 0.837095 0.80534 0.427295
5152 1 0.844761 0.816547 0.432475
5304 1 0.858151 0.816159 0.433559
4948 1 0.864105 0.808294 0.428621
5163 1 0.868535 0.822857 0.435283
5314 1 0.890381 0.80757 0.433786
5101 1 0.877279 0.813267 0.432625
5555 1 0.670916 0.826842 0.436513
5289 1 0.712448 0.833774 0.435137
5210 1 0.695513 0.836579 0.437122
5363 1 0.731053 0.82878 0.432574
5353 1 0.726262 0.838498 0.437843
5487 1 0.743794 0.827675 0.430996
5362 1 0.741876 0.839277 0.437034
5565 1 0.753242 0.83467 0.434092
5076 1 0.767689 0.832722 0.433383
5295 1 0.784014 0.836506 0.43603
5218 1 0.794777 0.828063 0.431368
5286 1 0.805923 0.83165 0.43579
4949 1 0.837942 0.828196 0.435302
4369 1 0.818587 0.521382 0.447533
4234 1 0.84377 0.51091 0.449621
4154 1 0.861948 0.513252 0.448005
4370 1 0.876255 0.520114 0.446733
4611 1 0.889629 0.518816 0.444968
4383 1 0.898521 0.511759 0.44967
4595 1 0.911956 0.513367 0.451044
4448 1 0.920554 0.521372 0.445879
4331 1 0.957684 0.516026 0.449974
1411 1 0.998565 0.512566 0.450099
4503 1 0.73731 0.543834 0.45007
4025 1 0.778892 0.534411 0.44771
4151 1 0.794867 0.533865 0.445446
4373 1 0.812662 0.532433 0.444316
4235 1 0.824749 0.534431 0.442111
4299 1 0.83177 0.522988 0.445953
4233 1 0.837683 0.532057 0.442303
4661 1 0.84726 0.520793 0.444646
4309 1 0.864097 0.527476 0.442468
4305 1 0.849921 0.535296 0.438994
4596 1 0.878176 0.529927 0.440703
4659 1 0.907978 0.536394 0.43904
4475 1 0.893116 0.528609 0.44014
4603 1 0.906422 0.523645 0.44404
4398 1 0.931556 0.530094 0.445363
4536 1 0.922372 0.532575 0.439018
4534 1 0.945399 0.527395 0.446838
4464 1 0.938344 0.540931 0.439981
4533 1 0.953402 0.535707 0.442285
4615 1 0.974304 0.523631 0.448015
4400 1 0.961875 0.527793 0.447606
4334 1 0.968888 0.536532 0.441943
1337 1 0.978879 0.534926 0.44524
4406 1 0.987314 0.523819 0.446883
4478 1 0.991738 0.538528 0.441021
4480 1 0.998525 0.527087 0.444095
4231 1 0.715902 0.562824 0.444146
4288 1 0.726509 0.550816 0.447275
4084 1 0.730009 0.563566 0.442388
4287 1 0.741588 0.553971 0.44366
4353 1 0.754104 0.546271 0.448227
3943 1 0.755811 0.558054 0.442016
4226 1 0.773123 0.560206 0.438652
3942 1 0.767911 0.550915 0.445249
4437 1 0.780681 0.547832 0.443059
4161 1 0.798679 0.54482 0.441015
4295 1 0.815981 0.548557 0.437018
1681 1 0.968548 0.547469 0.437481
1476 1 0.995662 0.550781 0.440163
4477 1 0.981864 0.548415 0.438622
4017 1 0.675524 0.581778 0.449881
4089 1 0.689351 0.579994 0.446018
4355 1 0.700298 0.566699 0.44853
4080 1 0.70369 0.576375 0.443641
4225 1 0.71627 0.579215 0.439098
4578 1 0.743723 0.564962 0.43919
2099 1 0.502231 0.603978 0.447216
1819 1 0.519183 0.597987 0.447022
4695 1 0.506218 0.588398 0.45013
4499 1 0.545544 0.601162 0.44725
4555 1 0.560875 0.597844 0.448123
4427 1 0.550452 0.588186 0.450151
4561 1 0.578574 0.602271 0.446854
4489 1 0.576045 0.58996 0.450128
4722 1 0.588927 0.607006 0.446884
4425 1 0.602449 0.603329 0.447471
4497 1 0.614377 0.598982 0.447349
4364 1 0.626756 0.604569 0.445699
4361 1 0.640101 0.605822 0.444015
4217 1 0.648281 0.595652 0.447973
4498 1 0.666573 0.59008 0.445486
4357 1 0.657589 0.602001 0.443102
3948 1 0.670592 0.603004 0.441685
4147 1 0.681776 0.590837 0.443558
4729 1 0.684155 0.605122 0.438585
4712 1 0.696209 0.592977 0.439836
1743 1 0.512512 0.617789 0.444834
4346 1 0.533495 0.605699 0.447443
4704 1 0.527346 0.618312 0.444452
4502 1 0.553728 0.610063 0.445576
4697 1 0.543457 0.61972 0.442952
4639 1 0.561821 0.621665 0.4421
4625 1 0.568153 0.609215 0.443998
4642 1 0.57921 0.617499 0.442691
4495 1 0.574473 0.63065 0.438869
4575 1 0.598742 0.614959 0.44228
4504 1 0.590845 0.625994 0.437089
4507 1 0.608859 0.625531 0.438958
4077 1 0.612922 0.613065 0.444544
4432 1 0.624004 0.619519 0.441782
4501 1 0.63943 0.621234 0.440471
4572 1 0.669409 0.613301 0.439088
4720 1 0.652734 0.615158 0.439932
4767 1 0.50926 0.634184 0.444226
4839 1 0.509185 0.645505 0.441849
4623 1 0.522867 0.631968 0.443451
4567 1 0.539516 0.643318 0.440189
4553 1 0.53661 0.629909 0.442291
4633 1 0.523673 0.646484 0.441815
4635 1 0.564911 0.638058 0.436656
4487 1 0.550883 0.632541 0.440282
4560 1 0.515868 0.660239 0.438832
4418 1 0.501556 0.658704 0.439346
4772 1 0.518149 0.694666 0.438046
4765 1 0.54357 0.691434 0.436533
4564 1 0.515921 0.709679 0.438924
4626 1 0.50281 0.697211 0.439735
4910 1 0.501754 0.711838 0.440742
1606 1 0.532861 0.704347 0.438254
4770 1 0.514428 0.723473 0.44029
4691 1 0.511394 0.738887 0.444898
1818 1 0.501105 0.726823 0.444482
1888 1 0.530192 0.720536 0.438557
4843 1 0.525544 0.734126 0.440218
4701 1 0.54002 0.731674 0.438061
4904 1 0.5099 0.753357 0.446728
4761 1 0.537701 0.744276 0.440717
4835 1 0.524038 0.747732 0.444617
4848 1 0.538457 0.759029 0.442941
4928 1 0.555588 0.743815 0.438777
4632 1 0.552088 0.757616 0.440585
4627 1 0.566228 0.755367 0.439891
4986 1 0.520622 0.776024 0.449166
4780 1 0.522532 0.762487 0.446054
4833 1 0.534867 0.775903 0.445907
5063 1 0.561618 0.772035 0.441971
4702 1 0.548006 0.77405 0.444567
4771 1 0.573382 0.765512 0.437632
1890 1 0.576257 0.778212 0.440119
2105 1 0.967437 0.77652 0.441109
1835 1 0.978982 0.765257 0.439185
5169 1 0.982195 0.776135 0.444009
1904 1 0.991733 0.76362 0.439515
4827 1 0.996628 0.771918 0.446334
5142 1 0.534178 0.788906 0.449101
4699 1 0.547292 0.787916 0.447065
4916 1 0.558826 0.785013 0.444499
5053 1 0.557531 0.800194 0.448453
5057 1 0.567607 0.793675 0.442476
5195 1 0.579503 0.792581 0.440645
5136 1 0.600542 0.794899 0.437828
4698 1 0.589767 0.78655 0.438995
4850 1 0.587407 0.8029 0.442901
5031 1 0.945518 0.799633 0.439195
4897 1 0.957926 0.798886 0.441164
1978 1 0.960512 0.787893 0.439015
4966 1 0.97359 0.789801 0.445486
2311 1 0.971278 0.804722 0.446263
2187 1 0.988436 0.786453 0.448041
1972 1 0.983698 0.800073 0.449083
5127 1 0.554554 0.814087 0.449351
4778 1 0.57157 0.822266 0.446818
4991 1 0.572715 0.808455 0.444756
5065 1 0.586927 0.816249 0.443557
5205 1 0.601015 0.810531 0.441914
5131 1 0.599372 0.826935 0.443437
5190 1 0.614449 0.81829 0.440751
5143 1 0.628154 0.825049 0.438061
5134 1 0.642334 0.826078 0.437036
5243 1 0.884912 0.819645 0.438548
5103 1 0.901452 0.816748 0.438384
5235 1 0.90954 0.823978 0.446028
5172 1 0.930424 0.809521 0.440705
5090 1 0.916632 0.812094 0.439585
4900 1 0.927183 0.822186 0.444547
5037 1 0.945827 0.811001 0.442709
4755 1 0.940351 0.825721 0.446399
5236 1 0.954836 0.823218 0.449723
2312 1 0.957741 0.809058 0.446331
5035 1 0.96938 0.818352 0.449973
5126 1 0.585039 0.827993 0.447828
5137 1 0.601019 0.835514 0.448091
5349 1 0.617166 0.834178 0.444283
5489 1 0.610913 0.843647 0.449275
5003 1 0.634181 0.836959 0.442854
5420 1 0.650239 0.839682 0.439727
5422 1 0.657758 0.830787 0.438127
5211 1 0.670297 0.841938 0.44163
5492 1 0.68277 0.832863 0.438524
5209 1 0.684314 0.845086 0.442118
5493 1 0.709042 0.847591 0.437407
5213 1 0.755228 0.847075 0.440501
5146 1 0.768568 0.841874 0.438129
5156 1 0.780289 0.848206 0.441366
5087 1 0.795306 0.840998 0.438125
5157 1 0.821453 0.834858 0.438789
5488 1 0.811926 0.843431 0.441433
4880 1 0.835859 0.839681 0.440569
5078 1 0.825732 0.846128 0.445214
5229 1 0.851521 0.82957 0.437443
5217 1 0.852428 0.841484 0.443715
5153 1 0.862198 0.835814 0.440592
5160 1 0.878619 0.830462 0.442259
5309 1 0.871289 0.844223 0.445275
5089 1 0.885291 0.838938 0.44761
5307 1 0.893937 0.829269 0.444044
5173 1 0.902338 0.839202 0.450188
5238 1 0.917224 0.832418 0.448781
5424 1 0.625593 0.846454 0.447408
5350 1 0.640612 0.848906 0.444812
5556 1 0.642902 0.858689 0.448475
5351 1 0.655706 0.849441 0.444151
5364 1 0.654615 0.86398 0.448712
5419 1 0.668279 0.858998 0.445858
5276 1 0.68158 0.856504 0.44524
5518 1 0.692751 0.866584 0.44718
5553 1 0.676526 0.869262 0.449117
5294 1 0.69718 0.850312 0.441699
5355 1 0.703364 0.860145 0.44472
5372 1 0.717037 0.865212 0.447936
5367 1 0.719423 0.853414 0.442567
5554 1 0.738066 0.848127 0.441281
5450 1 0.733185 0.86087 0.448157
5494 1 0.750395 0.859468 0.447144
5360 1 0.761089 0.868627 0.450304
5149 1 0.7649 0.854087 0.444199
5516 1 0.774892 0.862961 0.449272
5429 1 0.784581 0.856839 0.445816
5228 1 0.797153 0.851989 0.443582
5284 1 0.79925 0.862416 0.449978
5221 1 0.811253 0.857502 0.44655
5445 1 0.837754 0.85066 0.446545
5302 1 0.864382 0.854476 0.448799
3956 1 0.755793 0.517054 0.461466
4175 1 0.771368 0.516936 0.460601
4094 1 0.784897 0.516898 0.458828
4232 1 0.799793 0.512567 0.456642
4180 1 0.812469 0.509188 0.453298
4513 1 0.829035 0.509113 0.451145
4254 1 0.853513 0.502371 0.45231
4306 1 0.869873 0.50481 0.451501
4441 1 0.885013 0.509406 0.450494
4445 1 0.893947 0.503419 0.454503
4529 1 0.910864 0.503122 0.455615
4453 1 0.935368 0.515898 0.450749
4374 1 0.924125 0.510426 0.451985
1269 1 0.929809 0.503263 0.456902
4315 1 0.947146 0.514523 0.451564
4385 1 0.942563 0.502697 0.453564
4395 1 0.958574 0.502031 0.454122
1492 1 0.969903 0.510965 0.452119
4617 1 0.98505 0.511127 0.451035
1672 1 0.510402 0.539463 0.461919
4165 1 0.70872 0.534361 0.461611
4007 1 0.696625 0.535738 0.462438
4010 1 0.729757 0.53583 0.454775
3959 1 0.720726 0.530807 0.461933
4160 1 0.746897 0.536006 0.454145
4022 1 0.741365 0.526918 0.460643
4153 1 0.766392 0.539417 0.449706
4086 1 0.760269 0.527094 0.457205
4237 1 0.773187 0.52766 0.455367
4098 1 0.804026 0.525058 0.450169
4082 1 0.789584 0.525813 0.452179
1814 1 0.513379 0.555631 0.459526
4422 1 0.521755 0.54725 0.461244
2029 1 0.529151 0.560185 0.45912
1671 1 0.541469 0.552468 0.461097
1742 1 0.544842 0.564359 0.457479
1815 1 0.566123 0.561141 0.460057
4493 1 0.582819 0.559856 0.461316
4491 1 0.608835 0.565448 0.46038
4354 1 0.6491 0.558855 0.461639
4088 1 0.665304 0.56273 0.458046
4079 1 0.671166 0.547788 0.460782
3938 1 0.657225 0.55101 0.463065
4428 1 0.688328 0.545229 0.458694
4292 1 0.678545 0.561537 0.455927
4212 1 0.694038 0.556011 0.455399
4144 1 0.714509 0.543608 0.452932
4282 1 0.702851 0.54599 0.457043
4219 1 0.707417 0.554511 0.450858
4630 1 0.505076 0.575123 0.45408
4488 1 0.518905 0.582834 0.451312
1669 1 0.520415 0.571861 0.455527
4557 1 0.536198 0.575546 0.454037
4421 1 0.551355 0.578196 0.455067
4220 1 0.564232 0.584557 0.453422
4490 1 0.559963 0.569418 0.456179
1602 1 0.576203 0.572604 0.457399
4424 1 0.585765 0.580178 0.45539
4218 1 0.595348 0.568182 0.46114
4781 1 0.602349 0.579442 0.455725
4216 1 0.62467 0.564843 0.460498
4289 1 0.615007 0.575585 0.456185
4494 1 0.628248 0.576047 0.456923
4576 1 0.640599 0.580749 0.454063
4571 1 0.642236 0.568868 0.458683
4290 1 0.654312 0.571239 0.455609
3954 1 0.65808 0.583418 0.451053
4359 1 0.669237 0.57217 0.453973
4213 1 0.68868 0.568911 0.452034
4554 1 0.533568 0.589207 0.449834
4496 1 0.589776 0.591203 0.451064
4358 1 0.606461 0.590223 0.451087
4431 1 0.622194 0.588661 0.452363
4224 1 0.635057 0.594259 0.450488
5045 1 0.508133 0.766279 0.45074
4912 1 0.509849 0.782489 0.452437
4984 1 0.520965 0.790833 0.451434
4920 1 0.502161 0.791484 0.455071
4852 1 0.512725 0.800466 0.453661
4985 1 0.54225 0.801926 0.450467
4678 1 0.99495 0.797499 0.452693
4988 1 0.513509 0.81969 0.45684
4918 1 0.529098 0.804333 0.454503
5334 1 0.527824 0.818022 0.455959
5263 1 0.541533 0.816231 0.452446
1902 1 0.985245 0.813605 0.452944
2040 1 0.993411 0.820256 0.458655
5197 1 0.520673 0.834454 0.460134
5054 1 0.508015 0.835475 0.461194
5335 1 0.534721 0.841738 0.457599
5196 1 0.533971 0.830096 0.455705
5060 1 0.561331 0.830158 0.451888
5266 1 0.547372 0.841941 0.45682
5062 1 0.545364 0.830415 0.452646
5056 1 0.559949 0.840239 0.455324
5201 1 0.574756 0.837167 0.450883
5130 1 0.585481 0.841834 0.452535
5245 1 0.918877 0.846433 0.454123
5442 1 0.932913 0.838524 0.451725
5100 1 0.9495 0.83809 0.453611
2032 1 0.950905 0.846052 0.458775
4893 1 0.963046 0.831689 0.454069
1966 1 0.970623 0.838052 0.460004
4829 1 0.977503 0.825558 0.455826
5114 1 0.516701 0.849611 0.461798
5194 1 0.531878 0.852905 0.460205
5128 1 0.558608 0.852744 0.458308
5404 1 0.554542 0.867379 0.460326
5129 1 0.545416 0.855976 0.460291
5132 1 0.572099 0.848037 0.455278
5413 1 0.571149 0.864499 0.458526
5064 1 0.582524 0.856938 0.455926
5140 1 0.595977 0.850741 0.452199
5282 1 0.602387 0.863127 0.456254
5478 1 0.587509 0.870071 0.457033
5133 1 0.628199 0.85931 0.450405
5347 1 0.612543 0.854478 0.452863
5069 1 0.618051 0.867777 0.454802
5005 1 0.784576 0.867929 0.453086
4804 1 0.813302 0.867378 0.453182
5151 1 0.827979 0.860059 0.45001
5226 1 0.838158 0.863815 0.454042
5223 1 0.84846 0.859379 0.45026
5225 1 0.859472 0.865419 0.453136
5231 1 0.888878 0.848483 0.45331
2241 1 0.876153 0.850928 0.45174
5167 1 0.875803 0.863028 0.457562
5303 1 0.887409 0.856959 0.45761
5159 1 0.903952 0.850735 0.454558
5288 1 0.898598 0.857958 0.460052
5237 1 0.926118 0.851132 0.4611
5106 1 0.91232 0.85475 0.460089
5234 1 0.936783 0.84798 0.459747
5418 1 0.578597 0.878051 0.46023
2889 1 0.597099 0.877786 0.46158
5345 1 0.609785 0.878984 0.459664
5417 1 0.625399 0.879606 0.457631
5483 1 0.6293 0.889606 0.463031
5485 1 0.636487 0.870757 0.453354
5204 1 0.639556 0.882443 0.458009
5416 1 0.648695 0.878803 0.452643
5559 1 0.657989 0.887242 0.456108
5567 1 0.664791 0.873592 0.451401
5279 1 0.673958 0.882862 0.455064
5515 1 0.687384 0.878013 0.452629
5434 1 0.705757 0.872465 0.450394
5496 1 0.697246 0.884359 0.454479
5499 1 0.715043 0.884004 0.455328
5511 1 0.726675 0.874527 0.451758
5587 1 0.731699 0.887222 0.455773
2909 1 0.744087 0.874056 0.450243
5219 1 0.758234 0.879648 0.454855
5436 1 0.744804 0.884192 0.456447
5354 1 0.771037 0.87429 0.454805
5441 1 0.766672 0.885782 0.459546
5222 1 0.800301 0.87501 0.456077
5285 1 0.785451 0.879019 0.458576
5158 1 0.798679 0.887306 0.461634
5365 1 0.813075 0.882953 0.460147
5298 1 0.825093 0.887513 0.462961
4945 1 0.826896 0.874014 0.457776
5148 1 0.837222 0.881078 0.459825
5287 1 0.846512 0.872012 0.457245
5306 1 0.86325 0.87378 0.459631
5297 1 0.851514 0.883893 0.461868
5545 1 0.646235 0.895117 0.46075
5361 1 0.66475 0.89877 0.460231
2827 1 0.679458 0.893911 0.457204
5438 1 0.69183 0.896661 0.458245
5498 1 0.684029 0.905926 0.462615
5291 1 0.706633 0.897461 0.458777
5426 1 0.722708 0.895118 0.459892
5435 1 0.736396 0.89523 0.461296
5432 1 0.752175 0.895198 0.462321
1816 1 0.508942 0.510861 0.469841
4348 1 0.523307 0.50974 0.470983
4274 1 0.499168 0.502346 0.471449
4415 1 0.519897 0.51977 0.466211
4484 1 0.534778 0.51426 0.470171
1750 1 0.546513 0.513367 0.472746
4076 1 0.683656 0.523718 0.472051
3868 1 0.697019 0.515116 0.474524
4015 1 0.710052 0.51182 0.474624
4211 1 0.721437 0.518628 0.46912
3814 1 0.731836 0.521152 0.464765
3751 1 0.733281 0.511811 0.471341
4352 1 0.743774 0.502991 0.474002
3884 1 0.748241 0.513667 0.46716
4162 1 0.759601 0.503589 0.473668
4020 1 0.773344 0.503519 0.472444
4095 1 0.765411 0.51249 0.466959
4157 1 0.780216 0.505479 0.465833
3815 1 0.794746 0.503599 0.464288
4134 1 0.506845 0.525119 0.46489
1740 1 0.521349 0.533478 0.462716
1747 1 0.532773 0.524524 0.46588
1677 1 0.536674 0.538568 0.462442
1604 1 0.556468 0.525131 0.4719
1603 1 0.544891 0.528766 0.467928
4280 1 0.564849 0.537284 0.469124
1745 1 0.551959 0.537771 0.463654
1748 1 0.586095 0.530384 0.473404
4426 1 0.569726 0.526543 0.474496
4283 1 0.579371 0.538854 0.467701
4215 1 0.595349 0.536642 0.469928
4143 1 0.602575 0.527773 0.474297
4063 1 0.614449 0.53469 0.471119
1328 1 0.625809 0.524307 0.472664
4356 1 0.627848 0.541463 0.468852
3925 1 0.640982 0.531037 0.472656
4419 1 0.654474 0.534847 0.468651
4071 1 0.670474 0.526662 0.470855
4001 1 0.663937 0.538913 0.465147
4070 1 0.680072 0.534219 0.465144
4149 1 0.694259 0.524112 0.467126
4078 1 0.706848 0.523467 0.468123
4286 1 0.56217 0.548958 0.464093
3940 1 0.573488 0.550558 0.464994
4350 1 0.59946 0.555484 0.462507
4145 1 0.607056 0.544137 0.467537
4293 1 0.589409 0.548099 0.464534
4087 1 0.616746 0.553728 0.463793
4214 1 0.634928 0.553942 0.464039
4006 1 0.644892 0.544597 0.467182
5412 1 0.502734 0.846783 0.463673
2247 1 0.976577 0.847111 0.466877
2106 1 0.98737 0.833881 0.461271
4754 1 0.999488 0.837416 0.468303
4828 1 0.988567 0.846305 0.468597
5329 1 0.504804 0.859392 0.466975
5339 1 0.522555 0.86517 0.464975
5477 1 0.538415 0.868225 0.462712
5102 1 0.889014 0.867128 0.463855
5375 1 0.904977 0.866588 0.46573
2317 1 0.918229 0.859911 0.466186
2175 1 0.934183 0.861873 0.467944
5240 1 0.947052 0.855765 0.465314
5308 1 0.953446 0.862613 0.471987
2182 1 0.961373 0.847813 0.465518
2381 1 0.968652 0.857016 0.472312
2243 1 0.983316 0.853667 0.474592
5340 1 0.511104 0.873579 0.468112
2818 1 0.505331 0.883408 0.472933
5397 1 0.52336 0.878643 0.468572
5267 1 0.536516 0.881231 0.467191
5402 1 0.548705 0.883306 0.466724
5277 1 0.561631 0.879085 0.463185
5273 1 0.569963 0.89105 0.464859
5271 1 0.58497 0.888962 0.463823
5401 1 0.599869 0.891174 0.463685
5220 1 0.863345 0.884576 0.465346
5164 1 0.87348 0.875186 0.463991
5373 1 0.885968 0.87849 0.468545
2522 1 0.876055 0.8885 0.469066
5168 1 0.899824 0.87828 0.470318
2456 1 0.926974 0.871742 0.471244
5175 1 0.91332 0.874259 0.47074
5341 1 0.51735 0.890117 0.472821
5262 1 0.504409 0.900209 0.474457
5332 1 0.521236 0.902671 0.473866
5326 1 0.53122 0.893013 0.471278
5337 1 0.53617 0.909241 0.474239
5327 1 0.557703 0.892268 0.467767
5333 1 0.54451 0.894955 0.470142
5203 1 0.552397 0.906139 0.473011
5272 1 0.563789 0.902707 0.470726
2822 1 0.579087 0.900812 0.466956
5548 1 0.592282 0.901747 0.466222
5541 1 0.616984 0.891561 0.464376
5490 1 0.607117 0.90288 0.465944
5281 1 0.624988 0.904386 0.466409
2835 1 0.640901 0.907469 0.46641
5561 1 0.654761 0.906818 0.464106
5484 1 0.669131 0.910175 0.46587
5568 1 0.696516 0.908095 0.46626
5497 1 0.711894 0.908191 0.464329
5578 1 0.727112 0.907303 0.465966
5430 1 0.742196 0.908367 0.467033
5380 1 0.756395 0.909667 0.46783
5428 1 0.767634 0.898271 0.46513
5369 1 0.770932 0.911947 0.467867
5377 1 0.785842 0.894561 0.463399
5444 1 0.783262 0.906378 0.46788
5214 1 0.798329 0.89873 0.466617
5315 1 0.810456 0.894903 0.465419
5293 1 0.810925 0.905089 0.470525
5457 1 0.824024 0.911718 0.470477
5311 1 0.825944 0.898597 0.467286
5384 1 0.838153 0.894314 0.465528
5313 1 0.836624 0.906437 0.46998
5161 1 0.851758 0.89654 0.467349
5310 1 0.863522 0.897617 0.47209
5455 1 0.849343 0.910028 0.472757
5382 1 0.862234 0.9114 0.474633
2388 1 0.876918 0.902746 0.474704
5381 1 0.889501 0.892238 0.47437
5200 1 0.563781 0.92005 0.473687
5265 1 0.575903 0.913334 0.470736
2887 1 0.580024 0.928152 0.475572
5415 1 0.603697 0.915136 0.471048
5269 1 0.588308 0.914795 0.470918
5557 1 0.617558 0.916448 0.470683
5405 1 0.644752 0.916272 0.471111
5278 1 0.631822 0.918147 0.470503
5486 1 0.658419 0.913717 0.470181
5427 1 0.670432 0.921895 0.473901
2834 1 0.655166 0.921365 0.475893
5566 1 0.68337 0.913749 0.468501
2826 1 0.686574 0.923626 0.473962
5439 1 0.699967 0.919913 0.472092
5582 1 0.715859 0.920606 0.469611
5507 1 0.729117 0.91776 0.469851
5357 1 0.741186 0.920728 0.471186
5443 1 0.754898 0.918847 0.473768
5296 1 0.766685 0.923665 0.473241
5368 1 0.795297 0.912811 0.471374
5433 1 0.782765 0.920602 0.472912
5366 1 0.809027 0.920126 0.474995
5503 1 0.835979 0.918019 0.474333
4347 1 0.511506 0.500085 0.474838
4210 1 0.534048 0.505441 0.475761
4416 1 0.549819 0.505203 0.479129
4345 1 0.56302 0.511646 0.477359
4414 1 0.578544 0.516597 0.477044
4429 1 0.5741 0.501921 0.482121
4284 1 0.590299 0.5065 0.481429
4209 1 0.592481 0.51703 0.476199
4281 1 0.605858 0.514284 0.480304
4485 1 0.601179 0.499201 0.483901
4285 1 0.614776 0.502556 0.484128
4278 1 0.6145 0.520533 0.474865
3994 1 0.623391 0.511996 0.479848
4483 1 0.642934 0.50543 0.481365
1189 1 0.639259 0.517607 0.477368
4072 1 0.655125 0.502139 0.483164
3996 1 0.656042 0.512983 0.478319
1397 1 0.671502 0.515178 0.475945
4135 1 0.668014 0.503748 0.480896
4423 1 0.683773 0.508216 0.478463
4073 1 0.701108 0.504221 0.479017
4014 1 0.725613 0.50475 0.475602
3922 1 0.654195 0.523025 0.474309
2045 1 0.995972 0.849208 0.474796
5241 1 0.94281 0.868296 0.474609
5176 1 0.977939 0.865231 0.480027
5040 1 0.992161 0.860582 0.481196
5250 1 0.904185 0.886633 0.475441
5177 1 0.920906 0.884804 0.476809
5108 1 0.934566 0.881109 0.478362
2242 1 0.948093 0.877517 0.480485
5174 1 0.954146 0.881122 0.487219
2315 1 0.942358 0.888568 0.485546
4896 1 0.95922 0.86767 0.478581
5036 1 0.969285 0.875144 0.483353
2532 1 0.986066 0.872985 0.488007
5531 1 0.511291 0.912237 0.478857
5305 1 0.887811 0.90617 0.479036
2384 1 0.901785 0.899132 0.478872
2316 1 0.912558 0.906199 0.483744
5446 1 0.899639 0.909565 0.48518
2392 1 0.915738 0.895222 0.479289
2387 1 0.930371 0.893994 0.483481
67 1 0.511819 0.925942 0.482657
5392 1 0.527434 0.917354 0.477772
5206 1 0.537774 0.923268 0.478439
5532 1 0.525762 0.9262 0.484094
5536 1 0.538694 0.935647 0.483525
5338 1 0.550159 0.917685 0.476402
5202 1 0.550889 0.930571 0.480781
5336 1 0.564264 0.932101 0.478035
2957 1 0.59541 0.927398 0.475471
5480 1 0.610869 0.929291 0.475532
2971 1 0.62821 0.929289 0.474966
5562 1 0.641771 0.93146 0.476899
2840 1 0.66445 0.93149 0.478641
5501 1 0.67897 0.934824 0.477327
2839 1 0.713469 0.929506 0.477296
2900 1 0.698029 0.932435 0.477206
5452 1 0.729554 0.929862 0.474499
2830 1 0.74398 0.927881 0.476567
5431 1 0.758903 0.932628 0.478717
5581 1 0.774394 0.930768 0.477891
5248 1 0.799048 0.924367 0.478042
5513 1 0.787471 0.930132 0.478453
5154 1 0.822811 0.922833 0.478324
5527 1 0.839283 0.926828 0.480169
5162 1 0.842465 0.936899 0.485514
5449 1 0.829461 0.932308 0.484209
5383 1 0.850662 0.920691 0.477485
5447 1 0.862594 0.920423 0.480011
5370 1 0.854271 0.930343 0.481964
5371 1 0.875936 0.914606 0.480067
5247 1 0.869171 0.928462 0.484767
5385 1 0.888607 0.919538 0.484671
5537 1 0.527754 0.937112 0.487349
5471 1 0.556872 0.942456 0.484141
5135 1 0.57177 0.942356 0.481292
2825 1 0.58255 0.954736 0.485359
5543 1 0.571688 0.951283 0.48677
5399 1 0.60214 0.938324 0.479964
2956 1 0.589085 0.940239 0.479658
2893 1 0.598574 0.948227 0.48528
2888 1 0.620714 0.940867 0.479888
5558 1 0.625863 0.950377 0.486662
5409 1 0.611262 0.948763 0.48512
2836 1 0.633892 0.941386 0.482695
2837 1 0.642492 0.949959 0.486933
5571 1 0.650962 0.939459 0.482112
2820 1 0.66067 0.947636 0.48481
5569 1 0.671447 0.940532 0.483611
5570 1 0.692592 0.941323 0.482842
5572 1 0.682039 0.94776 0.484584
5575 1 0.710251 0.943762 0.483204
5577 1 0.723934 0.937887 0.481418
5500 1 0.721677 0.94795 0.486855
2899 1 0.737142 0.947729 0.48693
2912 1 0.737232 0.937854 0.480336
5514 1 0.752911 0.943993 0.483053
5579 1 0.768651 0.940843 0.481679
2663 1 0.781681 0.941562 0.483135
5509 1 0.765168 0.949771 0.486099
5510 1 0.796272 0.941016 0.484253
5242 1 0.81236 0.933566 0.481809
2244 1 0.963571 0.886553 0.491107
5110 1 0.976319 0.882044 0.489317
2319 1 0.991141 0.881311 0.494674
2391 1 0.997788 0.86916 0.488574
2386 1 0.924935 0.905145 0.48828
5104 1 0.938461 0.903076 0.491408
5180 1 0.951898 0.896011 0.492171
4826 1 0.953835 0.911116 0.49714
2103 1 0.973208 0.903587 0.501102
2174 1 0.959948 0.899105 0.49692
2462 1 0.974065 0.891447 0.49512
2112 1 0.988704 0.894102 0.49728
5257 1 0.501112 0.929946 0.487449
5596 1 0.883071 0.929332 0.489437
5459 1 0.890644 0.932235 0.496257
5389 1 0.89704 0.921442 0.491511
5244 1 0.906274 0.929954 0.4956
2591 1 0.911506 0.915568 0.490179
2458 1 0.924727 0.916292 0.493111
5179 1 0.931769 0.92889 0.500566
5320 1 0.918311 0.925125 0.495401
2246 1 0.939505 0.913507 0.495989
2248 1 0.947884 0.924482 0.499033
5396 1 0.498892 0.951105 0.499619
5331 1 0.516198 0.937027 0.48853
5199 1 0.503629 0.943039 0.49273
2815 1 0.517988 0.950328 0.492265
5395 1 0.531841 0.949083 0.490246
2814 1 0.545973 0.946139 0.48791
5542 1 0.556904 0.953894 0.49061
5573 1 0.669384 0.956688 0.48995
5356 1 0.690548 0.955401 0.489824
2980 1 0.701554 0.950932 0.487975
5524 1 0.753595 0.954223 0.488845
5597 1 0.779144 0.952906 0.486961
5585 1 0.79223 0.949998 0.490273
4 1 0.804978 0.956758 0.492735
5529 1 0.80843 0.944892 0.488867
5523 1 0.818995 0.954141 0.494394
5451 1 0.822847 0.941215 0.488178
5374 1 0.833475 0.943688 0.491546
5526 1 0.834788 0.954214 0.49781
5312 1 0.856879 0.937058 0.488572
2382 1 0.86234 0.943788 0.496414
5317 1 0.847896 0.947314 0.494978
5376 1 0.872426 0.93464 0.493529
2596 1 0.877438 0.940124 0.499572
5539 1 0.51199 0.959697 0.49871
2811 1 0.528851 0.960762 0.496933
2812 1 0.54314 0.959153 0.494782
5535 1 0.556013 0.966095 0.496041
2809 1 0.56965 0.975881 0.499546
2959 1 0.571139 0.96374 0.49294
5408 1 0.582475 0.964164 0.4905
2960 1 0.584363 0.974172 0.497118
5469 1 0.596796 0.958572 0.489442
2803 1 0.596096 0.970746 0.495009
5414 1 0.612296 0.9589 0.490829
2965 1 0.611414 0.971012 0.49729
5549 1 0.624799 0.963183 0.491838
2901 1 0.627802 0.970176 0.498094
2975 1 0.637521 0.962497 0.491765
3036 1 0.650508 0.969277 0.495865
2828 1 0.652534 0.956944 0.490167
5358 1 0.664435 0.965085 0.495269
2824 1 0.679994 0.974457 0.499829
5342 1 0.681543 0.9634 0.493556
2823 1 0.693397 0.970202 0.496902
2905 1 0.713013 0.958521 0.491239
2906 1 0.703034 0.963608 0.49275
5504 1 0.718844 0.968179 0.496196
2979 1 0.728386 0.960027 0.491996
2981 1 0.735858 0.971685 0.497607
2902 1 0.755942 0.966057 0.49637
5525 1 0.743247 0.96138 0.492632
5519 1 0.771702 0.968803 0.498271
5440 1 0.766863 0.960998 0.493637
5583 1 0.79674 0.963282 0.4959
5505 1 0.783299 0.962439 0.494756
5520 1 0.809366 0.964924 0.498636
2530 1 0.986608 0.904433 0.504536
2116 1 0.999352 0.909919 0.509966
2523 1 0.946089 0.932643 0.505367
2108 1 0.973456 0.91846 0.504887
5178 1 0.958689 0.927855 0.506251
2255 1 0.970864 0.924854 0.510263
2597 1 0.963705 0.917479 0.500587
2172 1 0.983719 0.915311 0.509686
2672 1 0.889471 0.943391 0.50513
5593 1 0.869959 0.949421 0.502853
2313 1 0.881001 0.951935 0.506706
5318 1 0.906088 0.9453 0.507791
2667 1 0.895898 0.956025 0.510421
5387 1 0.900971 0.93703 0.502598
5316 1 0.915892 0.935947 0.502039
2526 1 0.927979 0.93665 0.506091
2314 1 0.918834 0.946062 0.509642
5246 1 0.935627 0.942857 0.511163
2178 1 0.949382 0.939775 0.510637
2599 1 0.963704 0.936171 0.512545
69 1 0.518913 0.970046 0.503002
5533 1 0.503061 0.967618 0.504344
2801 1 0.531748 0.973188 0.501504
5328 1 0.54496 0.972603 0.500172
5344 1 0.622783 0.978206 0.502999
5551 1 0.652538 0.979497 0.502094
5411 1 0.637377 0.977223 0.499863
5482 1 0.70824 0.974211 0.499943
2978 1 0.722415 0.978521 0.501068
2838 1 0.75043 0.976265 0.501375
2917 1 0.76206 0.978191 0.502649
5521 1 0.783163 0.974128 0.501135
2858 1 0.796825 0.97296 0.502568
5454 1 0.809199 0.976104 0.505272
5388 1 0.825776 0.976272 0.507578
5594 1 0.824842 0.964159 0.502301
2662 1 0.836747 0.968636 0.504312
5460 1 0.842315 0.97402 0.512583
2869 1 0.846279 0.960354 0.50182
5528 1 0.853418 0.967223 0.508311
2934 1 0.85886 0.955768 0.501023
2732 1 0.868263 0.962567 0.508432
5590 1 0.884386 0.965632 0.511686
2952 1 0.511657 0.97867 0.511112
2804 1 0.522566 0.989096 0.512004
2883 1 0.530981 0.982548 0.506299
2879 1 0.535091 0.991063 0.51185
5323 1 0.545882 0.984103 0.506648
2817 1 0.546304 0.999385 0.512141
5468 1 0.558037 0.992002 0.509684
5547 1 0.555348 0.978348 0.503574
2955 1 0.574181 0.9971 0.510802
2884 1 0.569698 0.985893 0.506532
5406 1 0.581056 0.983726 0.502471
3041 1 0.586841 0.992671 0.507954
2885 1 0.601189 0.992243 0.505875
5467 1 0.59379 0.980801 0.501354
5208 1 0.608298 0.979749 0.502669
5550 1 0.627564 0.995979 0.50971
5346 1 0.615694 0.992013 0.506546
5544 1 0.632038 0.985089 0.505569
5481 1 0.645796 0.986538 0.508464
5274 1 0.658525 0.989906 0.509117
5407 1 0.664861 0.977079 0.501234
2896 1 0.675916 0.988447 0.505507
5476 1 0.68582 0.993784 0.510528
5425 1 0.69029 0.982298 0.503152
3115 1 0.716067 0.986656 0.505131
2915 1 0.700438 0.994084 0.509032
2911 1 0.732051 0.991809 0.507793
5506 1 0.737119 0.981976 0.504159
2845 1 0.74826 0.988695 0.50752
5591 1 0.759527 0.990008 0.507157
5522 1 0.773137 0.979309 0.504523
2907 1 0.770535 0.993517 0.51223
5437 1 0.784511 0.983847 0.508556
5502 1 0.801046 0.983275 0.509977
5595 1 0.81653 0.985576 0.511188
2185 1 0.994582 0.918342 0.518083
2525 1 0.981094 0.927619 0.516912
2528 1 0.995145 0.930428 0.522195
2670 1 0.910614 0.954443 0.513885
2524 1 0.927918 0.952767 0.514718
2455 1 0.941832 0.952485 0.515977
2671 1 0.955642 0.955772 0.520246
2600 1 0.956053 0.945072 0.515886
2536 1 0.967367 0.946786 0.520373
2318 1 0.971981 0.936394 0.519394
2464 1 0.984319 0.940711 0.524737
2592 1 0.858785 0.976869 0.513135
3 1 0.876978 0.9756 0.51559
2593 1 0.903193 0.965782 0.515283
2740 1 0.912635 0.972819 0.519942
5456 1 0.894624 0.974775 0.517454
5099 1 0.920931 0.963443 0.517731
2736 1 0.924144 0.975795 0.522249
2521 1 0.935731 0.963418 0.520273
2385 1 0.949638 0.967381 0.523874
2673 1 0.966104 0.957281 0.524595
68 1 0.508696 0.99111 0.516821
3109 1 0.640456 0.998806 0.513184
5378 1 0.782738 0.995381 0.515252
2857 1 0.796129 0.992504 0.515193
2846 1 0.820698 1.0006 0.520945
5379 1 0.810206 0.994918 0.514964
2860 1 0.824385 0.993063 0.513998
5249 1 0.8367 0.98489 0.513089
1 1 0.837194 0.992727 0.520373
5448 1 0.851733 0.98606 0.516778
2664 1 0.865872 0.985111 0.518597
2451 1 0.857024 0.99371 0.521989
2666 1 0.887284 0.98339 0.521521
2744 1 0.876025 0.991785 0.524024
5598 1 0.903949 0.983393 0.522258
5386 1 0.93749 0.978253 0.523579
2465 1 0.978295 0.952932 0.527399
2595 1 0.988971 0.953098 0.531562
2608 1 0.953246 0.979183 0.527486
2605 1 0.963378 0.96914 0.527186
2612 1 0.974258 0.965541 0.531079
2681 1 0.998804 0.965824 0.537507
2472 1 0.986455 0.969411 0.534215
5319 1 0.865341 1.00009 0.526951
83 1 0.892944 0.994073 0.526116
2661 1 0.907232 0.9977 0.527985
2738 1 0.914904 0.987024 0.526022
143 1 0.925205 0.998096 0.530368
2739 1 0.931845 0.988931 0.527559
2733 1 0.945337 0.990942 0.530443
2452 1 0.960539 0.992293 0.535554
2541 1 0.964714 0.98006 0.533275
2603 1 0.976187 0.979347 0.534078
2602 1 0.974039 0.992833 0.537855
5390 1 1.00101 0.987727 0.546668
2470 1 0.991971 0.978393 0.53886
79 1 0.986453 0.992665 0.543598
158 1 0.99258 0.998897 0.55154
