ITEM: TIMESTEP
399800
ITEM: NUMBER OF ATOMS
5600
ITEM: BOX BOUNDS pp pp pp
-3.8535000000000004e+01 3.8535000000000004e+01
-3.8139758782666611e+01 3.8139758782666611e+01
-6.6060000000000016e+01 6.6060000000000016e+01
ITEM: ATOMS id type xs ys zs
1464 1 0.0444521 0.215134 0.273987
2666 1 0.0136256 0.0163463 0.498429
2665 1 0.00428865 0.00185609 0.498518
2741 1 0.0223322 0.00660282 0.498673
8 1 0.0389668 0.00227106 0.498472
17 1 0.0390729 0.0133645 0.499477
2737 1 0.050764 0.00913426 0.497975
2744 1 0.0652838 0.00421676 0.498751
2671 1 0.0699814 0.0169807 0.497832
2740 1 0.0827631 0.00997654 0.497918
2745 1 0.0774739 0.000190834 0.497343
2678 1 0.106092 0.000992326 0.499191
2748 1 0.0941042 0.0029798 0.498806
2536 1 0.0956507 0.014416 0.49926
2613 1 0.14459 0.00396137 0.499749
2608 1 0.156769 0.00255153 0.499739
129 1 0.405218 0.00483699 0.49988
135 1 0.421194 0.0127156 0.498776
60 1 0.41826 0.00187605 0.499735
66 1 0.435146 0.00972644 0.499146
209 1 0.445773 0.00657987 0.498073
280 1 0.459099 0.00341849 0.497323
416 1 0.462085 0.0154148 0.496941
3153 1 0.47325 0.00891582 0.49738
2802 1 0.498384 0.00170912 0.498601
3085 1 0.48598 0.00561211 0.498308
3018 1 0.489465 0.0168778 0.497307
5 1 0.01156 0.0267203 0.499488
2738 1 0.0230261 0.0279274 0.499029
2735 1 0.028631 0.0203247 0.49983
80 1 0.0382655 0.0323279 0.499406
2743 1 0.0453735 0.0234005 0.498859
81 1 0.0500198 0.0357755 0.498955
10 1 0.0581403 0.0205356 0.498005
151 1 0.0690598 0.0307708 0.49724
2676 1 0.0780888 0.0359344 0.498102
13 1 0.0842721 0.0252252 0.498421
19 1 0.0971836 0.0265226 0.499661
203 1 0.38642 0.0337445 0.499785
137 1 0.423287 0.023865 0.499259
62 1 0.439279 0.035413 0.498253
210 1 0.436501 0.0228606 0.498297
3013 1 0.45338 0.0311213 0.49746
350 1 0.449966 0.0194053 0.499478
3082 1 0.46425 0.0299048 0.497857
3014 1 0.473857 0.0200242 0.495609
3155 1 0.479811 0.0326651 0.496995
490 1 0.4951 0.0274886 0.498877
4 1 0.00925586 0.0375696 0.498573
217 1 0.0183106 0.0451087 0.499298
76 1 0.0154077 0.0553587 0.499373
289 1 0.00242212 0.0535748 0.499354
77 1 0.02663 0.0386351 0.499185
146 1 0.0361516 0.0451379 0.499944
149 1 0.0604907 0.0389163 0.49866
84 1 0.0619881 0.0511077 0.49926
79 1 0.0862721 0.0429628 0.498526
90 1 0.0902905 0.0544311 0.498921
159 1 0.0978524 0.0386996 0.499611
195 1 0.347809 0.0516845 0.496978
196 1 0.361219 0.0517106 0.49811
198 1 0.374791 0.0478326 0.497641
273 1 0.390309 0.04589 0.498053
205 1 0.402424 0.0440518 0.49856
274 1 0.416783 0.0529854 0.498256
347 1 0.414192 0.0396743 0.497251
277 1 0.429409 0.0508504 0.497386
3011 1 0.441696 0.05047 0.497013
278 1 0.426835 0.0384016 0.49845
420 1 0.451052 0.0405511 0.498049
417 1 0.460231 0.0472288 0.498134
208 1 0.470003 0.0401771 0.497859
3084 1 0.477723 0.0514581 0.49772
3086 1 0.487435 0.0444701 0.496994
3225 1 0.499099 0.0398268 0.497736
215 1 0.0177716 0.0669119 0.499548
218 1 0.0304339 0.0659979 0.499178
82 1 0.0537589 0.0611057 0.499543
14 1 0.0913986 0.0667191 0.499608
172 1 0.182702 0.0640211 0.499247
183 1 0.276347 0.0691523 0.499555
185 1 0.289013 0.0665591 0.499333
190 1 0.312847 0.0616028 0.499599
189 1 0.301624 0.0635811 0.499791
191 1 0.324036 0.0560359 0.499013
259 1 0.315505 0.0723275 0.498498
262 1 0.327973 0.0676293 0.496407
193 1 0.336347 0.0568469 0.498216
192 1 0.338812 0.0678723 0.495974
194 1 0.353051 0.0653057 0.497135
200 1 0.365445 0.0628423 0.495415
201 1 0.376722 0.0606558 0.497047
202 1 0.379894 0.0730669 0.496313
204 1 0.391186 0.057849 0.496812
271 1 0.403275 0.0563583 0.4983
269 1 0.3917 0.0711737 0.497362
344 1 0.403656 0.0682477 0.497457
340 1 0.415496 0.0682719 0.497771
3151 1 0.442047 0.0621879 0.49881
275 1 0.428951 0.0639396 0.497141
349 1 0.443327 0.0733225 0.496302
346 1 0.453734 0.070291 0.498077
207 1 0.453125 0.0569352 0.498058
3221 1 0.463559 0.0584742 0.49831
3154 1 0.469585 0.0669519 0.497124
414 1 0.481206 0.0659235 0.49687
3222 1 0.493207 0.0575582 0.496849
3224 1 0.496465 0.0717491 0.498089
103 1 0.18493 0.0755967 0.498985
23 1 0.170506 0.0778952 0.499511
177 1 0.200236 0.0859852 0.499613
317 1 0.213741 0.0833211 0.49996
99 1 0.238851 0.0780856 0.49967
319 1 0.242083 0.09051 0.499829
253 1 0.267211 0.086908 0.497577
186 1 0.289415 0.0784869 0.499518
254 1 0.278839 0.0824246 0.498234
255 1 0.304381 0.0888437 0.498538
188 1 0.301373 0.0780058 0.498987
257 1 0.317131 0.087415 0.497782
330 1 0.32998 0.0827642 0.495455
332 1 0.341941 0.0804964 0.496125
264 1 0.366655 0.076173 0.494803
331 1 0.36952 0.0879336 0.495089
261 1 0.354743 0.0794047 0.495518
263 1 0.383445 0.0882111 0.495819
267 1 0.395771 0.0847667 0.495705
407 1 0.406994 0.0851582 0.497882
345 1 0.419495 0.0790276 0.496442
341 1 0.422674 0.0913283 0.49556
3081 1 0.430622 0.0765119 0.49675
348 1 0.435233 0.0899831 0.495779
412 1 0.446064 0.0857263 0.496821
419 1 0.456793 0.0818025 0.496801
629 1 0.466371 0.0773239 0.497815
3292 1 0.475331 0.0846396 0.497355
3291 1 0.490934 0.0866337 0.497868
418 1 0.483407 0.0764948 0.497242
170 1 0.201373 0.0979006 0.498662
304 1 0.19023 0.10066 0.499824
244 1 0.216359 0.0948576 0.499032
169 1 0.215453 0.106298 0.497913
308 1 0.203806 0.108701 0.499174
240 1 0.229638 0.104469 0.497206
176 1 0.229114 0.0937233 0.497814
247 1 0.242066 0.103084 0.499209
249 1 0.255332 0.0991187 0.497841
321 1 0.271531 0.108583 0.498277
251 1 0.267679 0.097555 0.498339
323 1 0.283262 0.107889 0.497986
250 1 0.281799 0.0953694 0.498206
252 1 0.294933 0.105215 0.498462
256 1 0.293197 0.0927778 0.498348
258 1 0.305862 0.101274 0.49789
260 1 0.319749 0.0999213 0.496438
401 1 0.33142 0.0965009 0.495939
400 1 0.333045 0.109149 0.494979
335 1 0.343067 0.0939479 0.494895
336 1 0.347569 0.106894 0.494467
334 1 0.357549 0.0930778 0.495352
333 1 0.359196 0.107147 0.495292
265 1 0.373251 0.101702 0.494812
338 1 0.384924 0.101357 0.495412
270 1 0.399004 0.110616 0.49525
404 1 0.397352 0.0991067 0.494753
266 1 0.411174 0.096127 0.496455
408 1 0.412474 0.108081 0.494943
409 1 0.426165 0.104655 0.495371
343 1 0.438017 0.102024 0.495074
480 1 0.450249 0.100791 0.496833
483 1 0.463068 0.111024 0.497845
413 1 0.46313 0.0935576 0.498164
415 1 0.480728 0.0955702 0.498603
485 1 0.475104 0.105881 0.499014
487 1 0.494187 0.0996517 0.498801
236 1 0.191814 0.113746 0.499759
243 1 0.206964 0.121872 0.497258
239 1 0.221246 0.121499 0.497218
315 1 0.231086 0.117592 0.498575
381 1 0.234285 0.128299 0.495469
312 1 0.246243 0.127999 0.495968
246 1 0.243812 0.114563 0.497583
248 1 0.257681 0.112985 0.49875
316 1 0.258376 0.124293 0.497134
322 1 0.273066 0.12142 0.498631
393 1 0.284398 0.120666 0.498329
329 1 0.308699 0.114433 0.498513
325 1 0.310666 0.126198 0.498555
327 1 0.297794 0.118517 0.498258
399 1 0.320812 0.111796 0.498519
328 1 0.324312 0.123257 0.49767
467 1 0.348809 0.119219 0.494613
398 1 0.335851 0.120929 0.495095
405 1 0.361347 0.117904 0.494745
402 1 0.361828 0.128863 0.495209
403 1 0.387463 0.113214 0.495009
337 1 0.373599 0.113863 0.494388
268 1 0.388054 0.128709 0.494651
406 1 0.375746 0.126674 0.493377
339 1 0.403523 0.125765 0.494929
410 1 0.414905 0.119309 0.494787
342 1 0.428236 0.11799 0.495009
482 1 0.438372 0.115763 0.497223
481 1 0.440234 0.12947 0.49659
553 1 0.450631 0.113576 0.496805
551 1 0.451759 0.125596 0.496945
550 1 0.464584 0.122912 0.499333
362 1 0.0168605 0.145783 0.49917
291 1 0.0301531 0.145073 0.498517
357 1 0.0276618 0.132701 0.499244
430 1 0.0530901 0.139773 0.499876
358 1 0.0418804 0.141954 0.499039
238 1 0.208815 0.134096 0.497735
382 1 0.213258 0.146867 0.498559
378 1 0.221601 0.132004 0.496067
451 1 0.224194 0.142555 0.496737
314 1 0.235917 0.143932 0.495902
385 1 0.24844 0.140759 0.495596
318 1 0.262383 0.136786 0.497432
320 1 0.273974 0.133847 0.497847
386 1 0.276911 0.148027 0.49536
324 1 0.286681 0.132741 0.497953
387 1 0.289116 0.144878 0.497551
326 1 0.299379 0.131003 0.498506
395 1 0.30113 0.142752 0.498527
397 1 0.313359 0.138678 0.498443
469 1 0.327148 0.136103 0.49629
391 1 0.337369 0.13257 0.495118
465 1 0.349651 0.131161 0.495071
394 1 0.341973 0.14629 0.494101
473 1 0.368957 0.142001 0.495569
466 1 0.352949 0.143055 0.495283
471 1 0.381769 0.14126 0.496793
479 1 0.404783 0.138067 0.494405
475 1 0.391326 0.138889 0.493716
543 1 0.416998 0.147818 0.495091
411 1 0.415297 0.135155 0.494852
478 1 0.427591 0.131413 0.495755
545 1 0.43125 0.14591 0.495814
549 1 0.443465 0.140661 0.498545
548 1 0.456075 0.13824 0.499211
558 1 0.495978 0.138806 0.499851
351 1 0.00522719 0.149598 0.499775
290 1 0.00445186 0.162398 0.497453
352 1 0.0181685 0.159916 0.499246
423 1 0.0311928 0.157339 0.498984
377 1 0.201113 0.149465 0.499996
519 1 0.215908 0.159693 0.499132
518 1 0.204332 0.161801 0.499716
379 1 0.238699 0.155848 0.496128
520 1 0.227345 0.15547 0.497004
383 1 0.251528 0.151533 0.495852
455 1 0.255145 0.164413 0.496174
526 1 0.266588 0.162943 0.496244
453 1 0.263847 0.149468 0.495595
458 1 0.278621 0.161051 0.495847
384 1 0.291681 0.157633 0.496611
388 1 0.304283 0.155127 0.497405
396 1 0.317018 0.15047 0.497174
392 1 0.328039 0.150025 0.496119
390 1 0.318625 0.165598 0.495039
463 1 0.334455 0.163295 0.494619
464 1 0.344479 0.158144 0.49324
468 1 0.357775 0.157121 0.494801
470 1 0.368523 0.153349 0.495248
541 1 0.385126 0.166438 0.495918
472 1 0.382178 0.153417 0.495283
476 1 0.404814 0.151077 0.495139
477 1 0.393157 0.152299 0.494489
542 1 0.398026 0.163692 0.49583
615 1 0.422779 0.160447 0.496278
474 1 0.410519 0.162069 0.49503
546 1 0.434007 0.156598 0.497053
552 1 0.449752 0.164951 0.497749
619 1 0.445985 0.152853 0.497036
623 1 0.461693 0.162865 0.499795
493 1 0.00855187 0.17498 0.49693
562 1 0.00869804 0.18507 0.496214
495 1 0.0312417 0.170357 0.498767
424 1 0.0193067 0.170897 0.49746
494 1 0.0226822 0.185055 0.497645
426 1 0.0354217 0.180746 0.499261
380 1 0.219076 0.171688 0.497927
456 1 0.229875 0.168673 0.497876
450 1 0.232263 0.181317 0.497549
457 1 0.241393 0.16899 0.496692
454 1 0.246107 0.178611 0.49728
525 1 0.257495 0.177995 0.49686
527 1 0.269988 0.175635 0.495671
460 1 0.282912 0.172831 0.497333
459 1 0.294916 0.170081 0.49655
529 1 0.285275 0.184937 0.496496
605 1 0.298417 0.182471 0.495506
389 1 0.306562 0.168177 0.495579
461 1 0.310405 0.180357 0.495712
533 1 0.322392 0.177264 0.495253
607 1 0.335832 0.174987 0.495051
609 1 0.350845 0.185127 0.495702
535 1 0.347324 0.172935 0.494807
537 1 0.358964 0.168835 0.495084
538 1 0.362851 0.18057 0.495513
539 1 0.37256 0.168469 0.494371
611 1 0.386712 0.179781 0.495936
540 1 0.374313 0.182262 0.495066
613 1 0.400574 0.176411 0.494498
616 1 0.412911 0.173602 0.49526
544 1 0.425956 0.172497 0.496146
620 1 0.428829 0.183552 0.494916
617 1 0.43903 0.169351 0.496345
621 1 0.441458 0.180998 0.495672
622 1 0.452877 0.179512 0.496738
554 1 0.464588 0.173395 0.498677
697 1 0.464249 0.185063 0.49744
561 1 0.000540526 0.200571 0.496581
564 1 0.0132831 0.198054 0.497101
492 1 0.0246197 0.198076 0.498165
496 1 0.0503032 0.192284 0.499247
497 1 0.0370631 0.197362 0.497892
502 1 0.06677 0.202832 0.499416
578 1 0.118916 0.203093 0.499064
516 1 0.193984 0.186845 0.499284
586 1 0.194013 0.198923 0.499162
589 1 0.220438 0.185268 0.498682
587 1 0.206854 0.186281 0.498187
661 1 0.212236 0.194747 0.498154
658 1 0.204464 0.201446 0.497807
659 1 0.220524 0.203672 0.497889
591 1 0.228837 0.194636 0.497653
452 1 0.238138 0.193863 0.498748
523 1 0.248048 0.191079 0.497549
597 1 0.260128 0.190567 0.497148
528 1 0.272665 0.18873 0.497139
599 1 0.275922 0.200867 0.497789
530 1 0.287705 0.197224 0.497817
532 1 0.30172 0.193746 0.498384
531 1 0.312647 0.193461 0.49679
534 1 0.324714 0.190001 0.497158
603 1 0.328285 0.201587 0.499208
536 1 0.337797 0.186307 0.496885
604 1 0.340875 0.200419 0.498273
683 1 0.350196 0.198807 0.497186
612 1 0.363193 0.193687 0.495843
685 1 0.375373 0.194658 0.49579
614 1 0.39062 0.190958 0.494229
688 1 0.405887 0.201441 0.495057
687 1 0.403374 0.189066 0.494734
618 1 0.416714 0.185778 0.496043
689 1 0.416421 0.198664 0.496487
695 1 0.442036 0.19585 0.495417
691 1 0.429507 0.194696 0.496022
696 1 0.45577 0.192154 0.495278
625 1 0.473161 0.188558 0.499056
630 1 0.46528 0.20183 0.497713
766 1 0.476843 0.200955 0.49972
633 1 0.00387919 0.213317 0.497856
635 1 0.0161672 0.213618 0.497854
565 1 0.0269662 0.2112 0.497363
637 1 0.0321287 0.221336 0.497852
567 1 0.0542872 0.204464 0.498251
563 1 0.0432652 0.207905 0.498016
641 1 0.0574509 0.216113 0.498751
570 1 0.0700763 0.215026 0.498974
572 1 0.0814493 0.211796 0.499691
645 1 0.110778 0.218881 0.498861
644 1 0.0979094 0.22143 0.498904
510 1 0.122214 0.214967 0.499253
588 1 0.196692 0.212906 0.499357
727 1 0.209912 0.211557 0.499195
660 1 0.21558 0.222105 0.49931
652 1 0.228516 0.209875 0.49834
590 1 0.23753 0.205151 0.497255
522 1 0.240012 0.219856 0.497508
521 1 0.252091 0.217923 0.498321
524 1 0.251449 0.205489 0.498294
598 1 0.26328 0.203778 0.498092
667 1 0.266408 0.217279 0.499218
600 1 0.278338 0.213027 0.499687
601 1 0.292074 0.209477 0.499711
671 1 0.294604 0.221437 0.499735
602 1 0.303413 0.208166 0.499543
462 1 0.316257 0.205492 0.498813
675 1 0.331585 0.216293 0.499654
608 1 0.343382 0.212952 0.498377
606 1 0.356174 0.209772 0.497507
610 1 0.368347 0.207507 0.496689
678 1 0.369197 0.221429 0.49532
679 1 0.381027 0.206674 0.495294
682 1 0.381479 0.219769 0.494669
686 1 0.393693 0.206207 0.493078
757 1 0.395723 0.217007 0.493939
759 1 0.407683 0.214804 0.494607
690 1 0.419154 0.210388 0.495901
693 1 0.431638 0.208971 0.496207
763 1 0.436015 0.220132 0.494965
692 1 0.443943 0.205967 0.495879
694 1 0.454828 0.204023 0.495625
833 1 0.4463 0.217809 0.494355
698 1 0.458513 0.215942 0.495157
767 1 0.469883 0.213555 0.497746
837 1 0.482589 0.209358 0.49855
834 1 0.487211 0.219324 0.499601
631 1 0.0058777 0.226532 0.497115
703 1 0.0084273 0.237877 0.496213
636 1 0.0191301 0.225862 0.497764
638 1 0.0338417 0.236311 0.498139
634 1 0.0216909 0.237396 0.496793
640 1 0.0480276 0.231381 0.498403
568 1 0.0587039 0.229909 0.49887
712 1 0.0721375 0.226169 0.498156
642 1 0.0745862 0.239881 0.497695
643 1 0.0855398 0.223234 0.497293
713 1 0.0851973 0.234937 0.497748
715 1 0.0998417 0.233614 0.498952
649 1 0.11271 0.230933 0.498923
580 1 0.142681 0.237554 0.499964
723 1 0.191211 0.24043 0.499731
657 1 0.201676 0.225744 0.499766
662 1 0.216129 0.236452 0.498781
663 1 0.228858 0.222751 0.497656
592 1 0.229435 0.234767 0.499507
593 1 0.254767 0.230469 0.498021
595 1 0.243011 0.232193 0.499303
737 1 0.268282 0.227834 0.498555
666 1 0.284975 0.23804 0.499942
739 1 0.283514 0.224678 0.498818
669 1 0.298149 0.234244 0.499829
677 1 0.334133 0.228185 0.499845
681 1 0.346394 0.22651 0.497495
744 1 0.348373 0.238635 0.499276
747 1 0.358056 0.222683 0.498043
684 1 0.35811 0.237546 0.496053
749 1 0.373199 0.235664 0.494818
680 1 0.384283 0.232864 0.493206
753 1 0.395933 0.228526 0.493044
761 1 0.423195 0.22411 0.495991
756 1 0.414689 0.239588 0.493415
751 1 0.409348 0.229948 0.492996
898 1 0.426524 0.236856 0.49374
760 1 0.436687 0.23351 0.494443
899 1 0.450266 0.231325 0.493886
764 1 0.460441 0.228601 0.49719
835 1 0.472696 0.225746 0.498451
765 1 0.47576 0.236252 0.495896
832 1 0.487351 0.231213 0.497906
704 1 0.000639384 0.253255 0.495943
775 1 0.0119075 0.249977 0.495589
705 1 0.0244893 0.25072 0.494867
706 1 0.0352925 0.247805 0.495768
639 1 0.0490299 0.243149 0.497372
709 1 0.0511593 0.256875 0.496357
707 1 0.0387911 0.258792 0.495224
711 1 0.0644811 0.243104 0.497088
710 1 0.0631853 0.253788 0.496419
714 1 0.0779086 0.252294 0.496933
785 1 0.0916428 0.248413 0.497566
787 1 0.10265 0.247021 0.498222
646 1 0.115656 0.244115 0.499171
718 1 0.141594 0.251947 0.498581
648 1 0.155119 0.248857 0.498855
654 1 0.18186 0.257371 0.49938
594 1 0.257789 0.242004 0.499962
665 1 0.242606 0.245501 0.49993
596 1 0.270949 0.240932 0.498721
820 1 0.351143 0.252794 0.498482
746 1 0.362585 0.249528 0.496632
819 1 0.374625 0.246453 0.495251
752 1 0.37872 0.257933 0.495355
750 1 0.389096 0.24476 0.493929
821 1 0.392228 0.257275 0.494499
755 1 0.40049 0.240922 0.493197
830 1 0.403324 0.252963 0.494631
896 1 0.415997 0.250673 0.493483
758 1 0.428055 0.249614 0.494181
828 1 0.440707 0.245261 0.494148
762 1 0.441222 0.258315 0.4943
829 1 0.452992 0.242994 0.493688
900 1 0.455188 0.256458 0.493396
831 1 0.463585 0.241894 0.495531
902 1 0.479016 0.247708 0.495034
901 1 0.467678 0.252677 0.49476
1041 1 0.491183 0.243173 0.497285
971 1 0.49323 0.254409 0.49588
773 1 0.00148785 0.265688 0.49603
771 1 0.0140285 0.263796 0.496652
841 1 0.0172026 0.27718 0.496929
708 1 0.0266018 0.261516 0.493843
774 1 0.0295166 0.274234 0.496064
779 1 0.0414778 0.270309 0.495349
780 1 0.0541585 0.270374 0.496466
781 1 0.0661392 0.266794 0.496252
783 1 0.0783329 0.26617 0.496395
782 1 0.0820111 0.277494 0.496893
786 1 0.105486 0.259704 0.499006
784 1 0.0931509 0.262947 0.498131
853 1 0.0942617 0.274391 0.497703
855 1 0.10577 0.27148 0.497745
789 1 0.118083 0.269699 0.499625
794 1 0.14662 0.275786 0.498729
720 1 0.142767 0.263917 0.499171
790 1 0.157244 0.271453 0.499102
725 1 0.171899 0.269914 0.499732
795 1 0.16927 0.259342 0.499857
799 1 0.185097 0.269983 0.499995
891 1 0.353086 0.264081 0.499009
822 1 0.366096 0.262099 0.496781
961 1 0.356899 0.275547 0.497677
824 1 0.367776 0.275208 0.496106
754 1 0.380575 0.272246 0.49486
748 1 0.392431 0.269369 0.494026
895 1 0.404379 0.265407 0.493807
965 1 0.416809 0.264065 0.492474
1107 1 0.418035 0.276026 0.495245
968 1 0.427884 0.261254 0.494303
897 1 0.431274 0.271475 0.493626
1039 1 0.443493 0.270861 0.494617
1037 1 0.454735 0.267802 0.493185
969 1 0.467348 0.263743 0.493886
1254 1 0.472509 0.2767 0.495642
1044 1 0.497517 0.269093 0.494627
974 1 0.482404 0.260709 0.4956
972 1 0.484107 0.272254 0.496449
3638 1 0.0063392 0.293349 0.495427
911 1 0.00409223 0.278425 0.495638
844 1 0.0208277 0.288954 0.496496
777 1 0.0345752 0.285324 0.497707
776 1 0.045301 0.282519 0.497717
778 1 0.0565041 0.28202 0.4962
849 1 0.0708351 0.279938 0.496426
850 1 0.0715287 0.292065 0.49702
847 1 0.0593282 0.294388 0.49714
851 1 0.0844594 0.28998 0.497867
852 1 0.0965779 0.286989 0.49806
856 1 0.107878 0.283299 0.49757
854 1 0.122874 0.293644 0.499831
791 1 0.121931 0.281519 0.498343
788 1 0.134519 0.278279 0.499346
857 1 0.13621 0.290732 0.497781
861 1 0.148665 0.287248 0.497448
796 1 0.162902 0.283149 0.497533
797 1 0.174099 0.282139 0.498581
867 1 0.176272 0.293487 0.497891
800 1 0.189172 0.293984 0.4997
873 1 0.20293 0.292287 0.499784
798 1 0.186733 0.282118 0.499439
958 1 0.347013 0.292428 0.49883
1102 1 0.370343 0.286003 0.495552
963 1 0.357098 0.287383 0.498032
962 1 0.383756 0.283564 0.494221
1034 1 0.406043 0.277917 0.494094
827 1 0.395125 0.281946 0.494134
826 1 0.397672 0.294738 0.49301
1105 1 0.407898 0.290602 0.494335
966 1 0.422209 0.288207 0.494178
1174 1 0.435544 0.284395 0.493406
970 1 0.458183 0.279801 0.49402
967 1 0.446492 0.281864 0.493903
1253 1 0.449717 0.296266 0.494327
1042 1 0.462122 0.290042 0.495263
1109 1 0.473034 0.289557 0.495264
1048 1 0.487118 0.284127 0.496057
3778 1 0.00925484 0.305514 0.496514
842 1 0.0222768 0.302233 0.497448
772 1 0.0349506 0.298096 0.496953
914 1 0.0262317 0.314751 0.497465
843 1 0.0470191 0.296625 0.496552
916 1 0.0374833 0.31175 0.497602
846 1 0.0492357 0.309093 0.497186
845 1 0.0620394 0.307522 0.497283
848 1 0.0734938 0.30371 0.498505
921 1 0.0859487 0.301803 0.499774
927 1 0.101894 0.310449 0.499219
923 1 0.0990167 0.299435 0.499126
924 1 0.112537 0.296377 0.498257
859 1 0.126679 0.306312 0.498695
860 1 0.138238 0.302543 0.497534
865 1 0.164984 0.299976 0.497713
863 1 0.151537 0.300856 0.496649
864 1 0.154222 0.313106 0.497639
935 1 0.168845 0.310766 0.49773
866 1 0.180059 0.306409 0.4988
869 1 0.192031 0.306721 0.498246
874 1 0.21602 0.301165 0.499433
871 1 0.204757 0.304303 0.498853
945 1 0.231189 0.311115 0.499891
887 1 0.304466 0.301088 0.499543
888 1 0.321091 0.309489 0.498548
1031 1 0.333191 0.305733 0.499041
1099 1 0.345441 0.304044 0.497191
1242 1 0.359401 0.312071 0.495881
960 1 0.358735 0.300421 0.497906
1101 1 0.384529 0.296616 0.494026
1103 1 0.372011 0.298519 0.495824
1319 1 0.373742 0.31114 0.495267
1317 1 0.386247 0.308315 0.493805
894 1 0.399882 0.306687 0.493447
1106 1 0.412757 0.303534 0.493947
1249 1 0.424765 0.300469 0.493508
1036 1 0.436964 0.29729 0.49279
1180 1 0.427613 0.313381 0.493784
1181 1 0.438081 0.309227 0.492941
1255 1 0.453042 0.308454 0.495614
1176 1 0.465411 0.306106 0.495843
1111 1 0.47776 0.30114 0.495375
1117 1 0.488304 0.299478 0.495166
1108 1 0.489523 0.312991 0.497063
838 1 0.499432 0.296556 0.495283
3850 1 0.0135427 0.319453 0.497034
3780 1 0.0146172 0.329779 0.497544
981 1 0.00309415 0.33216 0.496667
983 1 0.0286221 0.326717 0.498687
918 1 0.0514099 0.321342 0.497647
985 1 0.039286 0.325263 0.497554
917 1 0.0654918 0.319431 0.496517
920 1 0.0665905 0.332628 0.497865
919 1 0.0782791 0.318455 0.498363
993 1 0.0794078 0.330609 0.499011
929 1 0.128294 0.320092 0.499249
858 1 0.117543 0.321854 0.499871
931 1 0.144943 0.327371 0.49804
862 1 0.141636 0.315904 0.497316
930 1 0.13252 0.331601 0.498913
933 1 0.158289 0.325141 0.497835
868 1 0.182762 0.321581 0.498547
934 1 0.170036 0.323577 0.497963
940 1 0.196629 0.331008 0.497733
872 1 0.195326 0.318824 0.497967
943 1 0.21816 0.315118 0.498949
870 1 0.206968 0.316263 0.497595
942 1 0.209491 0.331189 0.497836
941 1 0.220197 0.326298 0.499729
957 1 0.308773 0.32391 0.499702
964 1 0.323125 0.321248 0.499091
1032 1 0.334257 0.318154 0.498056
1030 1 0.347676 0.315359 0.497516
1244 1 0.337958 0.330536 0.498814
1028 1 0.350159 0.328186 0.495986
1169 1 0.364162 0.324554 0.496347
1251 1 0.376606 0.323197 0.49383
1393 1 0.390377 0.320446 0.493846
1178 1 0.391522 0.332972 0.492159
1171 1 0.402109 0.317675 0.493742
1100 1 0.406848 0.329051 0.492306
1104 1 0.413537 0.314842 0.493671
1250 1 0.418341 0.328293 0.493716
1175 1 0.429118 0.324989 0.49425
1173 1 0.442701 0.323013 0.494727
1038 1 0.443397 0.332453 0.494372
1182 1 0.453177 0.319405 0.496129
1112 1 0.478236 0.317068 0.496749
1397 1 0.464163 0.320321 0.495325
1188 1 0.470993 0.331307 0.495952
1114 1 0.483746 0.330476 0.49632
976 1 0.495322 0.327598 0.497038
3920 1 0.00580732 0.344059 0.497678
1053 1 0.0186361 0.340029 0.497272
984 1 0.0293111 0.338269 0.497583
1055 1 0.0314969 0.351367 0.497586
986 1 0.0420506 0.338037 0.497099
988 1 0.0440007 0.349322 0.499304
987 1 0.0545286 0.334011 0.497919
991 1 0.068452 0.34577 0.49888
989 1 0.0569358 0.346031 0.49786
992 1 0.0807629 0.341721 0.499939
1003 1 0.144958 0.340343 0.498425
932 1 0.158388 0.337926 0.498583
937 1 0.18447 0.333913 0.497685
936 1 0.17184 0.337047 0.498308
1007 1 0.175662 0.348326 0.498989
1077 1 0.201258 0.342653 0.497804
1009 1 0.18847 0.34607 0.498776
944 1 0.2141 0.343287 0.498506
1085 1 0.224528 0.33843 0.498723
1015 1 0.226202 0.350603 0.49936
1026 1 0.303478 0.349085 0.49992
1097 1 0.327628 0.344939 0.499843
893 1 0.324801 0.334487 0.499544
1098 1 0.341769 0.342935 0.498976
1389 1 0.354331 0.342154 0.49717
1247 1 0.365835 0.33884 0.494274
1387 1 0.368269 0.35122 0.495749
1243 1 0.378243 0.33602 0.494478
1316 1 0.379978 0.347798 0.493072
1323 1 0.392904 0.346366 0.492969
1185 1 0.403018 0.339332 0.493025
1257 1 0.417462 0.339903 0.492739
1395 1 0.42342 0.351171 0.491358
1177 1 0.432149 0.336958 0.49246
1392 1 0.433517 0.350559 0.493161
1386 1 0.456543 0.333362 0.49536
1110 1 0.445079 0.346076 0.49471
1391 1 0.459837 0.346151 0.493857
1186 1 0.471711 0.343487 0.494799
1115 1 0.48372 0.342942 0.497448
977 1 0.498157 0.342642 0.496594
4058 1 0.0131917 0.369372 0.49893
3918 1 0.00777039 0.356542 0.497357
1121 1 0.0183968 0.353435 0.496062
1052 1 0.0235467 0.366027 0.498778
1054 1 0.0343619 0.364934 0.499958
1057 1 0.0468334 0.361447 0.499041
990 1 0.0603667 0.357955 0.499095
1063 1 0.0843772 0.354394 0.499606
1000 1 0.137439 0.368609 0.49945
1005 1 0.159641 0.351919 0.498736
1071 1 0.165066 0.362996 0.497959
1002 1 0.148565 0.354673 0.499623
1075 1 0.151158 0.36664 0.4994
938 1 0.178403 0.360143 0.498377
1011 1 0.203407 0.356976 0.497752
939 1 0.191851 0.359078 0.498559
1012 1 0.206095 0.368945 0.499103
1013 1 0.214227 0.354497 0.498307
1083 1 0.218341 0.36663 0.498187
1090 1 0.228654 0.364553 0.499535
1024 1 0.266812 0.356351 0.499326
1092 1 0.268319 0.370109 0.497675
1095 1 0.279358 0.352487 0.499155
1093 1 0.279285 0.366409 0.499235
1167 1 0.291617 0.363244 0.499346
1385 1 0.304095 0.361362 0.498528
1241 1 0.330374 0.358845 0.498691
1172 1 0.317282 0.358925 0.498158
1388 1 0.347585 0.366344 0.496607
1383 1 0.342897 0.354543 0.497782
1320 1 0.355744 0.354015 0.496619
1179 1 0.359153 0.363641 0.496371
1322 1 0.372247 0.364233 0.49453
1252 1 0.388005 0.360106 0.492792
1325 1 0.404234 0.352094 0.491337
1318 1 0.418469 0.363385 0.491441
1190 1 0.436279 0.362582 0.493731
1245 1 0.449314 0.358416 0.494339
1324 1 0.462877 0.362693 0.495014
1116 1 0.471013 0.354089 0.494523
1258 1 0.478305 0.360346 0.496723
1113 1 0.486669 0.353625 0.497054
1040 1 0.497556 0.355427 0.497536
1184 1 0.490179 0.365744 0.497821
3985 1 0.000369854 0.373038 0.499742
1058 1 0.0497569 0.373353 0.498558
1060 1 0.0621492 0.371247 0.499285
1068 1 0.106191 0.388782 0.498338
1143 1 0.143481 0.381933 0.498399
1136 1 0.131142 0.38394 0.499777
1006 1 0.155724 0.379959 0.499292
1086 1 0.181851 0.384801 0.498858
1079 1 0.179878 0.372756 0.49792
1076 1 0.192597 0.371326 0.498917
1080 1 0.193308 0.383558 0.499377
1158 1 0.208417 0.382304 0.499757
1164 1 0.218674 0.379324 0.498464
1157 1 0.231999 0.377721 0.498541
1094 1 0.247648 0.387498 0.499661
1163 1 0.255762 0.370748 0.499734
1165 1 0.259143 0.382914 0.499386
1166 1 0.271417 0.383827 0.498976
1027 1 0.294526 0.377864 0.497215
1096 1 0.281432 0.378799 0.497748
1384 1 0.306641 0.373192 0.496603
1170 1 0.310274 0.385748 0.496247
1248 1 0.332074 0.371425 0.497397
1321 1 0.318198 0.371046 0.496645
1315 1 0.322208 0.37989 0.494921
1256 1 0.448237 0.37372 0.494975
1118 1 0.473391 0.372052 0.497339
1064 1 0.0942801 0.402423 0.499632
1133 1 0.120111 0.398943 0.499519
1138 1 0.132418 0.396513 0.499948
1140 1 0.14574 0.406015 0.499486
1074 1 0.159374 0.40481 0.499807
1004 1 0.158304 0.392323 0.499986
1082 1 0.185515 0.398667 0.499921
1162 1 0.234683 0.390254 0.499552
1014 1 0.222494 0.392911 0.499548
1081 1 0.224688 0.405681 0.499407
1088 1 0.249135 0.400789 0.498793
1307 1 0.272935 0.395202 0.499545
1237 1 0.260898 0.395579 0.498928
1168 1 0.278395 0.404641 0.498116
1235 1 0.290628 0.403792 0.498525
1311 1 0.287621 0.392106 0.498511
1240 1 0.300706 0.401199 0.495265
1239 1 0.298584 0.388951 0.496447
1238 1 0.314162 0.397741 0.496007
1134 1 0.122886 0.411023 0.499598
1209 1 0.124845 0.424519 0.499782
1211 1 0.134623 0.409389 0.499338
1141 1 0.163101 0.41558 0.498549
1146 1 0.149778 0.4197 0.49978
1148 1 0.175243 0.413074 0.499946
1084 1 0.200243 0.409415 0.499619
1145 1 0.188103 0.412647 0.499729
1226 1 0.202983 0.422223 0.499739
1153 1 0.191849 0.424445 0.499049
1228 1 0.214045 0.419415 0.499686
1373 1 0.254533 0.425526 0.49835
1236 1 0.270387 0.418884 0.498351
1459 1 0.287914 0.417689 0.497337
1246 1 0.304304 0.411831 0.496473
1205 1 0.100307 0.427899 0.499951
1279 1 0.102655 0.44169 0.499992
1277 1 0.11398 0.425933 0.49862
1282 1 0.115271 0.440453 0.499619
1210 1 0.140584 0.435172 0.499884
1213 1 0.164521 0.428607 0.498325
1214 1 0.155186 0.444231 0.498992
1147 1 0.180043 0.439296 0.498116
1149 1 0.177736 0.426322 0.498979
1215 1 0.168369 0.441993 0.4975
1155 1 0.192527 0.437885 0.498268
1227 1 0.20448 0.434914 0.498922
1223 1 0.219175 0.444174 0.497546
1297 1 0.215834 0.432607 0.499546
1230 1 0.229802 0.430176 0.498429
1232 1 0.231399 0.441283 0.498059
1305 1 0.253651 0.43694 0.498319
1299 1 0.241586 0.427282 0.499981
1302 1 0.242019 0.440394 0.498786
1379 1 0.268427 0.44431 0.496834
1309 1 0.266168 0.432542 0.496894
1463 1 0.291803 0.434694 0.494682
1312 1 0.280518 0.440425 0.4953
1308 1 0.28032 0.428007 0.495479
1281 1 0.130794 0.450856 0.499089
1142 1 0.142806 0.447603 0.499289
1286 1 0.146329 0.458948 0.49948
1288 1 0.157959 0.457601 0.49857
1154 1 0.182144 0.452921 0.496533
1151 1 0.16931 0.454203 0.497099
1225 1 0.195271 0.449681 0.497346
1152 1 0.198249 0.462833 0.498556
1295 1 0.221996 0.457418 0.497169
1220 1 0.208584 0.447962 0.496558
1224 1 0.210137 0.461297 0.498037
1301 1 0.231967 0.455254 0.498186
1304 1 0.244855 0.453759 0.49761
1303 1 0.259244 0.450088 0.497713
1381 1 0.272964 0.455508 0.496608
1314 1 0.262647 0.461314 0.49656
1306 1 0.28582 0.452036 0.494998
1280 1 0.108065 0.4669 0.499686
1350 1 0.1092 0.480692 0.49854
1351 1 0.120341 0.477811 0.497997
1355 1 0.119175 0.465323 0.498852
1358 1 0.146177 0.473236 0.498909
1357 1 0.134307 0.476015 0.499159
1285 1 0.131335 0.463076 0.498799
1216 1 0.159475 0.470402 0.497499
1150 1 0.174347 0.4812 0.49756
1219 1 0.185014 0.465364 0.498436
1221 1 0.173436 0.467835 0.497914
1289 1 0.198342 0.473972 0.498543
1217 1 0.186604 0.477924 0.498329
1292 1 0.211201 0.471789 0.49783
1367 1 0.22713 0.481281 0.496456
1298 1 0.239293 0.479548 0.49635
1371 1 0.235948 0.466755 0.496171
1300 1 0.224476 0.469607 0.496769
1376 1 0.252094 0.475939 0.496773
1451 1 0.249323 0.463633 0.496739
1382 1 0.265822 0.472512 0.497934
1460 1 0.278152 0.467408 0.496541
1338 1 0.0342117 0.48169 0.499626
1407 1 0.0245734 0.498147 0.498877
1405 1 0.0200897 0.486474 0.498485
1346 1 0.0863678 0.498183 0.499123
1348 1 0.0977971 0.482828 0.499577
1349 1 0.100289 0.497171 0.499621
1415 1 0.113441 0.492631 0.499646
1284 1 0.125821 0.489536 0.498346
1353 1 0.137143 0.487808 0.499119
1354 1 0.150044 0.497578 0.499706
1356 1 0.149465 0.485137 0.498678
1287 1 0.162582 0.481668 0.499529
1360 1 0.177061 0.493441 0.497575
1365 1 0.203477 0.486201 0.497453
1222 1 0.190223 0.490217 0.497508
1293 1 0.215751 0.498755 0.498529
1296 1 0.214714 0.486106 0.49861
1294 1 0.226986 0.493324 0.499452
1377 1 0.254161 0.487461 0.498632
1378 1 0.242612 0.492266 0.497298
1523 1 0.266193 0.485192 0.497861
1375 1 0.269686 0.497432 0.499367
1455 1 0.282333 0.495276 0.497864
1310 1 0.279661 0.48159 0.498127
1527 1 0.293983 0.493241 0.498888
3 1 0.00365213 0.0131297 0.500158
2749 1 0.107511 0.0123637 0.501576
2540 1 0.122105 0.00988681 0.501563
2683 1 0.1329 0.0080358 0.501133
2754 1 0.14754 0.0161222 0.501852
2755 1 0.158608 0.0163507 0.501187
2758 1 0.172581 0.0145846 0.500855
35 1 0.183533 0.0103144 0.500083
2684 1 0.17 0.00190065 0.500859
2622 1 0.195459 0.00520863 0.500831
2762 1 0.19899 0.0179392 0.501431
2766 1 0.21139 0.0169376 0.500841
2694 1 0.209964 0.00368084 0.501852
2768 1 0.221849 0.00123481 0.501884
37 1 0.224308 0.0129139 0.500961
39 1 0.236447 0.0117493 0.501019
40 1 0.247958 0.00823698 0.501473
2777 1 0.274014 0.00422058 0.502123
2706 1 0.262285 0.00666842 0.501451
2710 1 0.277096 0.0157087 0.503718
47 1 0.285288 0.00208257 0.503643
117 1 0.288653 0.0145182 0.501948
2708 1 0.300262 0.0107115 0.501991
49 1 0.313754 0.00774947 0.500819
43 1 0.32611 0.00809143 0.502924
51 1 0.342918 0.0164477 0.50287
55 1 0.337783 0.00390095 0.50285
52 1 0.354995 0.0142037 0.502861
53 1 0.352479 0.00225099 0.503401
54 1 0.367708 0.0129396 0.50177
56 1 0.379156 0.00834129 0.502015
59 1 0.391529 0.00728674 0.501739
128 1 0.395128 0.017681 0.501806
206 1 0.406252 0.0164804 0.501241
143 1 0.000492588 0.023755 0.501583
2750 1 0.110098 0.0251902 0.5011
2751 1 0.122747 0.0329292 0.502586
2753 1 0.122805 0.0213906 0.50215
2747 1 0.135939 0.0200629 0.5029
88 1 0.138939 0.0320834 0.504295
2760 1 0.161327 0.0289224 0.50198
2680 1 0.150387 0.0282113 0.503823
95 1 0.175011 0.0262744 0.501984
33 1 0.200856 0.0331076 0.501991
2686 1 0.186901 0.0216409 0.501255
30 1 0.189388 0.0347041 0.500593
2764 1 0.212455 0.0294155 0.501339
36 1 0.225562 0.0257661 0.500328
38 1 0.238599 0.024622 0.500907
110 1 0.250221 0.0216536 0.501478
181 1 0.253491 0.0339859 0.501468
41 1 0.26358 0.0195474 0.501597
42 1 0.267761 0.0312552 0.502315
115 1 0.281188 0.0287274 0.501753
48 1 0.29314 0.0276413 0.500749
119 1 0.304748 0.0223273 0.500727
118 1 0.309544 0.0352838 0.501052
2780 1 0.318472 0.0214819 0.501076
2779 1 0.32995 0.0186421 0.502232
123 1 0.332813 0.0303132 0.501448
50 1 0.320548 0.0324668 0.501418
125 1 0.344783 0.0280836 0.500584
126 1 0.358632 0.0262136 0.50185
58 1 0.370432 0.0245065 0.502207
130 1 0.382491 0.0223189 0.501231
199 1 0.372119 0.0363624 0.50008
132 1 0.398379 0.0298592 0.500396
272 1 0.411408 0.0272201 0.500796
75 1 0.031724 0.0545838 0.50005
147 1 0.048578 0.0480631 0.500175
152 1 0.0737204 0.0470133 0.500012
18 1 0.102351 0.0513925 0.500662
12 1 0.110688 0.0372492 0.50134
161 1 0.111968 0.0488521 0.501615
2742 1 0.125213 0.0483457 0.503994
2752 1 0.138846 0.0435594 0.50454
2759 1 0.162774 0.0405933 0.501338
2756 1 0.150772 0.0430673 0.502055
27 1 0.166029 0.0539444 0.50082
101 1 0.180648 0.051783 0.500962
25 1 0.174361 0.0405038 0.501732
100 1 0.190811 0.0477042 0.50197
104 1 0.204477 0.0445408 0.502299
34 1 0.218176 0.04155 0.503276
173 1 0.23338 0.0525536 0.501984
109 1 0.229345 0.0402603 0.500836
174 1 0.240333 0.0378004 0.502335
107 1 0.246647 0.0492511 0.502921
182 1 0.25744 0.0460638 0.501604
111 1 0.269655 0.0438968 0.50194
116 1 0.29548 0.0388565 0.500789
113 1 0.282921 0.0421134 0.501244
114 1 0.286597 0.0534257 0.501315
187 1 0.298279 0.0515732 0.500695
120 1 0.30939 0.0478334 0.500897
121 1 0.322382 0.0451407 0.501038
124 1 0.346538 0.040891 0.500158
122 1 0.334439 0.0419438 0.501024
197 1 0.359163 0.0388783 0.500812
3005 1 0.00410126 0.0670049 0.501148
225 1 0.0423602 0.0636131 0.501966
148 1 0.0559163 0.0734444 0.502005
287 1 0.0686158 0.0617768 0.500457
83 1 0.0677505 0.0715852 0.500824
150 1 0.0806179 0.0703651 0.500127
15 1 0.0793436 0.0585007 0.500294
157 1 0.104859 0.0617559 0.501514
20 1 0.0989933 0.0715812 0.501904
158 1 0.116449 0.0636463 0.502707
92 1 0.127134 0.0581044 0.502926
21 1 0.141314 0.0577768 0.502351
24 1 0.133953 0.0678791 0.502168
2682 1 0.145896 0.0707222 0.502348
22 1 0.152101 0.0566663 0.501326
94 1 0.157269 0.0676681 0.500911
29 1 0.169395 0.0646449 0.500843
98 1 0.195289 0.0591897 0.50066
28 1 0.196741 0.0733392 0.500151
245 1 0.220563 0.0557544 0.500689
242 1 0.210258 0.0707358 0.501033
105 1 0.208013 0.0576918 0.501024
106 1 0.223013 0.0687125 0.501626
175 1 0.235139 0.0654242 0.500966
108 1 0.248867 0.0617808 0.501408
112 1 0.273064 0.0569333 0.501335
184 1 0.260352 0.0607016 0.501795
171 1 0.263693 0.0732231 0.500984
2938 1 0.00813257 0.0793642 0.501268
73 1 0.019809 0.0811685 0.50036
212 1 0.0316721 0.0783124 0.500877
297 1 0.0455244 0.089199 0.502678
153 1 0.0437125 0.075941 0.501696
89 1 0.0697567 0.0825282 0.50147
293 1 0.0578663 0.0865081 0.50102
16 1 0.0826066 0.0837348 0.500186
155 1 0.0939305 0.0806438 0.500433
301 1 0.09661 0.0915172 0.501469
87 1 0.110644 0.091318 0.502483
85 1 0.108192 0.0778154 0.502107
163 1 0.119282 0.0748017 0.502562
235 1 0.122123 0.0895665 0.502716
231 1 0.136815 0.0868797 0.504143
26 1 0.147233 0.0813658 0.502085
160 1 0.130284 0.0784651 0.504023
165 1 0.158876 0.0807304 0.500884
93 1 0.174257 0.0923008 0.50015
96 1 0.186659 0.0874192 0.500195
179 1 0.225828 0.0813549 0.500487
178 1 0.253121 0.0880415 0.500037
180 1 0.24991 0.0759589 0.501699
3220 1 0.00692559 0.0945847 0.502273
355 1 0.00941032 0.107008 0.502148
283 1 0.0342494 0.0926083 0.502066
154 1 0.0203705 0.0935349 0.502354
219 1 0.0361605 0.105548 0.502493
216 1 0.0203215 0.106349 0.500714
295 1 0.0499003 0.101322 0.501819
228 1 0.0726001 0.098214 0.501398
223 1 0.0616565 0.100149 0.501799
221 1 0.0844269 0.0955966 0.501366
224 1 0.0882794 0.108595 0.501348
365 1 0.100432 0.104667 0.502144
227 1 0.112514 0.101486 0.501487
305 1 0.126041 0.100891 0.503276
166 1 0.140715 0.110137 0.503456
164 1 0.137403 0.0994921 0.502851
102 1 0.162217 0.0932162 0.501819
91 1 0.150618 0.0940933 0.502565
311 1 0.164345 0.104439 0.502122
167 1 0.152233 0.106879 0.503381
97 1 0.177517 0.10273 0.501287
359 1 0.010983 0.11993 0.501009
284 1 0.0239671 0.121244 0.500202
220 1 0.0367582 0.116354 0.500438
360 1 0.0521136 0.126831 0.501447
369 1 0.0507267 0.114585 0.501025
298 1 0.0632777 0.112192 0.501702
294 1 0.0657051 0.126971 0.50113
363 1 0.0755244 0.111333 0.501445
299 1 0.091387 0.120755 0.50266
292 1 0.0785831 0.122222 0.502055
156 1 0.102935 0.116944 0.503305
162 1 0.128433 0.112876 0.502647
86 1 0.115882 0.116047 0.501552
296 1 0.118377 0.127959 0.502715
232 1 0.13225 0.125853 0.503414
237 1 0.1435 0.122167 0.502438
376 1 0.155012 0.119952 0.5031
313 1 0.167249 0.117807 0.501652
306 1 0.182352 0.12851 0.502557
168 1 0.179876 0.115195 0.502375
241 1 0.19482 0.124544 0.500275
484 1 0.476658 0.117645 0.500598
486 1 0.488347 0.112398 0.501145
3365 1 0.49155 0.125379 0.501337
353 1 0.0140247 0.133576 0.500714
3150 1 0.00289748 0.136524 0.500998
222 1 0.0386071 0.129839 0.500956
501 1 0.0668918 0.138016 0.501736
375 1 0.0905588 0.13251 0.502282
361 1 0.0786368 0.134001 0.502202
368 1 0.079489 0.147721 0.502996
226 1 0.106716 0.129862 0.502474
230 1 0.0944414 0.143645 0.502175
229 1 0.108098 0.142628 0.504114
364 1 0.120855 0.14103 0.504602
302 1 0.14686 0.134578 0.504623
234 1 0.132487 0.136967 0.5051
233 1 0.14666 0.147607 0.504012
307 1 0.157861 0.132976 0.502645
511 1 0.158305 0.146056 0.50304
372 1 0.169348 0.130487 0.502277
443 1 0.172064 0.142833 0.503105
310 1 0.184778 0.140072 0.50089
449 1 0.196749 0.137114 0.50046
559 1 0.480768 0.12985 0.501734
556 1 0.473628 0.145503 0.50057
555 1 0.467919 0.134718 0.501829
627 1 0.483722 0.141424 0.502279
354 1 0.0432209 0.157811 0.500012
433 1 0.0689194 0.149918 0.502535
428 1 0.0566967 0.153502 0.501465
425 1 0.0582994 0.165162 0.501673
432 1 0.072804 0.16247 0.501549
434 1 0.0841591 0.15903 0.502674
371 1 0.108598 0.154141 0.504538
505 1 0.0958549 0.155954 0.503693
436 1 0.11091 0.165309 0.504309
300 1 0.122211 0.152206 0.504741
431 1 0.123099 0.164953 0.505168
366 1 0.135941 0.162589 0.503638
435 1 0.134211 0.148403 0.504747
373 1 0.149198 0.158563 0.502883
444 1 0.161446 0.156711 0.503071
370 1 0.174786 0.154041 0.502239
374 1 0.176702 0.165685 0.501703
309 1 0.187641 0.151887 0.501203
447 1 0.190575 0.163813 0.501494
547 1 0.458437 0.149841 0.50003
3361 1 0.474364 0.157742 0.501212
624 1 0.49201 0.165023 0.501767
560 1 0.486528 0.154562 0.501585
769 1 0.499873 0.150623 0.501611
427 1 0.0473424 0.168953 0.500164
499 1 0.0481184 0.181499 0.500092
498 1 0.0613503 0.177528 0.500787
500 1 0.075553 0.173707 0.500862
503 1 0.088662 0.171269 0.502106
573 1 0.102288 0.181763 0.503541
429 1 0.0994172 0.167978 0.502692
507 1 0.113079 0.180186 0.502772
437 1 0.126846 0.177154 0.503116
439 1 0.139863 0.175056 0.502488
303 1 0.151654 0.171195 0.502439
446 1 0.165102 0.168639 0.501976
442 1 0.157106 0.184504 0.501154
515 1 0.168649 0.17911 0.503584
585 1 0.179588 0.17847 0.501428
448 1 0.192548 0.17715 0.501198
445 1 0.205208 0.172875 0.5003
699 1 0.477964 0.169886 0.500315
3362 1 0.495504 0.179196 0.502751
700 1 0.481491 0.181376 0.501118
569 1 0.0635895 0.189827 0.500968
367 1 0.0888986 0.185326 0.503765
571 1 0.0772772 0.18735 0.500889
575 1 0.0913018 0.197459 0.501288
504 1 0.0789982 0.199213 0.500055
576 1 0.104324 0.194245 0.502519
441 1 0.116647 0.191552 0.501462
506 1 0.129732 0.188794 0.501945
509 1 0.133462 0.200094 0.500532
440 1 0.14246 0.185967 0.501525
508 1 0.145493 0.198904 0.500811
513 1 0.15635 0.196074 0.501016
584 1 0.181822 0.189877 0.501373
517 1 0.16931 0.191833 0.502345
514 1 0.184497 0.202648 0.501081
770 1 0.498843 0.189763 0.5036
3503 1 0.489338 0.196467 0.500113
566 1 0.043927 0.219805 0.500198
574 1 0.0949531 0.208737 0.500146
438 1 0.107461 0.205287 0.500391
512 1 0.147708 0.212978 0.501121
577 1 0.135433 0.213573 0.500349
583 1 0.158501 0.208109 0.501736
582 1 0.163772 0.218728 0.500998
656 1 0.175637 0.217967 0.502121
653 1 0.172782 0.203918 0.502554
655 1 0.187338 0.215903 0.501794
672 1 0.307127 0.221658 0.501385
676 1 0.319775 0.218246 0.500264
3501 1 0.494748 0.205263 0.50092
839 1 0.499416 0.216659 0.501127
647 1 0.125634 0.228234 0.500114
579 1 0.137681 0.225907 0.500827
717 1 0.130472 0.24035 0.500495
581 1 0.151148 0.225931 0.501379
651 1 0.165195 0.234942 0.500845
650 1 0.153286 0.238114 0.501103
721 1 0.177361 0.231109 0.500844
726 1 0.203001 0.237028 0.500041
731 1 0.189051 0.228387 0.500811
670 1 0.308488 0.233127 0.501326
673 1 0.32199 0.23249 0.500556
716 1 0.118018 0.25708 0.500317
719 1 0.131279 0.252523 0.501022
722 1 0.167224 0.246658 0.500328
724 1 0.181265 0.243629 0.500054
729 1 0.194258 0.252997 0.50046
732 1 0.205494 0.249753 0.50125
733 1 0.217777 0.24766 0.50123
664 1 0.229462 0.24743 0.501781
738 1 0.247564 0.25728 0.500931
735 1 0.259618 0.254492 0.501152
740 1 0.272019 0.25349 0.500601
668 1 0.284349 0.25085 0.50096
743 1 0.309557 0.245363 0.500867
741 1 0.297637 0.246494 0.501395
742 1 0.313211 0.258386 0.501071
674 1 0.322237 0.244002 0.500825
818 1 0.325427 0.256535 0.500308
745 1 0.336231 0.240935 0.50018
817 1 0.337859 0.254017 0.500401
793 1 0.130355 0.267075 0.500083
792 1 0.156123 0.25966 0.50007
728 1 0.197695 0.266883 0.500792
801 1 0.210141 0.26493 0.500932
802 1 0.212149 0.277081 0.500798
803 1 0.221861 0.261739 0.501099
734 1 0.232784 0.26085 0.501731
805 1 0.22426 0.273329 0.501699
736 1 0.237782 0.27183 0.501491
807 1 0.25176 0.268735 0.502204
809 1 0.275382 0.265728 0.501304
808 1 0.263843 0.266699 0.500444
813 1 0.291115 0.273752 0.501267
811 1 0.286204 0.262805 0.501517
814 1 0.302951 0.274528 0.502261
815 1 0.299999 0.260873 0.501565
816 1 0.314594 0.27069 0.500304
823 1 0.329152 0.26849 0.500088
889 1 0.340907 0.26698 0.50004
730 1 0.199126 0.28024 0.500859
875 1 0.214452 0.289517 0.500181
804 1 0.227642 0.286482 0.500493
806 1 0.24035 0.283105 0.500868
879 1 0.252959 0.281738 0.502165
877 1 0.25432 0.295713 0.501867
947 1 0.242312 0.295831 0.501138
812 1 0.277719 0.278535 0.503607
883 1 0.26574 0.279659 0.503314
810 1 0.266201 0.292978 0.502634
881 1 0.277505 0.289978 0.503868
885 1 0.29178 0.286629 0.50287
890 1 0.304541 0.286157 0.501566
959 1 0.318609 0.283736 0.50202
892 1 0.330476 0.281302 0.500145
1033 1 0.331297 0.292817 0.500222
825 1 0.344257 0.278844 0.500161
922 1 0.0876656 0.313786 0.500395
925 1 0.116052 0.308914 0.50053
876 1 0.22802 0.297748 0.500172
951 1 0.242974 0.308812 0.500707
949 1 0.255193 0.30825 0.502287
880 1 0.267211 0.305723 0.502948
882 1 0.279285 0.301847 0.502491
952 1 0.291357 0.299435 0.501108
1021 1 0.282901 0.313039 0.501396
886 1 0.294868 0.311229 0.500059
953 1 0.307958 0.312176 0.50017
955 1 0.316621 0.298176 0.500478
926 1 0.0913494 0.325618 0.501809
928 1 0.104754 0.322686 0.501779
946 1 0.232925 0.32395 0.500767
948 1 0.258919 0.320619 0.501958
878 1 0.246339 0.321945 0.500762
1020 1 0.273344 0.32968 0.502211
950 1 0.26959 0.317886 0.503633
1019 1 0.259853 0.332342 0.50044
884 1 0.28264 0.324149 0.500612
954 1 0.296404 0.324443 0.500214
998 1 0.106344 0.336703 0.501537
1067 1 0.108053 0.349787 0.5021
995 1 0.0931417 0.33937 0.500623
1070 1 0.121061 0.34745 0.50159
997 1 0.118465 0.334383 0.501344
999 1 0.13356 0.343366 0.500224
1087 1 0.238979 0.349521 0.500939
1016 1 0.23683 0.335143 0.500876
1018 1 0.250881 0.347393 0.501465
1017 1 0.247843 0.334049 0.50074
1089 1 0.263159 0.344687 0.500648
1022 1 0.275554 0.341647 0.500639
1023 1 0.287468 0.337278 0.50147
956 1 0.299819 0.338075 0.500639
1025 1 0.311542 0.336411 0.500296
1035 1 0.315851 0.347141 0.500564
1061 1 0.0730213 0.354824 0.500595
1059 1 0.0732342 0.368794 0.500227
994 1 0.0870428 0.367224 0.500886
1062 1 0.097914 0.363736 0.501369
996 1 0.0957995 0.352259 0.501584
1065 1 0.11228 0.361392 0.502761
1001 1 0.123396 0.358972 0.50002
1139 1 0.135587 0.355308 0.500494
1161 1 0.239675 0.362447 0.500998
1091 1 0.253909 0.360101 0.501637
1029 1 0.291114 0.352188 0.500871
4054 1 0.0143589 0.381592 0.500627
3848 1 0.000148433 0.385483 0.500273
1125 1 0.0248317 0.379325 0.500115
1056 1 0.053221 0.388026 0.500681
1127 1 0.0378069 0.3762 0.500982
1129 1 0.0644172 0.383271 0.501187
1131 1 0.0773953 0.381074 0.50028
1066 1 0.0902006 0.37779 0.500319
1069 1 0.103849 0.374477 0.500818
1137 1 0.127844 0.372296 0.500717
1135 1 0.115058 0.374119 0.50112
1207 1 0.117275 0.388044 0.500602
1008 1 0.168734 0.376258 0.500095
1073 1 0.170698 0.387884 0.500712
1160 1 0.242568 0.374504 0.500113
1328 1 0.489546 0.379286 0.500503
4059 1 0.0159718 0.395738 0.501091
4053 1 0.00397435 0.396129 0.500849
3982 1 0.0174337 0.406944 0.50238
3986 1 0.0293772 0.392335 0.500948
4126 1 0.0301113 0.406311 0.501594
1124 1 0.0415563 0.392692 0.501174
1197 1 0.0422157 0.404079 0.501455
1126 1 0.0566979 0.400269 0.501383
1128 1 0.0691035 0.396011 0.501058
1204 1 0.0821615 0.407093 0.501219
1195 1 0.0812343 0.39457 0.500644
1202 1 0.0923879 0.389637 0.50076
1132 1 0.107066 0.401437 0.500426
1072 1 0.146682 0.394961 0.500123
1078 1 0.173647 0.400713 0.50013
1010 1 0.196549 0.39478 0.500941
1156 1 0.213631 0.406033 0.500867
1229 1 0.209921 0.395103 0.500937
1231 1 0.237449 0.40268 0.500046
1191 1 0.0108363 0.424231 0.502408
1261 1 0.00766611 0.411121 0.502552
3988 1 0.0218628 0.419305 0.503685
1122 1 0.0351052 0.416616 0.502486
1123 1 0.0471169 0.415307 0.503332
1130 1 0.0578521 0.411642 0.502648
1200 1 0.0715026 0.410651 0.5025
1201 1 0.0854333 0.419362 0.500819
1199 1 0.0749023 0.424363 0.500427
1206 1 0.109349 0.413582 0.500549
1203 1 0.0979148 0.415853 0.500441
1144 1 0.138158 0.42219 0.500348
1159 1 0.227262 0.417563 0.500331
1234 1 0.240153 0.41427 0.500179
1233 1 0.253529 0.411709 0.500906
1313 1 0.264208 0.409046 0.500149
4060 1 0.0125463 0.434846 0.503018
1336 1 0.0257711 0.444348 0.503523
1262 1 0.0242665 0.430333 0.502065
1192 1 0.0356572 0.427877 0.504622
1269 1 0.0517288 0.441349 0.505261
1265 1 0.0379028 0.442169 0.504186
1196 1 0.0488542 0.427354 0.50525
1271 1 0.0735411 0.435308 0.502049
1273 1 0.0620756 0.438019 0.503354
1198 1 0.0626758 0.426173 0.502724
1275 1 0.0861807 0.433599 0.501894
1208 1 0.127132 0.437833 0.500574
1212 1 0.152746 0.431661 0.500348
1331 1 0.016466 0.460039 0.501647
4192 1 0.0130259 0.445543 0.503087
1194 1 0.00533135 0.46269 0.502642
4197 1 0.00135682 0.449056 0.503018
1333 1 0.0286589 0.457725 0.5024
1267 1 0.0521016 0.454323 0.504034
1264 1 0.0399667 0.455572 0.503925
1268 1 0.0663547 0.450622 0.502379
1270 1 0.0803309 0.461084 0.501786
1272 1 0.077682 0.449488 0.502068
1343 1 0.0906362 0.445101 0.500357
1274 1 0.0927235 0.458601 0.500025
1276 1 0.10432 0.455199 0.500336
1283 1 0.117743 0.452486 0.500245
1332 1 0.00663131 0.47489 0.5011
4200 1 0.0181059 0.472471 0.500127
1409 1 0.0307313 0.47131 0.500513
1342 1 0.047152 0.48122 0.502942
1266 1 0.0448497 0.467451 0.502921
1337 1 0.0707821 0.476371 0.501859
1335 1 0.0558204 0.46628 0.502408
1411 1 0.0576685 0.477493 0.503726
1339 1 0.0686648 0.46349 0.503032
1341 1 0.0834303 0.473286 0.503879
1278 1 0.0955626 0.469496 0.500898
4130 1 0.00708881 0.487578 0.501114
1408 1 0.0360598 0.494093 0.500042
1412 1 0.0472867 0.492167 0.500488
1345 1 0.0606692 0.490078 0.503198
1340 1 0.0733763 0.488692 0.502483
1421 1 0.0861029 0.48639 0.500541
1290 1 0.163509 0.494868 0.500206
1481 1 0.0350931 0.506806 0.499964
1410 1 0.0499491 0.516173 0.499967
1414 1 0.0912332 0.509711 0.499891
1485 1 0.0797882 0.513937 0.49923
1418 1 0.116234 0.504674 0.499266
1417 1 0.127083 0.502405 0.49994
1352 1 0.139417 0.501794 0.499022
1359 1 0.166457 0.50828 0.499714
1361 1 0.17948 0.51603 0.498211
1218 1 0.180327 0.504833 0.498482
1364 1 0.19183 0.515466 0.499199
1363 1 0.192711 0.502485 0.497057
1291 1 0.20455 0.500347 0.498711
1366 1 0.205078 0.514668 0.498913
1370 1 0.21951 0.511403 0.499948
1449 1 0.230333 0.506222 0.498866
1372 1 0.243125 0.503213 0.499081
1458 1 0.256759 0.500971 0.49833
1374 1 0.247196 0.514672 0.499012
1454 1 0.259893 0.512137 0.499738
1519 1 0.272846 0.509946 0.498927
1531 1 0.284691 0.507947 0.498787
1482 1 0.0367167 0.519981 0.499962
1487 1 0.079173 0.525201 0.499127
1486 1 0.0821546 0.535879 0.49899
1419 1 0.10451 0.521234 0.499763
1488 1 0.093712 0.534036 0.499796
1430 1 0.159541 0.535633 0.499622
1429 1 0.168472 0.521074 0.499886
1362 1 0.183561 0.531146 0.499594
1431 1 0.170481 0.531071 0.497596
1437 1 0.194637 0.528694 0.499908
1368 1 0.20664 0.525242 0.499897
1441 1 0.209557 0.53695 0.499972
1445 1 0.224827 0.533876 0.499573
1447 1 0.237307 0.530893 0.499065
1452 1 0.233891 0.519871 0.499987
1380 1 0.24927 0.526931 0.499306
1457 1 0.274569 0.522513 0.499728
1448 1 0.273379 0.536767 0.498929
1591 1 0.263203 0.536684 0.49757
1456 1 0.26232 0.524363 0.498852
1450 1 0.285273 0.520477 0.499487
1553 1 0.0674967 0.538826 0.499685
1557 1 0.0702822 0.551213 0.498081
1490 1 0.056693 0.54167 0.499782
1556 1 0.059205 0.554451 0.499711
1559 1 0.0842008 0.549314 0.498765
1561 1 0.0981338 0.546468 0.499663
1497 1 0.162557 0.547393 0.499179
1433 1 0.174585 0.542764 0.498271
1440 1 0.198001 0.539899 0.499699
1439 1 0.201688 0.551753 0.499846
1438 1 0.18969 0.555158 0.49977
1435 1 0.185834 0.542171 0.498912
1509 1 0.21442 0.5498 0.49997
1443 1 0.225466 0.545273 0.498127
1533 1 0.238373 0.542684 0.498647
1461 1 0.249558 0.539957 0.49935
1446 1 0.252861 0.551517 0.497386
1442 1 0.242226 0.554924 0.498107
1532 1 0.264014 0.550385 0.496976
1444 1 0.276562 0.548328 0.496573
1621 1 0.0465994 0.556465 0.49989
1625 1 0.0740074 0.563319 0.499481
1558 1 0.0608631 0.566442 0.499497
1434 1 0.164572 0.558347 0.49972
1513 1 0.216528 0.561045 0.498471
1515 1 0.230189 0.559565 0.498361
1597 1 0.233065 0.571672 0.498012
1517 1 0.246402 0.569675 0.496193
1453 1 0.259072 0.564442 0.496007
1521 1 0.273613 0.563827 0.494573
1688 1 0.0102743 0.575815 0.499893
1685 1 0.000970742 0.591779 0.497256
1686 1 0.0125803 0.58957 0.497908
1618 1 0.025296 0.587522 0.499605
1691 1 0.0384306 0.584975 0.49973
1510 1 0.193376 0.580379 0.499885
1581 1 0.206521 0.576839 0.499355
1585 1 0.234306 0.58323 0.499247
1516 1 0.248991 0.581247 0.496542
1526 1 0.260139 0.581558 0.495424
1524 1 0.270778 0.579037 0.493578
1690 1 0.00440999 0.604232 0.499056
1759 1 0.0161985 0.601243 0.499557
1684 1 0.0274403 0.599654 0.49896
1514 1 0.235657 0.597753 0.497494
1587 1 0.237587 0.610123 0.497356
1528 1 0.247745 0.605477 0.497022
1520 1 0.247451 0.593975 0.496197
1534 1 0.262495 0.593742 0.496042
1525 1 0.275485 0.592869 0.494946
1599 1 0.262182 0.605401 0.497223
1733 1 0.27393 0.609554 0.497199
1763 1 0.00542791 0.617106 0.498907
1754 1 0.00815267 0.628616 0.499999
1518 1 0.224868 0.611757 0.49933
1660 1 0.238936 0.624304 0.497004
1655 1 0.227699 0.624464 0.498709
1661 1 0.254329 0.617963 0.496837
1663 1 0.269529 0.624096 0.496353
1731 1 0.284047 0.624692 0.49805
1751 1 0.0112222 0.642885 0.499832
1703 1 0.0742707 0.643112 0.499004
1706 1 0.0988229 0.639357 0.499913
1727 1 0.220083 0.63905 0.499848
1657 1 0.232008 0.636844 0.499039
1797 1 0.258409 0.631644 0.497399
1589 1 0.247772 0.635297 0.498952
1593 1 0.2589 0.647024 0.498577
1594 1 0.27009 0.641262 0.499215
1592 1 0.276639 0.633685 0.496385
1871 1 0.286241 0.642067 0.498468
1891 1 0.000724049 0.658394 0.497424
1821 1 0.0125053 0.655771 0.499164
1840 1 0.0904847 0.654563 0.49915
1767 1 0.0777223 0.656615 0.499164
1863 1 0.232529 0.661436 0.499355
1664 1 0.234186 0.649282 0.499839
1659 1 0.245417 0.649298 0.499981
1865 1 0.277419 0.651765 0.498944
1595 1 0.266326 0.656286 0.49907
1665 1 0.294733 0.65886 0.499141
1827 1 0.00258436 0.672458 0.498872
1829 1 0.000968252 0.682858 0.497535
1758 1 0.0149827 0.668029 0.498773
1828 1 0.0144164 0.684199 0.498901
1901 1 0.0267473 0.680296 0.499905
1837 1 0.0660349 0.671023 0.499877
1839 1 0.079721 0.669416 0.497829
1764 1 0.09238 0.668158 0.498287
1838 1 0.0822366 0.68166 0.498598
1776 1 0.0949883 0.679916 0.498538
1658 1 0.239346 0.670479 0.499824
1745 1 0.488433 0.68105 0.498708
1963 1 0.00360118 0.69801 0.499648
1774 1 0.0873869 0.692715 0.4999
1855 1 0.179532 0.700591 0.499926
1867 1 0.229572 0.689523 0.499987
1811 1 0.406251 0.70365 0.494505
1607 1 0.476987 0.685962 0.498156
1675 1 0.463909 0.699478 0.496975
1606 1 0.492389 0.691436 0.498889
1743 1 0.48423 0.700456 0.499107
1917 1 0.142173 0.709781 0.499731
1718 1 0.153473 0.709299 0.499025
1921 1 0.1586 0.721816 0.498026
1922 1 0.171048 0.716121 0.498685
1953 1 0.345006 0.721197 0.499227
1881 1 0.364595 0.720691 0.499387
1739 1 0.381958 0.72086 0.499002
1598 1 0.389903 0.711439 0.497742
1601 1 0.400707 0.720306 0.496674
1676 1 0.412979 0.713404 0.494905
1744 1 0.42815 0.708636 0.495941
1674 1 0.443537 0.715839 0.496695
1818 1 0.452053 0.706927 0.497676
1884 1 0.461131 0.718172 0.499161
2026 1 0.46927 0.710179 0.499922
1815 1 0.478805 0.718957 0.499925
1993 1 0.149845 0.734471 0.498709
2063 1 0.162901 0.735573 0.499209
1859 1 0.175187 0.727038 0.499131
1942 1 0.3448 0.7395 0.499405
1810 1 0.36355 0.73708 0.499993
1880 1 0.380991 0.739412 0.499863
2092 1 0.392117 0.728558 0.497577
2019 1 0.398908 0.739922 0.498626
1668 1 0.406427 0.732043 0.495974
2091 1 0.423479 0.73433 0.496326
1885 1 0.41718 0.723597 0.495775
2024 1 0.414102 0.739741 0.497113
1954 1 0.433069 0.72481 0.496186
2023 1 0.441092 0.734575 0.498781
1813 1 0.458069 0.736271 0.499665
1529 1 0.451146 0.72416 0.497769
1886 1 0.467646 0.726797 0.499464
2130 1 0.16831 0.745931 0.499883
1878 1 0.355313 0.746227 0.498971
2013 1 0.38085 0.757127 0.499347
1672 1 0.406715 0.749244 0.499159
1946 1 0.3987 0.758499 0.499408
2021 1 0.389864 0.746895 0.498638
1955 1 0.421492 0.748895 0.498069
1882 1 0.432456 0.742994 0.498466
1956 1 0.447533 0.745159 0.499184
2054 1 0.181952 0.776831 0.499516
2150 1 0.326469 0.774822 0.498985
2080 1 0.318095 0.76546 0.499801
2083 1 0.343408 0.774385 0.498997
2079 1 0.336184 0.764615 0.499483
2082 1 0.356466 0.764862 0.499598
2155 1 0.362112 0.774934 0.498145
2228 1 0.379418 0.774193 0.496695
2085 1 0.373253 0.765716 0.498793
2087 1 0.390307 0.766943 0.499501
2018 1 0.397838 0.776938 0.499549
2190 1 0.163556 0.793963 0.499647
2057 1 0.182013 0.793392 0.498814
2205 1 0.198376 0.791563 0.499894
2067 1 0.23561 0.789742 0.499825
2078 1 0.307689 0.792466 0.499687
2148 1 0.325045 0.79296 0.497904
2152 1 0.34233 0.793168 0.498304
2220 1 0.333889 0.783512 0.498381
2151 1 0.351749 0.782278 0.498686
2153 1 0.360861 0.793932 0.497256
2156 1 0.369479 0.784013 0.497699
2157 1 0.387674 0.785498 0.498816
2227 1 0.378087 0.794871 0.498873
2088 1 0.396959 0.79516 0.498671
2058 1 0.165387 0.812218 0.499318
2207 1 0.18307 0.810789 0.49875
2127 1 0.172074 0.802794 0.498981
2200 1 0.192222 0.802777 0.499285
2206 1 0.20132 0.812008 0.499229
2068 1 0.253072 0.807649 0.49919
2070 1 0.27135 0.809381 0.499407
2213 1 0.307929 0.810414 0.498857
2146 1 0.316279 0.802156 0.498748
2217 1 0.325809 0.809133 0.49834
2219 1 0.334459 0.80146 0.498489
2221 1 0.343552 0.809403 0.49739
2084 1 0.350648 0.800659 0.497115
2154 1 0.359742 0.810736 0.49712
2230 1 0.369296 0.802962 0.497913
2225 1 0.387849 0.803204 0.498163
2294 1 0.380428 0.812163 0.498211
2226 1 0.406166 0.804103 0.499451
2299 1 0.397325 0.812138 0.498688
2231 1 0.424765 0.805411 0.498467
2232 1 0.415415 0.814332 0.497603
2159 1 0.434027 0.813891 0.498891
2161 1 0.432893 0.796685 0.499901
2094 1 0.442143 0.805274 0.499515
2187 1 0.0765868 0.832766 0.499774
2320 1 0.0932231 0.832195 0.499729
2193 1 0.146996 0.829152 0.499724
2196 1 0.165357 0.831544 0.498732
2061 1 0.174499 0.821847 0.498338
2128 1 0.183803 0.830685 0.499327
2198 1 0.192675 0.821606 0.499275
2211 1 0.300874 0.818459 0.499939
2287 1 0.308572 0.82771 0.499228
2215 1 0.317099 0.816412 0.497688
2289 1 0.324535 0.826937 0.496541
2291 1 0.334225 0.817403 0.496749
2224 1 0.343511 0.826026 0.495303
2222 1 0.35151 0.819847 0.496946
2295 1 0.361144 0.827685 0.49667
2223 1 0.36961 0.819148 0.497325
2296 1 0.379263 0.829062 0.49622
2297 1 0.38726 0.820314 0.498107
2298 1 0.405375 0.820151 0.499051
2367 1 0.39733 0.829181 0.497616
2234 1 0.423965 0.822019 0.497906
2303 1 0.413854 0.831702 0.498594
2229 1 0.441944 0.824537 0.499726
2250 1 0.0401563 0.85001 0.498242
2386 1 0.0479083 0.841113 0.499513
2247 1 0.0656829 0.838143 0.499669
2387 1 0.0570737 0.848529 0.499372
2252 1 0.0732084 0.85062 0.499253
2046 1 0.111839 0.848652 0.499821
2260 1 0.130892 0.84749 0.499748
2195 1 0.166868 0.849103 0.498959
2129 1 0.174668 0.840876 0.499526
2126 1 0.185577 0.847352 0.49963
2285 1 0.308076 0.84519 0.499595
2218 1 0.317277 0.837117 0.497472
2359 1 0.324489 0.84569 0.496167
2293 1 0.332741 0.837087 0.494877
2361 1 0.342552 0.848083 0.494315
2292 1 0.351658 0.835319 0.495553
2365 1 0.361019 0.845882 0.494588
2366 1 0.369529 0.837217 0.494947
2300 1 0.38798 0.836302 0.496682
2435 1 0.380049 0.847727 0.494863
2302 1 0.406171 0.841094 0.497685
2439 1 0.39634 0.84785 0.49462
2369 1 0.42287 0.839492 0.496997
2370 1 0.416898 0.850981 0.498218
2304 1 0.439517 0.843221 0.498571
2373 1 0.430643 0.850821 0.49748
2233 1 0.432361 0.833356 0.49838
2377 1 0.449384 0.851523 0.498943
2306 1 0.459555 0.843227 0.499895
2379 1 0.469295 0.851293 0.499267
5320 1 0.0124228 0.861097 0.499737
2315 1 0.0296633 0.859997 0.498085
2317 1 0.0218551 0.85258 0.4994
2391 1 0.0474556 0.858006 0.497205
2319 1 0.0393938 0.868757 0.497041
2454 1 0.0566042 0.868116 0.498175
2394 1 0.0654383 0.859765 0.497804
2323 1 0.074684 0.868268 0.497975
2253 1 0.0843943 0.858614 0.499024
2248 1 0.0931389 0.86724 0.498078
2186 1 0.101835 0.859627 0.498712
2327 1 0.114832 0.865456 0.49716
2191 1 0.121261 0.855697 0.499656
2332 1 0.131331 0.866263 0.498013
2325 1 0.148048 0.865124 0.499025
2197 1 0.177187 0.855974 0.499281
2339 1 0.167794 0.864417 0.498298
2331 1 0.185437 0.864866 0.499496
2269 1 0.194273 0.856289 0.499627
2342 1 0.221979 0.865648 0.499954
2286 1 0.308538 0.86384 0.498364
2357 1 0.316039 0.855146 0.498097
2288 1 0.324974 0.864972 0.495745
2290 1 0.333728 0.855252 0.494532
2362 1 0.343211 0.861048 0.494528
2364 1 0.352449 0.85401 0.494904
2360 1 0.361122 0.865331 0.494644
2434 1 0.370411 0.855927 0.494505
2433 1 0.379329 0.865996 0.496193
2437 1 0.389421 0.858036 0.495254
2436 1 0.395979 0.866662 0.496193
2368 1 0.404254 0.857684 0.49693
2371 1 0.422226 0.863112 0.497726
2440 1 0.411656 0.86949 0.497656
2374 1 0.439323 0.860639 0.49724
2375 1 0.457759 0.860259 0.498011
2445 1 0.446453 0.869604 0.496995
2378 1 0.474529 0.860608 0.498998
2376 1 0.46728 0.870091 0.497438
5319 1 0.0145399 0.88019 0.498666
2453 1 0.0301845 0.879118 0.498261
2455 1 0.0194698 0.871048 0.498546
2388 1 0.0492833 0.876131 0.497611
2384 1 0.0415212 0.886615 0.497888
2390 1 0.0592402 0.887035 0.497506
2322 1 0.0661723 0.87777 0.496986
2399 1 0.0848695 0.876517 0.496719
2395 1 0.0777724 0.886956 0.496073
2400 1 0.0951055 0.884353 0.495582
2324 1 0.103219 0.876908 0.495805
2330 1 0.121396 0.874498 0.496459
2402 1 0.113665 0.885091 0.495695
2263 1 0.140726 0.873935 0.497779
2405 1 0.130307 0.882163 0.496552
2264 1 0.148293 0.883598 0.498335
2265 1 0.157797 0.875638 0.499275
2479 1 0.170456 0.884079 0.497834
2403 1 0.175563 0.87468 0.498699
2266 1 0.185334 0.884008 0.499965
2267 1 0.203071 0.882448 0.49925
2409 1 0.192476 0.8749 0.498795
2412 1 0.221318 0.882524 0.499861
2411 1 0.241328 0.882546 0.499974
2425 1 0.306436 0.880028 0.499206
2424 1 0.31295 0.887666 0.499002
2354 1 0.315556 0.872031 0.49834
2427 1 0.323855 0.881125 0.497878
2363 1 0.334255 0.873273 0.496701
2430 1 0.350442 0.871968 0.494897
2426 1 0.341929 0.880928 0.496898
2500 1 0.369273 0.87485 0.495812
2429 1 0.358164 0.882217 0.495447
2507 1 0.376441 0.885114 0.495737
2505 1 0.386672 0.876989 0.495721
2577 1 0.402407 0.876544 0.498024
2511 1 0.395174 0.885742 0.498067
2441 1 0.420931 0.876723 0.496612
2372 1 0.411414 0.886493 0.498948
2443 1 0.43129 0.870529 0.497618
2444 1 0.439584 0.879578 0.497099
2513 1 0.42892 0.887022 0.496926
2447 1 0.458128 0.880021 0.495176
2446 1 0.447839 0.88837 0.495165
2449 1 0.475166 0.880306 0.496073
5111 1 0.482195 0.871305 0.498434
2450 1 0.492264 0.875963 0.499259
2525 1 0.0224479 0.890175 0.498406
2523 1 0.0227554 0.906236 0.498768
2246 1 0.0323168 0.897432 0.498225
2456 1 0.0412272 0.905286 0.498371
2457 1 0.0504596 0.895181 0.498054
2458 1 0.0594112 0.901875 0.495994
2393 1 0.0682281 0.892726 0.494895
2401 1 0.0775513 0.903102 0.495243
2396 1 0.0874696 0.895461 0.494538
2398 1 0.0956571 0.902101 0.49443
2468 1 0.104877 0.893958 0.493866
2407 1 0.123383 0.893077 0.494067
2603 1 0.111874 0.902787 0.495164
2333 1 0.130537 0.900445 0.496172
2326 1 0.139623 0.891262 0.498147
2545 1 0.148853 0.901338 0.496486
2329 1 0.15816 0.891174 0.496572
2328 1 0.168091 0.901719 0.496574
2337 1 0.17762 0.891852 0.497943
2477 1 0.177797 0.906537 0.49558
2268 1 0.186787 0.901256 0.498237
2194 1 0.194925 0.892969 0.498954
2413 1 0.202139 0.900573 0.49952
2493 1 0.311963 0.906687 0.499658
2356 1 0.319995 0.898326 0.499344
2428 1 0.330864 0.889289 0.49735
2495 1 0.331044 0.905491 0.499037
2431 1 0.349753 0.89137 0.49711
2497 1 0.341378 0.900435 0.497365
2501 1 0.366705 0.893226 0.497447
2502 1 0.357851 0.900418 0.497744
2509 1 0.384728 0.89386 0.497406
2503 1 0.373362 0.90344 0.497443
2581 1 0.402429 0.895469 0.498469
2432 1 0.393596 0.904584 0.497444
2510 1 0.420986 0.896903 0.497885
2578 1 0.409559 0.904253 0.498112
2515 1 0.438281 0.89599 0.495968
2583 1 0.428255 0.905742 0.496816
2514 1 0.453668 0.898254 0.496415
2517 1 0.463657 0.890235 0.495556
2586 1 0.472909 0.896546 0.497026
2655 1 0.464581 0.9074 0.494026
2659 1 0.48143 0.90666 0.495715
2518 1 0.498832 0.904701 0.49888
2519 1 0.482024 0.888912 0.497199
2516 1 0.491025 0.897224 0.497908
5388 1 0.00353108 0.908997 0.499358
5390 1 0.0120422 0.917734 0.499782
2521 1 0.0236424 0.924141 0.498425
2524 1 0.0330758 0.913933 0.497922
2527 1 0.0437807 0.922164 0.497952
2461 1 0.051949 0.911829 0.498192
2463 1 0.0687372 0.909911 0.495414
2392 1 0.0597145 0.92005 0.496874
2464 1 0.0875522 0.910302 0.495153
2459 1 0.0783966 0.919802 0.495737
2533 1 0.0934432 0.919965 0.496378
2469 1 0.102842 0.91338 0.494447
2472 1 0.113903 0.92053 0.495137
2406 1 0.121462 0.911249 0.495357
2404 1 0.138681 0.908722 0.496435
2474 1 0.130242 0.919016 0.496851
2478 1 0.148695 0.918319 0.497712
2334 1 0.158343 0.907922 0.496211
2336 1 0.167853 0.919624 0.496264
2335 1 0.183676 0.919658 0.497604
2484 1 0.193519 0.91066 0.498044
2556 1 0.201774 0.919401 0.499436
2487 1 0.211567 0.909637 0.49866
2481 1 0.230077 0.909259 0.499972
2557 1 0.2575 0.920354 0.499673
2565 1 0.310806 0.925029 0.499967
2566 1 0.320035 0.917002 0.498816
2564 1 0.337983 0.91853 0.499597
2499 1 0.348207 0.909187 0.497375
2498 1 0.354614 0.918511 0.498854
2506 1 0.364313 0.911789 0.496978
2508 1 0.382804 0.912076 0.497413
2504 1 0.371682 0.922019 0.498751
2576 1 0.39225 0.922382 0.498944
2438 1 0.400086 0.915059 0.497857
2442 1 0.419273 0.914329 0.497562
2575 1 0.409215 0.92182 0.498505
2580 1 0.436738 0.915252 0.495698
2790 1 0.426638 0.922815 0.49643
2648 1 0.443711 0.924633 0.495585
2585 1 0.445257 0.907965 0.495537
2584 1 0.452682 0.916143 0.494695
2652 1 0.4609 0.923065 0.493243
2657 1 0.475779 0.920098 0.493462
5391 1 0.491488 0.916087 0.497219
2730 1 0.485601 0.925456 0.49554
5460 1 0.00667914 0.943996 0.498266
2522 1 0.0155791 0.93537 0.497028
5459 1 0.00481287 0.926062 0.497581
2593 1 0.0352028 0.933416 0.49783
2595 1 0.025362 0.942783 0.496853
2460 1 0.053317 0.929557 0.4971
2526 1 0.0423924 0.943939 0.498122
2529 1 0.0534284 0.939947 0.498678
2462 1 0.070431 0.928486 0.497415
2534 1 0.0649546 0.940223 0.49648
2465 1 0.0858524 0.92658 0.497432
2670 1 0.0846251 0.938374 0.496302
2471 1 0.0978513 0.929754 0.49586
2605 1 0.0955547 0.941208 0.496024
2480 1 0.10787 0.9311 0.495421
2539 1 0.124494 0.929873 0.49671
2547 1 0.113982 0.939528 0.496249
2615 1 0.139711 0.926186 0.497041
2473 1 0.130772 0.937498 0.497606
2410 1 0.140451 0.940718 0.498423
2685 1 0.151342 0.937321 0.498208
2619 1 0.15799 0.92598 0.497018
2475 1 0.163326 0.937204 0.497844
2621 1 0.18254 0.938077 0.496821
2476 1 0.173656 0.933216 0.497628
2554 1 0.202194 0.937359 0.49758
2550 1 0.192006 0.929709 0.49728
2625 1 0.218516 0.937082 0.498844
2552 1 0.208784 0.927659 0.498857
2486 1 0.237727 0.939237 0.49967
2418 1 0.228279 0.929104 0.499388
2496 1 0.346616 0.926929 0.499768
2647 1 0.382073 0.931045 0.498909
2512 1 0.400849 0.929926 0.499097
2646 1 0.38971 0.939639 0.49944
2579 1 0.41811 0.930326 0.4982
2788 1 0.408475 0.938514 0.499474
2719 1 0.423766 0.940545 0.497151
2723 1 0.43561 0.933944 0.496077
2793 1 0.44551 0.939123 0.496014
2729 1 0.455119 0.935157 0.49355
2727 1 0.469 0.93245 0.49293
2725 1 0.47693 0.943326 0.494123
5464 1 0.499321 0.930278 0.49757
2654 1 0.485322 0.935619 0.495334
2591 1 0.0175721 0.953472 0.498207
2597 1 0.0340987 0.953669 0.498104
2599 1 0.025737 0.962121 0.498145
2602 1 0.0438577 0.959758 0.498207
2528 1 0.0529242 0.95411 0.497713
2600 1 0.0715713 0.958827 0.49685
2530 1 0.0629198 0.952047 0.496758
2466 1 0.0768599 0.945401 0.49608
2531 1 0.0821562 0.955968 0.496555
2606 1 0.0922736 0.952748 0.496101
2542 1 0.104102 0.947956 0.496282
2543 1 0.0993582 0.962376 0.496446
2679 1 0.111182 0.957293 0.4967
2689 1 0.122291 0.945692 0.497545
2538 1 0.123356 0.95853 0.498343
2687 1 0.135702 0.95314 0.498336
2482 1 0.165278 0.949945 0.498804
2544 1 0.152568 0.953802 0.497371
2623 1 0.177885 0.961384 0.497127
2620 1 0.176741 0.948704 0.497556
2548 1 0.188688 0.957011 0.498757
2551 1 0.193162 0.947374 0.498011
2698 1 0.206146 0.962393 0.497997
2693 1 0.219494 0.962483 0.498256
2627 1 0.217033 0.948381 0.499691
2624 1 0.204981 0.949278 0.498923
2629 1 0.228461 0.94587 0.499253
2563 1 0.262255 0.952461 0.499823
2783 1 0.386815 0.957064 0.499317
2720 1 0.415823 0.947969 0.498969
2644 1 0.409994 0.957411 0.498402
2724 1 0.427843 0.957368 0.496786
2649 1 0.436478 0.947253 0.495016
2792 1 0.439657 0.95877 0.496784
2794 1 0.457284 0.960911 0.493548
2726 1 0.461189 0.945982 0.493891
61 1 0.450583 0.950909 0.495066
2653 1 0.481433 0.95397 0.494615
2795 1 0.470715 0.958391 0.494685
2656 1 0.492652 0.945644 0.496197
2728 1 0.497219 0.961627 0.496918
2661 1 0.0165891 0.970494 0.496151
2592 1 0.0082224 0.963239 0.497221
2663 1 0.00881341 0.980537 0.496731
2594 1 0.025004 0.977115 0.49832
2596 1 0.0344674 0.973484 0.497491
2739 1 0.0449324 0.970468 0.497935
2672 1 0.0594097 0.980667 0.497649
2601 1 0.0569885 0.965107 0.496971
2604 1 0.0710877 0.970654 0.496283
2746 1 0.0817632 0.980397 0.497738
2532 1 0.087099 0.967049 0.495799
2537 1 0.103814 0.976314 0.496953
2674 1 0.0934832 0.978863 0.496698
2609 1 0.112195 0.969937 0.497767
2470 1 0.126233 0.9695 0.498453
2546 1 0.143395 0.978265 0.499634
2611 1 0.139917 0.966995 0.497831
2757 1 0.155378 0.964486 0.498954
2541 1 0.15492 0.977909 0.498853
2617 1 0.180732 0.974177 0.498614
2690 1 0.166684 0.963537 0.497453
2607 1 0.167669 0.976008 0.498669
2618 1 0.191539 0.975428 0.498846
2612 1 0.195662 0.964816 0.49864
2763 1 0.201906 0.980796 0.499841
2761 1 0.209658 0.972364 0.499371
2782 1 0.412636 0.967202 0.498749
65 1 0.422614 0.971364 0.498462
2582 1 0.434182 0.969135 0.496565
63 1 0.451096 0.976807 0.497367
2796 1 0.44604 0.966747 0.495742
2798 1 0.462989 0.974497 0.496146
2801 1 0.473894 0.9698 0.496122
138 1 0.490376 0.97687 0.497454
2797 1 0.486715 0.965542 0.497972
7 1 0.0139728 0.998617 0.498126
11 1 0.0308421 0.995105 0.497716
9 1 0.03439 0.984553 0.497582
2598 1 0.0188325 0.987918 0.49691
2668 1 0.0467716 0.984024 0.497495
2667 1 0.0490493 0.996826 0.498638
2677 1 0.0617443 0.99288 0.498843
2673 1 0.0716359 0.985764 0.497123
2675 1 0.0891743 0.992092 0.497839
2669 1 0.105074 0.987844 0.498655
2549 1 0.115297 0.98424 0.499696
2535 1 0.130258 0.993454 0.499501
31 1 0.169699 0.989615 0.49883
2691 1 0.181745 0.998657 0.499429
2688 1 0.196197 0.994267 0.499856
276 1 0.414332 0.991071 0.499676
133 1 0.438611 0.982042 0.497272
2786 1 0.426939 0.984547 0.499232
134 1 0.442579 0.993791 0.496794
2803 1 0.430166 0.998805 0.499408
2871 1 0.454391 0.99006 0.497195
2941 1 0.467292 0.986339 0.496467
67 1 0.478796 0.982172 0.496898
279 1 0.470075 0.997577 0.497267
3012 1 0.494676 0.98911 0.497499
3015 1 0.483524 0.993192 0.4975
1404 1 0.0126043 0.512628 0.502529
1472 1 5.96676e-05 0.513927 0.502461
1477 1 0.011451 0.500456 0.500337
1402 1 0.0235441 0.508715 0.500114
1406 1 0.0507086 0.501382 0.501145
1413 1 0.0625037 0.503109 0.501723
1484 1 0.0663022 0.513731 0.500679
1344 1 0.0748765 0.501668 0.500026
1347 1 0.103941 0.508302 0.500638
1423 1 0.128665 0.516083 0.500199
1425 1 0.141443 0.511684 0.500834
1427 1 0.154015 0.509244 0.500326
1473 1 0.00250303 0.528026 0.501854
1479 1 0.0144128 0.524711 0.501807
1480 1 0.0256878 0.521107 0.501361
1549 1 0.0284059 0.533465 0.50151
1551 1 0.0412473 0.532859 0.500677
1483 1 0.0534478 0.528798 0.500656
1555 1 0.0659742 0.526529 0.500311
1489 1 0.108031 0.533918 0.501749
1416 1 0.0927444 0.520882 0.500106
1420 1 0.120305 0.531783 0.50048
1422 1 0.116488 0.518922 0.500982
1495 1 0.131835 0.528326 0.500745
1428 1 0.143688 0.524803 0.500595
1426 1 0.156256 0.523105 0.50057
1369 1 0.221036 0.52329 0.500341
1474 1 0.0153407 0.537113 0.502331
1545 1 0.00258543 0.539312 0.502818
1546 1 0.00444916 0.550216 0.501612
1478 1 0.0188974 0.55025 0.50216
1550 1 0.0301747 0.546892 0.500417
1552 1 0.0435713 0.545148 0.50078
1491 1 0.110951 0.54519 0.500204
1492 1 0.123667 0.543687 0.500041
1499 1 0.137161 0.553014 0.501623
1567 1 0.135888 0.540828 0.501197
1424 1 0.147278 0.537911 0.500049
1432 1 0.149567 0.551004 0.500705
1614 1 0.00686675 0.563856 0.501159
1548 1 0.018737 0.563009 0.501598
1623 1 0.0345718 0.559087 0.501106
1616 1 0.034838 0.57123 0.50025
1617 1 0.0476037 0.569271 0.501056
1562 1 0.084815 0.56125 0.501063
1631 1 0.0890088 0.573703 0.50152
1563 1 0.0990328 0.560875 0.501071
1564 1 0.10096 0.572825 0.501226
1493 1 0.125421 0.55688 0.500143
1494 1 0.114221 0.570521 0.501184
1498 1 0.128141 0.568808 0.501748
1496 1 0.11267 0.558154 0.500459
1501 1 0.140733 0.566043 0.501147
1503 1 0.153095 0.562446 0.500424
1505 1 0.165473 0.572729 0.500191
1508 1 0.178936 0.570204 0.500673
1436 1 0.175607 0.557942 0.500206
1507 1 0.191455 0.567309 0.500526
1511 1 0.20247 0.564278 0.50022
1687 1 0.0227178 0.57527 0.500488
1554 1 0.049087 0.580363 0.500177
1630 1 0.0633141 0.578603 0.50063
1560 1 0.067807 0.590176 0.501897
1622 1 0.0797296 0.590223 0.501851
1566 1 0.0914426 0.585467 0.501653
1629 1 0.0774184 0.575302 0.50241
1565 1 0.104208 0.584524 0.500486
1568 1 0.117213 0.582714 0.502353
1639 1 0.129264 0.579911 0.502731
1569 1 0.145005 0.589008 0.502518
1500 1 0.142602 0.577649 0.501567
1641 1 0.131022 0.591392 0.501778
1502 1 0.153606 0.574758 0.501641
1504 1 0.155757 0.588763 0.502261
1506 1 0.169368 0.583895 0.502114
1579 1 0.18093 0.582613 0.501092
1580 1 0.196734 0.592126 0.50228
1582 1 0.208966 0.589349 0.500772
1583 1 0.221989 0.586776 0.500323
1512 1 0.218631 0.574755 0.500401
1626 1 0.04058 0.596822 0.500895
1624 1 0.0425592 0.610469 0.501644
1620 1 0.0530799 0.594131 0.500308
1628 1 0.0566436 0.608566 0.502169
1619 1 0.0682705 0.604699 0.50146
1697 1 0.0822274 0.602045 0.500154
1637 1 0.109584 0.609438 0.500166
1634 1 0.105156 0.598357 0.500533
1633 1 0.0940202 0.600054 0.500881
1635 1 0.118897 0.594902 0.501522
1570 1 0.120141 0.607852 0.501817
1571 1 0.143612 0.603364 0.502173
1572 1 0.132322 0.60487 0.503262
1575 1 0.156635 0.60212 0.503166
1577 1 0.170673 0.596377 0.502933
1578 1 0.181829 0.595953 0.501744
1647 1 0.172988 0.610889 0.503127
1649 1 0.184659 0.607219 0.50201
1651 1 0.196778 0.603179 0.500759
1584 1 0.21069 0.602658 0.500572
1586 1 0.224496 0.599174 0.500576
1689 1 0.0175376 0.614471 0.50097
1757 1 0.0303793 0.612701 0.500726
1755 1 0.0193485 0.628878 0.501471
1694 1 0.0316893 0.627407 0.501036
1698 1 0.0441504 0.622877 0.501555
1627 1 0.0710602 0.617613 0.501192
1769 1 0.0577318 0.620286 0.503417
1701 1 0.0838963 0.614873 0.5011
1699 1 0.0848315 0.628616 0.500065
1632 1 0.0973389 0.613672 0.500307
1636 1 0.109714 0.62354 0.501095
1705 1 0.0985827 0.626632 0.500931
1638 1 0.12179 0.620896 0.501787
1711 1 0.134829 0.618682 0.503025
1573 1 0.14737 0.616115 0.503991
1648 1 0.159672 0.612717 0.502757
1643 1 0.1491 0.628899 0.504322
1576 1 0.16215 0.625368 0.502734
1717 1 0.175776 0.623463 0.50262
1654 1 0.201421 0.61663 0.50145
1719 1 0.188395 0.619751 0.501212
1656 1 0.203931 0.628501 0.50184
1590 1 0.21431 0.628074 0.5003
1653 1 0.213747 0.614667 0.500503
1693 1 0.035182 0.639037 0.501619
1825 1 0.0220949 0.641517 0.50037
1700 1 0.0504746 0.647581 0.500824
1696 1 0.0501099 0.63422 0.503064
1765 1 0.0620952 0.633365 0.501073
1702 1 0.0722992 0.630904 0.500989
1695 1 0.0618283 0.648096 0.500454
1704 1 0.0857868 0.641886 0.500393
1640 1 0.111456 0.638549 0.501459
1709 1 0.125032 0.634023 0.503226
1707 1 0.126207 0.64639 0.503145
1642 1 0.13619 0.631482 0.503634
1644 1 0.138032 0.644904 0.502767
1645 1 0.151571 0.640728 0.503792
1716 1 0.164551 0.639057 0.503401
1723 1 0.176207 0.635491 0.502552
1793 1 0.180762 0.646237 0.502583
1725 1 0.192574 0.644547 0.502085
1650 1 0.190825 0.631092 0.502627
1652 1 0.205982 0.642403 0.501454
1831 1 0.0250827 0.655077 0.501105
1770 1 0.0368133 0.65246 0.501382
1760 1 0.0370761 0.663862 0.50059
1762 1 0.0517109 0.662234 0.50032
1766 1 0.0661094 0.659187 0.500016
1775 1 0.105187 0.665735 0.500414
1771 1 0.102483 0.651404 0.500405
1841 1 0.114157 0.64991 0.501596
1773 1 0.116523 0.661745 0.501434
1781 1 0.129318 0.659736 0.503039
1574 1 0.141657 0.656221 0.502906
1713 1 0.153476 0.65373 0.503635
1782 1 0.158246 0.665546 0.502694
1646 1 0.166648 0.651499 0.503472
1721 1 0.182808 0.659074 0.501975
1715 1 0.172213 0.664657 0.501034
1722 1 0.196254 0.65761 0.500457
1726 1 0.208235 0.65496 0.50018
1724 1 0.219524 0.650628 0.501785
1794 1 0.221372 0.66339 0.501263
1800 1 0.25631 0.664571 0.501306
1728 1 0.246861 0.659913 0.500079
1522 1 0.283782 0.663056 0.501909
1729 1 0.309966 0.663207 0.501634
1735 1 0.323617 0.666352 0.502064
1761 1 0.0262631 0.6683 0.501013
1756 1 0.0381212 0.682718 0.500776
1830 1 0.0533064 0.674484 0.500848
1835 1 0.0425749 0.673311 0.50132
1902 1 0.071348 0.682183 0.500728
1845 1 0.107824 0.677705 0.500406
1708 1 0.120054 0.676021 0.500964
1712 1 0.132286 0.672452 0.502382
1780 1 0.146952 0.670475 0.502795
1779 1 0.134963 0.684639 0.501739
1785 1 0.161171 0.679472 0.501253
1710 1 0.149095 0.682265 0.502831
1714 1 0.173314 0.677091 0.500764
1790 1 0.185583 0.672438 0.501698
1791 1 0.198531 0.669845 0.501626
1862 1 0.200426 0.683708 0.502096
1795 1 0.213345 0.680857 0.500802
1799 1 0.210821 0.669247 0.50211
2009 1 0.238675 0.681162 0.500228
1858 1 0.225074 0.675188 0.500868
1796 1 0.256919 0.683801 0.502042
1588 1 0.249528 0.675063 0.500218
1870 1 0.271794 0.683124 0.501541
1802 1 0.264085 0.675283 0.501538
1801 1 0.270685 0.666706 0.500682
1808 1 0.288772 0.683409 0.501815
1732 1 0.280146 0.676202 0.501154
1600 1 0.294834 0.673789 0.501636
1873 1 0.306005 0.674589 0.501851
1876 1 0.319571 0.676927 0.501212
1736 1 0.326759 0.684953 0.502042
1666 1 0.336703 0.675933 0.501185
1670 1 0.350251 0.672366 0.503978
2031 1 0.0175219 0.693817 0.501222
1893 1 0.0289417 0.695733 0.500039
1971 1 0.0418155 0.702726 0.501467
1968 1 0.0452506 0.689987 0.501116
1904 1 0.0531824 0.701962 0.501739
1970 1 0.0734746 0.69469 0.500152
1833 1 0.0571892 0.68721 0.500922
1973 1 0.0617305 0.697967 0.500256
1846 1 0.111109 0.69197 0.500747
1768 1 0.100204 0.694251 0.500696
1777 1 0.122423 0.688391 0.501856
1849 1 0.124864 0.700514 0.501653
1852 1 0.139142 0.697864 0.501675
1784 1 0.16343 0.693216 0.500665
1778 1 0.152023 0.695298 0.500765
1783 1 0.175748 0.68932 0.500447
1720 1 0.188546 0.685357 0.50114
1789 1 0.191852 0.700125 0.50081
1792 1 0.202434 0.69686 0.501791
1861 1 0.217941 0.692725 0.501475
1868 1 0.236866 0.699879 0.500438
1803 1 0.252059 0.702447 0.502362
1866 1 0.247606 0.691687 0.501537
1662 1 0.273028 0.702428 0.501929
1730 1 0.265851 0.692453 0.500762
1874 1 0.280946 0.69434 0.500751
1667 1 0.291914 0.701871 0.500993
1804 1 0.31015 0.701653 0.502708
1738 1 0.299344 0.692099 0.500407
1596 1 0.308107 0.686951 0.502301
1740 1 0.32646 0.701069 0.501732
2017 1 0.317449 0.692179 0.502578
1602 1 0.344108 0.685208 0.502303
1806 1 0.335228 0.693849 0.500626
1737 1 0.344755 0.702467 0.500161
1673 1 0.353723 0.692195 0.501587
1883 1 0.36351 0.702553 0.50244
1965 1 0.0128169 0.707654 0.501381
2037 1 0.00431318 0.715662 0.50012
2035 1 0.0223026 0.717568 0.502671
1832 1 0.027703 0.707231 0.502366
1906 1 0.0393368 0.713766 0.503255
1772 1 0.0519558 0.713267 0.502907
1842 1 0.0644075 0.711638 0.501787
1896 1 0.0755429 0.706826 0.500734
1919 1 0.0910145 0.717567 0.50197
1903 1 0.0874697 0.70659 0.50134
1834 1 0.0779909 0.721725 0.501898
1836 1 0.100125 0.704935 0.501703
1897 1 0.103659 0.716823 0.501561
1916 1 0.115055 0.716104 0.500269
1850 1 0.114624 0.705356 0.502028
1914 1 0.128667 0.714949 0.500883
1853 1 0.183183 0.713642 0.500345
1923 1 0.167004 0.70626 0.500156
1856 1 0.200631 0.711368 0.502078
1786 1 0.194279 0.719727 0.50089
1864 1 0.212527 0.704439 0.502644
2136 1 0.21676 0.717628 0.501988
1933 1 0.235166 0.719047 0.502653
1860 1 0.226002 0.708706 0.500474
1798 1 0.243362 0.709524 0.500584
1935 1 0.252984 0.719702 0.501818
1734 1 0.262343 0.711037 0.501969
1943 1 0.271205 0.719824 0.502542
1947 1 0.28948 0.72013 0.503337
1805 1 0.281079 0.711533 0.502974
1875 1 0.299006 0.711168 0.502548
1941 1 0.307639 0.720557 0.502598
1669 1 0.317373 0.710397 0.502981
1877 1 0.326265 0.719137 0.502279
1807 1 0.334852 0.711654 0.500992
1945 1 0.353605 0.711936 0.500739
1809 1 0.37212 0.709751 0.500062
1530 1 0.494689 0.710884 0.500277
4900 1 0.0137917 0.72473 0.501713
2101 1 0.00669299 0.734668 0.502796
1898 1 0.0296944 0.724897 0.503499
1972 1 0.0246969 0.735233 0.503149
2043 1 0.0419889 0.728133 0.503753
2108 1 0.0550709 0.727826 0.503196
1967 1 0.0664352 0.722253 0.502538
1969 1 0.0580172 0.740679 0.504293
2038 1 0.0694274 0.738247 0.503255
1847 1 0.0818599 0.734694 0.502912
1843 1 0.0931556 0.730097 0.502478
1844 1 0.103875 0.727516 0.501842
1979 1 0.107493 0.739807 0.50264
2047 1 0.117253 0.729321 0.500806
1918 1 0.131787 0.725991 0.500942
1912 1 0.143198 0.724009 0.500038
1857 1 0.197616 0.738121 0.502092
1854 1 0.186786 0.72877 0.502358
1924 1 0.205107 0.727663 0.501864
1997 1 0.216267 0.735637 0.501749
1869 1 0.225544 0.72576 0.501738
1931 1 0.234094 0.738234 0.502205
1939 1 0.253016 0.738421 0.502897
1927 1 0.245015 0.728468 0.502999
1938 1 0.272276 0.738206 0.502131
1872 1 0.262359 0.728621 0.501796
1879 1 0.281363 0.729194 0.502195
2007 1 0.290848 0.739145 0.501274
2011 1 0.298892 0.729158 0.502378
1940 1 0.309328 0.738003 0.501992
2012 1 0.326191 0.738441 0.500136
1944 1 0.318056 0.728802 0.50175
1948 1 0.334081 0.73018 0.50003
1812 1 0.354562 0.729607 0.500034
1950 1 0.373755 0.72952 0.500337
4691 1 0.477065 0.734418 0.500192
4833 1 0.489041 0.738583 0.502084
1889 1 0.492409 0.726828 0.502193
2033 1 0.0170013 0.742815 0.504407
2034 1 0.00993056 0.753837 0.504624
2039 1 0.0345289 0.744182 0.505101
2105 1 0.0270835 0.754178 0.50498
2036 1 0.0468813 0.743629 0.504571
2040 1 0.0466404 0.755313 0.505321
2113 1 0.0625941 0.752084 0.505264
1975 1 0.0754582 0.750372 0.504253
2044 1 0.0861644 0.747306 0.502755
1991 1 0.0981274 0.745779 0.503085
1981 1 0.101586 0.755942 0.503869
1977 1 0.126719 0.744207 0.501678
1992 1 0.112961 0.756993 0.50274
1907 1 0.11559 0.746284 0.501579
1913 1 0.139623 0.741342 0.500165
1915 1 0.13178 0.756651 0.502235
1911 1 0.144238 0.75807 0.500934
2064 1 0.152314 0.74676 0.500218
1990 1 0.164077 0.75543 0.500173
1787 1 0.178553 0.741137 0.501285
2060 1 0.181442 0.75618 0.500471
2133 1 0.198119 0.755875 0.501651
2062 1 0.18994 0.747324 0.503358
1788 1 0.217318 0.755703 0.501037
2131 1 0.207918 0.745822 0.502092
1925 1 0.224179 0.746846 0.5017
1932 1 0.233553 0.756675 0.501497
1934 1 0.241902 0.746095 0.502338
2003 1 0.253625 0.754302 0.501981
1937 1 0.262941 0.744607 0.502159
2004 1 0.270219 0.756742 0.501812
1936 1 0.281116 0.747657 0.501067
2005 1 0.288855 0.756421 0.502183
2015 1 0.30096 0.746699 0.501684
2008 1 0.310757 0.756583 0.500667
2010 1 0.318719 0.746334 0.501078
2081 1 0.327323 0.756385 0.500177
2086 1 0.34684 0.757305 0.50013
2014 1 0.336228 0.747961 0.500745
2016 1 0.36444 0.755841 0.500728
1949 1 0.370905 0.746759 0.500345
1742 1 0.414906 0.759088 0.500115
4761 1 0.44071 0.75417 0.500427
1951 1 0.429944 0.758989 0.50003
4971 1 0.456913 0.755049 0.500823
1958 1 0.480408 0.75728 0.501667
1959 1 0.474671 0.745802 0.500618
2095 1 0.463907 0.746362 0.500177
2025 1 0.497789 0.754548 0.500897
4695 1 0.488257 0.748588 0.50194
2171 1 0.00142429 0.762015 0.503821
2103 1 0.0111788 0.772431 0.504498
1978 1 0.0185946 0.761956 0.505049
2109 1 0.0296228 0.771254 0.50574
1976 1 0.0374958 0.762355 0.506744
2117 1 0.0538585 0.762982 0.504128
2042 1 0.0471801 0.770723 0.505674
2114 1 0.070575 0.761493 0.504504
2111 1 0.061782 0.770244 0.504598
2112 1 0.0729445 0.77593 0.504841
1900 1 0.0887501 0.760302 0.503636
2049 1 0.0799351 0.766886 0.502563
1909 1 0.091658 0.776162 0.503059
1980 1 0.0967003 0.765712 0.50512
2050 1 0.107874 0.766525 0.504704
1905 1 0.11109 0.776422 0.503437
1910 1 0.121111 0.764549 0.503747
2059 1 0.12728 0.774029 0.502661
1985 1 0.145659 0.777313 0.50043
1988 1 0.137178 0.767992 0.500927
1920 1 0.16295 0.775371 0.500641
1851 1 0.154579 0.765154 0.502064
1989 1 0.172458 0.764319 0.500792
2273 1 0.190068 0.766613 0.500959
1996 1 0.199849 0.773096 0.501463
1930 1 0.21806 0.773019 0.50077
1994 1 0.207176 0.763241 0.501738
1929 1 0.224721 0.762872 0.501717
1928 1 0.234576 0.771688 0.500931
1999 1 0.252712 0.771747 0.501429
2001 1 0.243628 0.763294 0.502152
2002 1 0.261613 0.764283 0.501494
2073 1 0.27257 0.775801 0.501464
2075 1 0.278611 0.767011 0.501755
2076 1 0.289898 0.77281 0.50167
2006 1 0.299757 0.763448 0.501324
2077 1 0.30945 0.772009 0.500396
2020 1 0.405011 0.767515 0.500391
2090 1 0.42094 0.770067 0.50011
2022 1 0.412625 0.777149 0.501459
2167 1 0.439296 0.770812 0.500487
1952 1 0.448626 0.764511 0.500321
2239 1 0.45576 0.772133 0.50173
2169 1 0.46742 0.76102 0.500927
4622 1 0.46786 0.772262 0.500729
2028 1 0.478252 0.775555 0.500562
4837 1 0.496316 0.765152 0.500893
2029 1 0.485639 0.766938 0.500788
2102 1 0.0033038 0.781238 0.503184
2104 1 0.0110475 0.789579 0.505607
2107 1 0.0192894 0.78121 0.5049
2106 1 0.0288961 0.790641 0.506244
2041 1 0.0377599 0.778729 0.505955
2181 1 0.0455133 0.789613 0.50713
2110 1 0.05625 0.778802 0.505113
2045 1 0.0644759 0.787186 0.506903
1848 1 0.0832713 0.785453 0.502807
2257 1 0.094807 0.793706 0.502928
1982 1 0.101681 0.783943 0.503746
1986 1 0.110955 0.793168 0.503795
1908 1 0.118758 0.784463 0.502452
1987 1 0.127143 0.791169 0.501884
2053 1 0.135693 0.783687 0.501016
1983 1 0.144626 0.792754 0.501281
2051 1 0.153955 0.784362 0.50016
2055 1 0.171796 0.786077 0.500428
1995 1 0.190714 0.782872 0.500776
2065 1 0.216987 0.791604 0.500224
2135 1 0.209228 0.783362 0.5016
1998 1 0.225574 0.782362 0.500212
2071 1 0.253988 0.790541 0.500325
2069 1 0.24443 0.780382 0.501128
2000 1 0.261497 0.780753 0.500355
2072 1 0.272673 0.790932 0.500907
2074 1 0.282248 0.783049 0.501027
2145 1 0.290999 0.792218 0.501093
2147 1 0.298452 0.782526 0.500717
2149 1 0.316865 0.783721 0.500009
2089 1 0.405268 0.788546 0.501224
2158 1 0.424906 0.786686 0.500034
2301 1 0.415817 0.795671 0.500006
2097 1 0.441196 0.786765 0.50128
2160 1 0.431001 0.778428 0.500748
2093 1 0.449935 0.779844 0.500845
2096 1 0.461677 0.782985 0.502411
4831 1 0.476206 0.788723 0.501563
2098 1 0.464911 0.794902 0.502203
2170 1 0.492755 0.778951 0.501848
1957 1 0.48933 0.790493 0.502189
2241 1 0.0026196 0.798483 0.505149
2243 1 0.0107704 0.807202 0.504492
2174 1 0.0188427 0.798969 0.506273
2177 1 0.0298505 0.808405 0.505605
2175 1 0.0377109 0.79871 0.505786
1974 1 0.0478177 0.806603 0.50426
2180 1 0.0384348 0.814788 0.504187
2116 1 0.0559716 0.796349 0.505887
2115 1 0.0664021 0.805711 0.503777
2183 1 0.0573226 0.813024 0.50392
2118 1 0.0756211 0.797617 0.504308
2188 1 0.0851343 0.804017 0.502131
2254 1 0.0928545 0.813422 0.501507
1984 1 0.110898 0.811735 0.500924
2189 1 0.103512 0.803505 0.502142
2048 1 0.120524 0.801293 0.501112
2119 1 0.127661 0.810638 0.500975
2056 1 0.135543 0.801763 0.501703
2258 1 0.148457 0.809745 0.500882
2125 1 0.153757 0.799906 0.500275
2066 1 0.217969 0.810118 0.500562
2132 1 0.210228 0.802651 0.50051
2134 1 0.237285 0.809319 0.500912
1926 1 0.227099 0.801057 0.500767
2137 1 0.245264 0.799007 0.500588
2142 1 0.262818 0.798251 0.500462
2214 1 0.289421 0.81149 0.500554
2143 1 0.280526 0.801323 0.500223
2144 1 0.298865 0.801274 0.500454
2163 1 0.450787 0.797656 0.501814
2162 1 0.45764 0.807753 0.502509
2165 1 0.473384 0.803838 0.503266
5041 1 0.496094 0.809509 0.503276
5043 1 0.483502 0.80552 0.50277
2312 1 0.00211499 0.816309 0.505051
2242 1 0.0111147 0.825388 0.502965
2176 1 0.0194409 0.816314 0.504721
2179 1 0.0304836 0.82192 0.503539
2185 1 0.0497266 0.823607 0.502918
2249 1 0.0397363 0.831815 0.502108
2251 1 0.0577209 0.82981 0.500661
2184 1 0.0671771 0.822233 0.501561
2182 1 0.0765552 0.814966 0.501513
2259 1 0.0865212 0.823013 0.501719
2389 1 0.102064 0.82242 0.500585
2256 1 0.11997 0.820285 0.500379
2123 1 0.129408 0.829042 0.501264
2261 1 0.112302 0.830716 0.500881
2052 1 0.138328 0.819034 0.50112
2124 1 0.15544 0.819544 0.500103
2203 1 0.202074 0.830409 0.500022
2204 1 0.22023 0.829443 0.501936
2272 1 0.21138 0.821299 0.5015
2347 1 0.236156 0.828067 0.500803
2202 1 0.228404 0.817908 0.500376
2139 1 0.252878 0.828425 0.500471
2138 1 0.24482 0.817958 0.50012
2208 1 0.263163 0.833194 0.5016
2210 1 0.272587 0.828842 0.501211
2140 1 0.261464 0.81813 0.501088
2283 1 0.290299 0.826459 0.500045
2141 1 0.2793 0.820118 0.500414
2235 1 0.450726 0.81546 0.500893
2236 1 0.460691 0.824005 0.500679
2164 1 0.468554 0.815959 0.50279
2238 1 0.478723 0.830362 0.502392
4901 1 0.4804 0.818242 0.502708
2237 1 0.493231 0.821718 0.501241
5113 1 0.490561 0.832907 0.50172
2313 1 0.00284346 0.835465 0.50375
2314 1 0.0114276 0.845285 0.502096
2245 1 0.0219386 0.834261 0.50238
2318 1 0.0320782 0.841878 0.500066
2321 1 0.0842694 0.842082 0.500539
2178 1 0.0951359 0.850031 0.500147
2120 1 0.100576 0.840098 0.500437
2255 1 0.119664 0.839706 0.500183
2122 1 0.138739 0.836294 0.500375
2121 1 0.149003 0.847931 0.500382
2192 1 0.1559 0.83796 0.500411
2199 1 0.19353 0.839969 0.500323
2201 1 0.203925 0.848542 0.500335
2275 1 0.221533 0.84813 0.500443
2271 1 0.21114 0.838757 0.500435
2345 1 0.237418 0.846093 0.501094
2343 1 0.229279 0.837274 0.501163
2277 1 0.254241 0.84329 0.501442
2209 1 0.244844 0.837015 0.500349
2279 1 0.271088 0.843787 0.502594
2212 1 0.281199 0.834461 0.501687
2281 1 0.289509 0.844557 0.500099
2216 1 0.298197 0.834718 0.500043
2305 1 0.450468 0.834171 0.50049
2309 1 0.476721 0.84411 0.501967
2307 1 0.468549 0.833636 0.501828
2240 1 0.487202 0.846468 0.501195
2310 1 0.497328 0.843633 0.500169
2244 1 0.00286879 0.853989 0.502417
2397 1 0.140077 0.855196 0.500324
2262 1 0.158505 0.856958 0.50063
2340 1 0.20329 0.864744 0.500013
2270 1 0.212367 0.855902 0.500996
2276 1 0.229258 0.857016 0.501234
2274 1 0.240261 0.865354 0.501357
2348 1 0.247929 0.853377 0.501996
2346 1 0.256547 0.860813 0.501892
2350 1 0.272255 0.861581 0.502653
2278 1 0.263554 0.852283 0.502852
2355 1 0.290604 0.86172 0.501023
2349 1 0.279822 0.853665 0.502207
2282 1 0.282242 0.868399 0.502189
2284 1 0.300515 0.854307 0.500076
2308 1 0.485827 0.857947 0.500257
2380 1 0.495432 0.862533 0.500516
2385 1 0.00324466 0.871333 0.50123
2341 1 0.211226 0.874789 0.500862
2338 1 0.232056 0.875233 0.500363
2408 1 0.259155 0.885269 0.501599
2344 1 0.250082 0.874871 0.500435
2415 1 0.269029 0.876269 0.502358
2488 1 0.277956 0.886247 0.502488
2280 1 0.28839 0.878767 0.50328
2358 1 0.298353 0.87056 0.500372
2351 1 0.296343 0.888628 0.501475
2448 1 0.498561 0.886927 0.500394
5318 1 0.0043938 0.890333 0.501771
2452 1 0.0129719 0.898259 0.500009
2483 1 0.213248 0.892041 0.500752
2414 1 0.219646 0.902173 0.500423
2421 1 0.239449 0.90018 0.500465
2485 1 0.229257 0.893529 0.500642
2417 1 0.249308 0.89373 0.500101
2490 1 0.25805 0.903272 0.500388
2420 1 0.267127 0.895328 0.501728
2353 1 0.276357 0.905465 0.50191
2422 1 0.286043 0.895317 0.501524
2699 1 0.294223 0.906002 0.501607
2631 1 0.30506 0.897874 0.50006
2489 1 0.219851 0.918943 0.500213
2553 1 0.238747 0.919585 0.500129
2352 1 0.247391 0.908809 0.500814
2416 1 0.266717 0.912626 0.500275
2561 1 0.274447 0.923064 0.500172
2423 1 0.291993 0.923305 0.500964
2559 1 0.283709 0.913643 0.500766
2492 1 0.301483 0.915088 0.500017
2633 1 0.328301 0.924465 0.500681
2555 1 0.246629 0.929129 0.50041
2628 1 0.255127 0.940936 0.500564
2701 1 0.264154 0.931507 0.500153
2419 1 0.273881 0.941896 0.500939
2562 1 0.283047 0.932736 0.500723
2771 1 0.29056 0.941242 0.501791
2491 1 0.309084 0.943949 0.503396
2630 1 0.301073 0.933106 0.501083
2570 1 0.319135 0.934213 0.50106
2643 1 0.334904 0.936682 0.500995
2641 1 0.36239 0.929066 0.500385
2573 1 0.353931 0.937597 0.500511
2714 1 0.37046 0.940241 0.501468
2695 1 0.232131 0.957763 0.50004
2558 1 0.245079 0.946358 0.500841
2560 1 0.242575 0.957793 0.500734
2704 1 0.252655 0.957019 0.501343
2697 1 0.27683 0.960582 0.501148
2636 1 0.283007 0.950161 0.502449
2776 1 0.29411 0.959085 0.50373
44 1 0.305075 0.959336 0.503381
2632 1 0.298069 0.949242 0.502297
2568 1 0.316051 0.955069 0.504329
2642 1 0.333095 0.954909 0.502225
2494 1 0.324872 0.944909 0.501799
2574 1 0.343216 0.944795 0.500072
2651 1 0.348389 0.955034 0.501398
2645 1 0.361709 0.948312 0.501214
2569 1 0.36464 0.9591 0.5008
2787 1 0.374144 0.958229 0.501295
2637 1 0.380889 0.947944 0.500045
2721 1 0.398853 0.945328 0.500081
2718 1 0.398668 0.955936 0.500157
2702 1 0.219269 0.978975 0.501037
2769 1 0.228582 0.970576 0.5014
2770 1 0.254774 0.969214 0.500492
2626 1 0.241195 0.970692 0.500905
2774 1 0.27124 0.97733 0.501559
2634 1 0.267601 0.966588 0.501907
2767 1 0.286894 0.966295 0.503186
2635 1 0.295784 0.974435 0.504335
2709 1 0.283388 0.976248 0.501805
2707 1 0.307773 0.970832 0.503533
2781 1 0.322749 0.981062 0.503432
2717 1 0.321848 0.967546 0.503665
2711 1 0.34873 0.978599 0.503172
2567 1 0.347912 0.966638 0.502149
2639 1 0.335997 0.979689 0.503185
2571 1 0.335696 0.967431 0.503449
2722 1 0.358876 0.970002 0.501505
2650 1 0.386167 0.969106 0.501454
2572 1 0.371339 0.971624 0.500699
131 1 0.399789 0.969687 0.500707
2784 1 0.41354 0.978929 0.500332
2610 1 0.118046 0.996838 0.500352
2467 1 0.128341 0.981546 0.500233
2616 1 0.144095 0.990639 0.500252
2614 1 0.157858 0.990186 0.500963
32 1 0.179357 0.985548 0.50105
2681 1 0.189085 0.987143 0.50047
2692 1 0.20785 0.989726 0.500422
2765 1 0.219302 0.989596 0.501791
2775 1 0.23421 0.997669 0.5019
2696 1 0.230064 0.985344 0.502341
2705 1 0.243954 0.983066 0.501348
45 1 0.259202 0.99446 0.501402
2772 1 0.246442 0.995699 0.501942
2773 1 0.257901 0.981559 0.501985
2703 1 0.271172 0.990819 0.501962
46 1 0.285202 0.988006 0.501908
2700 1 0.311101 0.983311 0.503056
2715 1 0.300395 0.999558 0.501115
2778 1 0.31126 0.99604 0.502013
2640 1 0.298805 0.987023 0.50195
2638 1 0.325417 0.993799 0.502164
2713 1 0.33775 0.99283 0.503613
2712 1 0.349606 0.990963 0.503918
57 1 0.361281 0.985699 0.502969
127 1 0.363533 0.999474 0.502686
136 1 0.388757 0.995792 0.500177
2791 1 0.374686 0.982698 0.501577
2785 1 0.37615 0.996195 0.501855
2716 1 0.386672 0.982227 0.501675
64 1 0.402231 0.992392 0.501095
2789 1 0.399675 0.982124 0.501345
3083 1 0.503796 0.0126371 0.499169
2849 1 0.849839 0.00494787 0.499773
2921 1 0.860045 4.1768e-05 0.499988
3087 1 0.50788 0.0227294 0.498689
3017 1 0.512015 0.0352494 0.498697
3156 1 0.503967 0.0543167 0.498098
3158 1 0.514858 0.0492886 0.498786
3223 1 0.507873 0.0667269 0.496999
3227 1 0.519944 0.0606013 0.497754
3297 1 0.524538 0.0728741 0.499449
3049 1 0.78343 0.0710794 0.49991
3058 1 0.828328 0.0736716 0.5
3152 1 0.501795 0.0821399 0.497401
3295 1 0.514354 0.0776941 0.498867
3298 1 0.530395 0.0862098 0.499318
3053 1 0.819417 0.0810325 0.499843
3056 1 0.836311 0.0843813 0.498851
3293 1 0.505297 0.0942983 0.499468
3368 1 0.521814 0.100685 0.499611
3296 1 0.538801 0.109872 0.499579
3125 1 0.831216 0.101317 0.499715
3196 1 0.84226 0.0957682 0.49955
3131 1 0.849215 0.107205 0.498663
3195 1 0.825974 0.11976 0.499679
3198 1 0.843745 0.126425 0.499143
3127 1 0.837415 0.113675 0.499639
3265 1 0.810226 0.143974 0.498609
3192 1 0.803263 0.1342 0.499242
3194 1 0.821281 0.13925 0.498355
3267 1 0.832393 0.130376 0.49901
3269 1 0.838192 0.141767 0.497632
3200 1 0.848027 0.137927 0.499441
3203 1 0.860146 0.133555 0.499812
3270 1 0.855444 0.148101 0.49781
3271 1 0.867955 0.144446 0.498258
3204 1 0.87695 0.134801 0.499478
3257 1 0.769071 0.150881 0.499536
3329 1 0.775861 0.16228 0.49909
3259 1 0.786383 0.158461 0.49956
3331 1 0.804176 0.160892 0.499333
3264 1 0.814744 0.155575 0.498665
3263 1 0.798397 0.149675 0.499912
3266 1 0.828114 0.149972 0.497955
3273 1 0.832591 0.160121 0.497333
3272 1 0.84483 0.154643 0.497344
3339 1 0.849843 0.16612 0.498637
3202 1 0.861435 0.159648 0.498337
3278 1 0.880109 0.164729 0.497973
3275 1 0.873176 0.154309 0.498892
3280 1 0.891843 0.15677 0.499959
3349 1 0.933424 0.161922 0.499857
3216 1 0.960278 0.161189 0.499009
3286 1 0.944471 0.156389 0.499443
3360 1 0.969773 0.157601 0.498947
3217 1 0.980099 0.150836 0.499209
421 1 0.983911 0.164121 0.497922
3218 1 0.994004 0.161628 0.498643
422 1 0.99222 0.148496 0.499656
3328 1 0.770561 0.181005 0.499632
3260 1 0.792979 0.167633 0.498798
3399 1 0.787946 0.185138 0.498446
3258 1 0.780285 0.174029 0.498427
3262 1 0.798257 0.177692 0.498955
3334 1 0.810531 0.174091 0.498602
3268 1 0.822316 0.166701 0.497881
3274 1 0.828104 0.178366 0.497366
3335 1 0.81678 0.183959 0.498211
3343 1 0.844922 0.183511 0.497964
3337 1 0.838906 0.172492 0.497278
3350 1 0.867997 0.170907 0.498276
3276 1 0.855091 0.17715 0.497599
3348 1 0.876124 0.180267 0.498641
3419 1 0.886653 0.175602 0.498314
3417 1 0.903221 0.179172 0.497582
3346 1 0.896323 0.169057 0.499615
3212 1 0.913599 0.171916 0.498726
3284 1 0.925565 0.170068 0.49941
3353 1 0.920261 0.18268 0.498582
3491 1 0.937874 0.177734 0.497155
3354 1 0.94413 0.167496 0.498617
3288 1 0.955268 0.17124 0.498091
3425 1 0.951737 0.183899 0.497439
3147 1 0.963122 0.177938 0.497122
3423 1 0.971749 0.169565 0.499276
3289 1 0.981908 0.177567 0.496764
491 1 0.995608 0.176587 0.49651
3393 1 0.736902 0.202434 0.499028
3324 1 0.74108 0.19027 0.499755
3396 1 0.751957 0.19293 0.499136
3397 1 0.765876 0.194809 0.499905
3400 1 0.777879 0.191288 0.497944
3473 1 0.785157 0.199676 0.49766
3401 1 0.795178 0.195261 0.497389
3330 1 0.804335 0.18713 0.499308
3332 1 0.808876 0.199346 0.498638
3333 1 0.821813 0.193888 0.497773
3407 1 0.833318 0.18965 0.49747
3405 1 0.839575 0.19957 0.496865
3341 1 0.850315 0.194224 0.496848
3347 1 0.860768 0.186996 0.497906
3410 1 0.868781 0.196512 0.497162
3345 1 0.882475 0.191915 0.497665
3342 1 0.886633 0.203077 0.497337
3415 1 0.892889 0.18652 0.497585
3413 1 0.897282 0.196333 0.496585
3559 1 0.914993 0.201168 0.498787
3416 1 0.909274 0.189726 0.497407
3355 1 0.927342 0.194706 0.4998
3487 1 0.93858 0.188925 0.498103
3282 1 0.944612 0.201046 0.498701
3356 1 0.957115 0.19541 0.497292
3358 1 0.976495 0.19699 0.498104
3290 1 0.968456 0.188193 0.497616
3359 1 0.997259 0.188492 0.496306
3357 1 0.986188 0.192074 0.498005
3642 1 0.526587 0.222051 0.499344
3467 1 0.746967 0.21722 0.498857
3395 1 0.759818 0.206807 0.499651
3535 1 0.772064 0.218359 0.497252
3470 1 0.770685 0.20655 0.498083
3398 1 0.760796 0.221623 0.497193
3468 1 0.780837 0.20926 0.49801
3471 1 0.790214 0.216387 0.498926
3402 1 0.799292 0.209114 0.498112
3404 1 0.808411 0.217088 0.497555
3406 1 0.817692 0.211063 0.498
3340 1 0.82784 0.204662 0.497902
3338 1 0.833396 0.216605 0.49861
3336 1 0.843989 0.211614 0.496322
3409 1 0.857374 0.204084 0.498771
3549 1 0.851943 0.220884 0.497425
3476 1 0.865514 0.216408 0.498534
3411 1 0.87598 0.207538 0.496648
3481 1 0.880124 0.219908 0.496188
3420 1 0.904982 0.207361 0.496623
3344 1 0.893242 0.214605 0.495662
3485 1 0.911654 0.217382 0.495574
3418 1 0.923564 0.212892 0.497751
3703 1 0.937828 0.216733 0.49729
3489 1 0.932242 0.205182 0.498002
3427 1 0.949059 0.212474 0.496624
3426 1 0.961273 0.206439 0.496911
3430 1 0.975672 0.216212 0.496423
3421 1 0.97246 0.20654 0.497664
3428 1 0.965542 0.221859 0.495865
3495 1 0.990359 0.205027 0.495745
3429 1 0.990191 0.215387 0.498347
903 1 0.501839 0.228645 0.498006
905 1 0.513498 0.22533 0.499169
904 1 0.504798 0.23939 0.496835
909 1 0.518861 0.237211 0.497429
3644 1 0.529529 0.233503 0.498541
3729 1 0.609191 0.238724 0.499822
3466 1 0.719788 0.236562 0.499777
3665 1 0.746087 0.229652 0.498889
3534 1 0.757983 0.233265 0.498226
3679 1 0.773156 0.2319 0.497573
3539 1 0.78444 0.226444 0.497744
3537 1 0.790625 0.237259 0.498037
3472 1 0.799385 0.22444 0.498852
3538 1 0.800403 0.234877 0.497782
3474 1 0.812571 0.229715 0.499385
3403 1 0.824569 0.22405 0.499413
3475 1 0.82972 0.234998 0.497364
3540 1 0.818267 0.23918 0.498613
3478 1 0.8402 0.226507 0.497472
3543 1 0.845184 0.238084 0.497078
3480 1 0.858101 0.233304 0.497794
3555 1 0.870056 0.228028 0.496806
3482 1 0.875464 0.238863 0.495125
3408 1 0.886312 0.231867 0.495755
3479 1 0.896569 0.22468 0.495596
3488 1 0.905611 0.233385 0.497247
3483 1 0.917186 0.229175 0.497839
3412 1 0.923262 0.239024 0.499345
3422 1 0.926582 0.222751 0.496942
3633 1 0.932086 0.232726 0.49786
3424 1 0.942895 0.230294 0.495994
3492 1 0.954452 0.224107 0.497536
3493 1 0.956869 0.237562 0.497123
3497 1 0.967947 0.234631 0.495671
632 1 0.980999 0.229698 0.496691
3499 1 0.994315 0.227964 0.497111
3572 1 0.507045 0.252957 0.494808
906 1 0.520032 0.250076 0.4958
910 1 0.533444 0.246155 0.496613
3646 1 0.545501 0.24217 0.498055
3651 1 0.548792 0.254603 0.49719
3584 1 0.561892 0.248756 0.499096
3653 1 0.576867 0.258281 0.499805
3658 1 0.605246 0.256116 0.499769
3662 1 0.62524 0.24413 0.498027
3728 1 0.616185 0.251796 0.499021
3801 1 0.64777 0.254453 0.498758
3803 1 0.659814 0.258682 0.498171
3740 1 0.673582 0.249004 0.499531
3598 1 0.690199 0.242533 0.499664
3669 1 0.69821 0.258477 0.499221
3604 1 0.71445 0.250336 0.49978
3600 1 0.727463 0.25381 0.498881
3673 1 0.740517 0.256183 0.498842
3601 1 0.754473 0.246362 0.49644
3597 1 0.741855 0.242083 0.498495
3751 1 0.752655 0.258316 0.497237
3675 1 0.769823 0.258393 0.496508
3607 1 0.768289 0.246134 0.495892
3605 1 0.783454 0.256205 0.498227
3606 1 0.781002 0.243631 0.498949
3541 1 0.795967 0.253228 0.498422
3542 1 0.807365 0.245822 0.49912
3615 1 0.811821 0.258003 0.498898
3546 1 0.822236 0.250613 0.498147
3477 1 0.83473 0.246114 0.497752
3552 1 0.840105 0.256179 0.497799
3484 1 0.849632 0.249449 0.497515
3623 1 0.862656 0.245141 0.49736
3625 1 0.868288 0.254886 0.4963
3695 1 0.880386 0.248481 0.496645
3556 1 0.889314 0.257379 0.49708
3554 1 0.893895 0.243009 0.496179
3629 1 0.903051 0.255969 0.498053
3563 1 0.910459 0.244658 0.496309
3557 1 0.919695 0.249275 0.49803
3486 1 0.932834 0.246074 0.498094
3565 1 0.945172 0.240918 0.497676
3562 1 0.949107 0.25244 0.496954
3494 1 0.961033 0.251041 0.496195
3500 1 0.973626 0.247538 0.496844
702 1 0.996568 0.241305 0.496665
701 1 0.984678 0.243852 0.496912
3496 1 0.988168 0.25792 0.497868
836 1 0.510217 0.264662 0.494456
1043 1 0.51311 0.276354 0.493491
840 1 0.535781 0.25973 0.496509
1045 1 0.528198 0.273928 0.494439
908 1 0.522324 0.262084 0.494762
3647 1 0.552967 0.264925 0.497384
3719 1 0.539891 0.271075 0.496345
3655 1 0.566254 0.272521 0.49844
3513 1 0.563547 0.261365 0.498485
3652 1 0.575552 0.275791 0.498546
3723 1 0.583307 0.269957 0.499804
3726 1 0.621262 0.261993 0.497692
3798 1 0.627346 0.275195 0.496685
3725 1 0.615785 0.271138 0.498799
3800 1 0.642308 0.266156 0.49688
3797 1 0.63249 0.261612 0.497955
3869 1 0.639093 0.277373 0.496246
3799 1 0.654879 0.270233 0.497378
3802 1 0.664877 0.274179 0.497037
3873 1 0.671515 0.259777 0.499196
3805 1 0.681462 0.265999 0.499356
3872 1 0.677414 0.276386 0.49786
3738 1 0.694195 0.270227 0.499477
3875 1 0.708514 0.273066 0.49918
3743 1 0.7226 0.277367 0.498638
3599 1 0.738048 0.267461 0.497661
3674 1 0.724369 0.265058 0.499037
3603 1 0.751449 0.270962 0.496991
3681 1 0.775495 0.27591 0.496621
3677 1 0.761539 0.263769 0.496349
3609 1 0.764553 0.276141 0.496643
3608 1 0.779823 0.266917 0.498119
3536 1 0.791197 0.269789 0.497867
3611 1 0.799139 0.262504 0.496963
3685 1 0.808042 0.270273 0.498787
3616 1 0.821489 0.269199 0.498022
3545 1 0.830611 0.263725 0.498189
3548 1 0.833294 0.275412 0.499015
3544 1 0.846392 0.265213 0.499208
3617 1 0.851654 0.277283 0.499866
3551 1 0.857365 0.261029 0.497378
3622 1 0.864355 0.27257 0.499405
3626 1 0.874659 0.265106 0.497353
3558 1 0.883774 0.275068 0.498784
3696 1 0.893476 0.268086 0.497773
3771 1 0.904419 0.266772 0.498072
3490 1 0.919451 0.259705 0.498093
3631 1 0.920283 0.270856 0.497372
3566 1 0.935728 0.259443 0.49763
3560 1 0.931928 0.270683 0.498256
3634 1 0.950004 0.26542 0.497178
3567 1 0.962188 0.26346 0.49651
3636 1 0.954208 0.276933 0.49847
3564 1 0.975424 0.259724 0.497032
3569 1 0.977206 0.27406 0.495095
3640 1 0.966399 0.275113 0.497252
3639 1 0.99037 0.269733 0.496688
1047 1 0.501054 0.281407 0.495489
975 1 0.514615 0.28802 0.495083
973 1 0.531364 0.286583 0.494915
3645 1 0.544991 0.281085 0.496953
978 1 0.545139 0.293057 0.497098
3718 1 0.572913 0.287244 0.498399
3721 1 0.5566 0.279379 0.497551
3648 1 0.562298 0.288797 0.497773
3720 1 0.584234 0.288807 0.499701
3722 1 0.590037 0.279304 0.499403
3793 1 0.597775 0.292144 0.499798
3794 1 0.60857 0.294962 0.498903
3795 1 0.613446 0.284272 0.49911
3796 1 0.623372 0.288186 0.497745
3867 1 0.637022 0.289741 0.496292
3868 1 0.647304 0.294737 0.495716
3870 1 0.664626 0.287192 0.49591
3871 1 0.651373 0.28391 0.496254
3874 1 0.675282 0.28994 0.496326
3806 1 0.691459 0.281267 0.498103
3876 1 0.686883 0.293896 0.496128
3742 1 0.706686 0.286442 0.49802
3815 1 0.718257 0.28967 0.497107
3672 1 0.735054 0.280341 0.49712
3737 1 0.730648 0.292685 0.497512
3741 1 0.742587 0.295745 0.498372
3745 1 0.747081 0.283445 0.497043
3749 1 0.75958 0.287752 0.495616
3748 1 0.771192 0.291095 0.496694
3680 1 0.793154 0.281399 0.497828
3619 1 0.781893 0.284827 0.496818
3686 1 0.795926 0.294876 0.497477
3682 1 0.783535 0.29521 0.497013
3755 1 0.803901 0.280043 0.499253
3610 1 0.80856 0.293709 0.497862
3612 1 0.814348 0.286463 0.499545
3620 1 0.822605 0.280358 0.499408
3758 1 0.82716 0.292085 0.498111
3550 1 0.840849 0.285186 0.499453
3764 1 0.850688 0.294755 0.499441
3547 1 0.868175 0.293138 0.499684
3414 1 0.894482 0.281347 0.499162
3632 1 0.906479 0.280726 0.498163
3627 1 0.919553 0.293222 0.499354
3774 1 0.907485 0.292093 0.499132
3692 1 0.918584 0.281678 0.498585
3700 1 0.930513 0.295901 0.498709
3635 1 0.941894 0.281475 0.498752
3630 1 0.930873 0.2841 0.498933
3628 1 0.94468 0.293267 0.499779
3773 1 0.957635 0.28955 0.497917
912 1 0.980364 0.285608 0.494922
3637 1 0.967169 0.287346 0.495353
3498 1 0.99205 0.282049 0.495868
3710 1 0.994534 0.295886 0.494516
907 1 0.513166 0.300576 0.496014
1183 1 0.504703 0.310953 0.495727
980 1 0.52974 0.299162 0.496475
1119 1 0.524868 0.310733 0.496346
3717 1 0.541547 0.303871 0.49741
3712 1 0.554135 0.308391 0.497582
3715 1 0.556257 0.296936 0.497682
3716 1 0.565493 0.311035 0.49896
3789 1 0.569115 0.298559 0.498793
3787 1 0.576461 0.314135 0.497898
3791 1 0.582378 0.300972 0.4992
3792 1 0.595065 0.302333 0.497748
3863 1 0.607487 0.308062 0.498161
3865 1 0.620912 0.298699 0.498247
3864 1 0.619481 0.310675 0.498826
3866 1 0.632182 0.302587 0.496615
3937 1 0.645356 0.306985 0.494561
3939 1 0.657169 0.309794 0.494548
3941 1 0.658623 0.298487 0.495224
3940 1 0.672519 0.301211 0.495323
3942 1 0.686345 0.306778 0.494244
3804 1 0.697931 0.309119 0.495813
3807 1 0.70084 0.296813 0.496654
3744 1 0.713902 0.303446 0.497391
3808 1 0.709186 0.312528 0.496002
3813 1 0.726418 0.305996 0.497137
3671 1 0.73829 0.308035 0.49643
3676 1 0.75463 0.299505 0.498254
3886 1 0.749327 0.311099 0.497795
3818 1 0.766021 0.302092 0.497685
3819 1 0.76175 0.313342 0.498386
3823 1 0.779721 0.306401 0.497711
3614 1 0.796258 0.308209 0.49949
3753 1 0.810153 0.307071 0.498008
3684 1 0.820818 0.300721 0.498549
3613 1 0.829291 0.308957 0.499507
3756 1 0.838708 0.301668 0.499583
3779 1 0.922031 0.309575 0.498979
3702 1 0.93432 0.307507 0.498749
3704 1 0.958509 0.303957 0.497825
3706 1 0.946141 0.305093 0.497934
3709 1 0.969556 0.29982 0.495928
915 1 0.970904 0.313578 0.497022
3568 1 0.982064 0.297516 0.495894
3708 1 0.985317 0.310115 0.495887
3570 1 0.997756 0.307931 0.495042
4062 1 0.507064 0.327107 0.496908
3781 1 0.516005 0.317854 0.496507
1046 1 0.535613 0.315986 0.496875
3784 1 0.523158 0.327637 0.497821
979 1 0.534393 0.328409 0.496305
3783 1 0.547541 0.32067 0.496416
3711 1 0.54595 0.33156 0.497365
3785 1 0.573273 0.326067 0.498364
3714 1 0.560261 0.322287 0.498666
3786 1 0.58527 0.329839 0.498323
3790 1 0.589889 0.316882 0.497436
3861 1 0.60153 0.319299 0.498183
3788 1 0.600952 0.332067 0.497551
3935 1 0.629273 0.315271 0.496112
3933 1 0.625265 0.32723 0.498101
3862 1 0.615194 0.323414 0.49849
3936 1 0.64104 0.319195 0.495401
3934 1 0.637094 0.331201 0.495622
3938 1 0.652814 0.322201 0.494798
4010 1 0.666099 0.325366 0.494617
4009 1 0.670808 0.315117 0.493888
4012 1 0.682021 0.319004 0.494283
4011 1 0.68027 0.330195 0.494444
3943 1 0.693817 0.324418 0.495186
3809 1 0.707444 0.325929 0.496831
3949 1 0.719402 0.330847 0.495891
3670 1 0.723056 0.318063 0.496008
3884 1 0.735247 0.322523 0.496762
3881 1 0.745666 0.324662 0.497983
3747 1 0.757003 0.324394 0.498144
3814 1 0.768138 0.332618 0.49837
3817 1 0.77099 0.319853 0.498793
3754 1 0.788651 0.315892 0.498624
3746 1 0.80284 0.319284 0.499797
3678 1 0.81521 0.328233 0.499768
3750 1 0.820838 0.316831 0.49897
3683 1 0.829141 0.32677 0.498585
3897 1 0.839039 0.319004 0.499679
3760 1 0.854224 0.322139 0.499893
3836 1 0.895253 0.320618 0.499798
3624 1 0.906912 0.316859 0.499851
3843 1 0.937091 0.332724 0.49885
3698 1 0.948928 0.330983 0.498194
3707 1 0.947328 0.318776 0.497211
913 1 0.958227 0.315879 0.497864
3705 1 0.962405 0.328636 0.49696
982 1 0.974915 0.325996 0.497282
3919 1 0.998944 0.321575 0.495214
3917 1 0.986871 0.323023 0.496301
1187 1 0.509516 0.339534 0.496338
1326 1 0.515445 0.350337 0.498879
1050 1 0.519997 0.338571 0.497103
1049 1 0.528007 0.346144 0.497064
3851 1 0.537887 0.340336 0.497292
4061 1 0.543862 0.348955 0.498341
3921 1 0.555496 0.346763 0.498125
3853 1 0.557026 0.334618 0.498848
3855 1 0.571194 0.339119 0.498978
3857 1 0.582448 0.341862 0.499116
3859 1 0.5926 0.344954 0.498573
3929 1 0.606404 0.347083 0.497788
3860 1 0.610771 0.335095 0.498584
3931 1 0.62136 0.340336 0.497592
3932 1 0.633938 0.342624 0.497397
4005 1 0.646857 0.346572 0.497303
4007 1 0.650595 0.335505 0.49451
4006 1 0.663451 0.337461 0.494438
4004 1 0.658971 0.350182 0.495313
4008 1 0.676835 0.341706 0.492916
4013 1 0.690988 0.335092 0.495221
4079 1 0.687836 0.347985 0.494404
3947 1 0.703353 0.338336 0.496085
4080 1 0.701164 0.350689 0.494763
4081 1 0.715539 0.343647 0.495508
3880 1 0.730751 0.333865 0.495332
3879 1 0.727581 0.346647 0.495577
3951 1 0.739054 0.34993 0.495803
3811 1 0.755477 0.33689 0.497928
3810 1 0.744612 0.338866 0.497336
3812 1 0.759009 0.347323 0.496823
3820 1 0.769683 0.351542 0.497147
3885 1 0.774277 0.342035 0.499352
3816 1 0.785302 0.34257 0.498638
3893 1 0.805071 0.350536 0.499055
3895 1 0.807811 0.33845 0.499584
3894 1 0.818915 0.347691 0.499265
3824 1 0.82285 0.335743 0.499304
3833 1 0.846086 0.340184 0.498713
3825 1 0.834384 0.339523 0.497262
3763 1 0.878657 0.347566 0.499789
3844 1 0.938271 0.345407 0.499081
3849 1 0.952717 0.343201 0.498107
3776 1 0.97689 0.338569 0.498938
3777 1 0.964478 0.340395 0.499307
3846 1 0.980547 0.350785 0.499815
3775 1 0.98954 0.335695 0.497168
1051 1 0.993381 0.347328 0.498694
1120 1 0.508258 0.3587 0.497361
4132 1 0.522227 0.365962 0.498653
1189 1 0.527897 0.356544 0.497504
3782 1 0.539274 0.358633 0.496405
3922 1 0.549736 0.361752 0.499206
3854 1 0.566511 0.352382 0.499386
3852 1 0.562244 0.363799 0.499809
3858 1 0.591171 0.357658 0.498999
3856 1 0.579316 0.355415 0.499577
3927 1 0.603254 0.361143 0.499331
3930 1 0.618807 0.352578 0.498069
3928 1 0.615023 0.36403 0.498626
4001 1 0.627372 0.368835 0.498049
4002 1 0.630663 0.354851 0.497189
4003 1 0.642499 0.358727 0.497781
4075 1 0.653892 0.362328 0.496804
4145 1 0.664473 0.363767 0.496228
4076 1 0.679651 0.359272 0.493585
4077 1 0.670701 0.35328 0.494663
4085 1 0.695856 0.363457 0.494944
3878 1 0.709289 0.367081 0.495746
3877 1 0.711248 0.355501 0.494533
3945 1 0.724164 0.357982 0.495949
4019 1 0.736048 0.361264 0.495174
3891 1 0.750946 0.35475 0.497894
3889 1 0.745629 0.366596 0.49751
3950 1 0.758124 0.370151 0.49772
3882 1 0.777596 0.362397 0.49796
3954 1 0.763137 0.360565 0.498469
3959 1 0.789899 0.366606 0.497726
3822 1 0.796349 0.358014 0.499035
3888 1 0.800663 0.368557 0.497255
3898 1 0.833221 0.352486 0.499072
3896 1 0.816492 0.360801 0.497527
3892 1 0.826938 0.363315 0.4989
3899 1 0.837902 0.367779 0.497795
3829 1 0.843909 0.355847 0.499763
3971 1 0.853262 0.363503 0.499765
3915 1 0.995354 0.358964 0.498805
1259 1 0.507023 0.371739 0.498249
3991 1 0.539138 0.371124 0.498847
3993 1 0.555404 0.372974 0.499554
1327 1 0.545518 0.387354 0.499072
1329 1 0.559368 0.382935 0.499787
3926 1 0.5863 0.370612 0.49896
3995 1 0.594238 0.386465 0.499549
3999 1 0.610754 0.376601 0.499289
4074 1 0.622656 0.379117 0.498041
4000 1 0.638407 0.37234 0.496841
4072 1 0.635442 0.384342 0.498143
4144 1 0.663195 0.377546 0.497125
4073 1 0.651686 0.374634 0.496917
4078 1 0.679516 0.370716 0.495417
4148 1 0.675016 0.384876 0.497407
4082 1 0.690067 0.374347 0.494778
4086 1 0.685446 0.386833 0.495512
4083 1 0.701878 0.380266 0.49513
3944 1 0.72111 0.370514 0.495829
3946 1 0.716557 0.381685 0.497573
3948 1 0.73324 0.374793 0.496668
4158 1 0.727523 0.387231 0.496357
4018 1 0.755505 0.381697 0.497575
4021 1 0.744345 0.379118 0.496706
3887 1 0.773021 0.375619 0.497283
3955 1 0.767395 0.386795 0.496856
4027 1 0.782998 0.378 0.498067
3960 1 0.79455 0.381418 0.498088
3890 1 0.811552 0.371344 0.497582
3961 1 0.807451 0.384872 0.499655
3963 1 0.82225 0.376998 0.498936
3901 1 0.847501 0.37345 0.498535
3968 1 0.843217 0.384162 0.497864
3969 1 0.834135 0.380303 0.498936
3900 1 0.861015 0.376593 0.49888
4065 1 0.56369 0.397052 0.498859
4135 1 0.591439 0.400039 0.498617
4067 1 0.602482 0.401284 0.498988
3998 1 0.60693 0.390291 0.499806
4070 1 0.614256 0.404511 0.498413
3996 1 0.618838 0.392715 0.499069
4143 1 0.645288 0.389243 0.498672
4071 1 0.631577 0.396854 0.497339
4141 1 0.642878 0.401745 0.497438
4139 1 0.656489 0.390102 0.497435
4140 1 0.653829 0.4047 0.497114
4146 1 0.664747 0.407169 0.497039
4149 1 0.682519 0.401288 0.495194
4147 1 0.667442 0.39527 0.496515
4219 1 0.696144 0.403364 0.495166
4014 1 0.697375 0.392105 0.496207
4151 1 0.710099 0.394371 0.497379
4015 1 0.723618 0.398866 0.496418
4088 1 0.740469 0.390025 0.497535
4087 1 0.735432 0.401653 0.495118
3957 1 0.753442 0.395461 0.495528
4094 1 0.777718 0.4037 0.496517
3883 1 0.763902 0.399152 0.496441
4030 1 0.791096 0.392356 0.496668
3952 1 0.780615 0.390667 0.496528
3958 1 0.804787 0.398029 0.498958
4034 1 0.828786 0.405441 0.49876
3962 1 0.81865 0.389881 0.498435
3967 1 0.830176 0.392626 0.49838
4035 1 0.8421 0.397558 0.496837
3964 1 0.85615 0.389839 0.499974
1398 1 0.572631 0.415443 0.498745
4134 1 0.587215 0.414534 0.498865
4069 1 0.600358 0.41542 0.499846
4202 1 0.609619 0.418625 0.497499
4068 1 0.624484 0.410176 0.497676
4205 1 0.621645 0.422241 0.496791
4207 1 0.637612 0.41356 0.497224
4138 1 0.650736 0.417546 0.496898
4215 1 0.663952 0.419121 0.497737
4142 1 0.67926 0.411554 0.496763
4217 1 0.677018 0.421863 0.499408
4084 1 0.691654 0.41454 0.496356
4214 1 0.703757 0.419487 0.495675
4016 1 0.706747 0.407742 0.49615
4155 1 0.720374 0.41136 0.496046
4224 1 0.716246 0.422793 0.495822
4020 1 0.731232 0.413999 0.495587
4089 1 0.747091 0.407549 0.496959
4095 1 0.743353 0.421014 0.496136
4023 1 0.754886 0.425304 0.497154
4091 1 0.760176 0.41159 0.496887
4017 1 0.771593 0.41579 0.497773
4026 1 0.789689 0.409434 0.49791
3953 1 0.782244 0.420276 0.498672
4103 1 0.824868 0.419229 0.499764
4105 1 0.835877 0.418592 0.49966
4175 1 0.840639 0.408749 0.498685
1260 1 0.577253 0.427349 0.498599
1330 1 0.590045 0.437699 0.495586
3992 1 0.594099 0.426232 0.497053
4063 1 0.606952 0.432544 0.497221
4273 1 0.618851 0.433435 0.495489
4206 1 0.630321 0.437235 0.496948
4137 1 0.634496 0.425965 0.497036
4208 1 0.642813 0.441817 0.498236
4211 1 0.646725 0.430426 0.497075
4209 1 0.661208 0.43248 0.498058
4281 1 0.655324 0.444231 0.496356
4212 1 0.684409 0.441249 0.496866
4210 1 0.67265 0.436208 0.497832
4213 1 0.689559 0.42841 0.496524
4280 1 0.699517 0.433072 0.496727
4153 1 0.711883 0.43683 0.496238
4152 1 0.728302 0.428025 0.495829
4282 1 0.723007 0.439299 0.494251
4159 1 0.741163 0.432454 0.495282
4090 1 0.753701 0.437539 0.496011
4093 1 0.765297 0.440461 0.498862
4022 1 0.766263 0.427466 0.498595
4024 1 0.776253 0.441158 0.499188
4025 1 0.782113 0.43084 0.499815
4099 1 0.805285 0.437795 0.499034
4031 1 0.80844 0.426192 0.499636
4178 1 0.831474 0.434519 0.499536
4171 1 0.815338 0.441675 0.49977
4203 1 0.605678 0.444504 0.495632
4131 1 0.610828 0.460641 0.49313
1400 1 0.616234 0.445714 0.495901
4133 1 0.626793 0.451008 0.495981
1390 1 0.639779 0.453665 0.495333
4275 1 0.652303 0.455843 0.496903
4345 1 0.664185 0.46005 0.496681
4277 1 0.679652 0.452184 0.496695
4279 1 0.669453 0.447582 0.496794
4150 1 0.695357 0.447113 0.496349
4220 1 0.692001 0.459238 0.496156
4221 1 0.704627 0.461885 0.494951
4225 1 0.718382 0.450495 0.493732
4216 1 0.707098 0.449867 0.494653
4154 1 0.737104 0.444934 0.494569
4157 1 0.732746 0.455073 0.494479
4229 1 0.744768 0.458962 0.496232
4162 1 0.749931 0.447566 0.495355
4096 1 0.760967 0.450733 0.496128
4170 1 0.771752 0.454293 0.498792
4243 1 0.789377 0.448042 0.499687
4169 1 0.783466 0.458324 0.497774
4098 1 0.800288 0.450433 0.498738
4247 1 0.839589 0.449731 0.499753
1540 1 0.628064 0.479024 0.491735
4136 1 0.623759 0.463619 0.493818
4271 1 0.637601 0.467331 0.495254
4419 1 0.660931 0.473291 0.494825
1470 1 0.649497 0.468018 0.494049
4351 1 0.674401 0.465763 0.496385
4278 1 0.671918 0.478438 0.494607
4343 1 0.687391 0.469447 0.495926
4218 1 0.700613 0.474417 0.493865
4226 1 0.715308 0.465176 0.493645
4289 1 0.713402 0.477222 0.494308
4156 1 0.72869 0.468695 0.494488
4160 1 0.724368 0.480004 0.494378
4163 1 0.757445 0.464616 0.496703
4164 1 0.753613 0.477063 0.49645
4092 1 0.741482 0.471881 0.496014
4167 1 0.769005 0.467963 0.496533
4234 1 0.763557 0.480025 0.496768
4313 1 0.795616 0.46409 0.497647
4174 1 0.793313 0.476816 0.497721
4237 1 0.781654 0.471621 0.495793
4242 1 0.805154 0.480099 0.498133
4100 1 0.809115 0.466999 0.49935
4244 1 0.820398 0.470817 0.499938
4245 1 0.833398 0.475592 0.499589
4272 1 0.642827 0.482294 0.492881
4276 1 0.657111 0.485314 0.492728
4204 1 0.651387 0.498296 0.492377
4293 1 0.683519 0.482135 0.495687
4344 1 0.667976 0.490938 0.493985
4417 1 0.679109 0.495168 0.495246
4353 1 0.702521 0.499533 0.496017
4287 1 0.695221 0.485423 0.494467
4283 1 0.69079 0.496363 0.496286
4288 1 0.722163 0.492334 0.494801
4223 1 0.709185 0.48954 0.49527
4227 1 0.732774 0.496515 0.49477
4165 1 0.737503 0.484334 0.495319
4235 1 0.747686 0.490192 0.496462
4236 1 0.771781 0.496441 0.496448
4232 1 0.759784 0.492413 0.496747
4097 1 0.775118 0.485813 0.495665
4166 1 0.789309 0.488869 0.496009
4240 1 0.814363 0.495722 0.497544
4314 1 0.800664 0.49331 0.496992
4383 1 0.816524 0.483432 0.499864
4315 1 0.829852 0.487724 0.498093
2942 1 0.516216 0.00604827 0.500294
3021 1 0.532159 0.0161785 0.502351
2874 1 0.528839 0.00105087 0.501422
2952 1 0.547522 0.00691849 0.501534
2953 1 0.564297 0.0125202 0.501728
2880 1 0.560846 0.00195104 0.501523
2878 1 0.576297 0.0056866 0.503337
3024 1 0.581819 0.0180276 0.501966
2810 1 0.593554 0.0116825 0.502767
2947 1 0.605516 0.00652145 0.504776
5477 1 0.623735 0.0162043 0.504466
5542 1 0.617125 0.00345298 0.505119
2817 1 0.632587 0.00949847 0.505704
2812 1 0.643812 0.00332062 0.506307
2883 1 0.661204 0.00943557 0.505434
5550 1 0.650304 0.0145708 0.505138
2826 1 0.672153 0.00215826 0.507839
2965 1 0.677812 0.0137521 0.507233
2828 1 0.689377 0.00766248 0.506061
2829 1 0.700783 0.00115574 0.505856
2902 1 0.718433 0.00562306 0.50487
5557 1 0.708289 0.0126397 0.506241
2833 1 0.734793 0.0103266 0.504074
5562 1 0.746871 0.00555979 0.503621
5563 1 0.764249 0.00979546 0.503166
5566 1 0.777381 0.00196491 0.502295
2909 1 0.782544 0.0150012 0.50273
2837 1 0.793764 0.00732052 0.502542
2842 1 0.811299 0.0135163 0.500441
2840 1 0.800258 0.0179941 0.502196
2918 1 0.822595 0.00544573 0.500695
2844 1 0.827183 0.0181654 0.502079
2841 1 0.839505 0.0116038 0.500395
5587 1 0.867129 0.00944049 0.501506
5510 1 0.856023 0.015632 0.501716
5586 1 0.884779 0.013277 0.503962
5579 1 0.878991 0.00158665 0.503489
2860 1 0.904437 0.00165359 0.503598
5516 1 0.895519 0.00736735 0.50277
2933 1 0.921918 0.00243188 0.501475
2 1 0.911772 0.0120533 0.501257
5592 1 0.937648 0.000952554 0.500262
5524 1 0.929042 0.0143423 0.500815
2866 1 0.947576 0.00856642 0.500632
2939 1 0.963468 0.0105691 0.501761
142 1 0.971418 0.00102867 0.500941
2932 1 0.981579 0.00839085 0.50011
2937 1 0.991869 0.0130887 0.500545
3088 1 0.534544 0.0288119 0.501697
2943 1 0.521522 0.0192679 0.500395
3019 1 0.522945 0.0326782 0.500785
2950 1 0.546715 0.0233115 0.501913
3157 1 0.550792 0.0357386 0.502623
3089 1 0.557041 0.0214138 0.502165
3090 1 0.56198 0.031995 0.502033
2954 1 0.571325 0.0237686 0.502879
2951 1 0.587273 0.0297549 0.502558
3020 1 0.578239 0.0366322 0.502828
2808 1 0.610297 0.019425 0.503309
3022 1 0.604236 0.0359965 0.501605
2955 1 0.597395 0.0245118 0.502842
2814 1 0.617387 0.0304071 0.503056
2884 1 0.629439 0.0263536 0.502952
2894 1 0.639377 0.021277 0.506013
2815 1 0.645645 0.0320275 0.503747
3032 1 0.657254 0.0266002 0.50424
5554 1 0.666016 0.0202524 0.506656
2818 1 0.673342 0.0310244 0.507623
2827 1 0.682844 0.0251336 0.506655
5561 1 0.696847 0.0192149 0.508057
2972 1 0.689128 0.03703 0.507285
2966 1 0.699011 0.0301019 0.506606
2901 1 0.713507 0.0249955 0.506096
2904 1 0.721618 0.0365084 0.505891
3033 1 0.724695 0.0187515 0.504593
2975 1 0.729838 0.0291368 0.505116
2831 1 0.756049 0.018934 0.503685
2834 1 0.743368 0.0228567 0.504515
2908 1 0.750402 0.0334754 0.504923
2836 1 0.76222 0.0267467 0.502839
2905 1 0.771098 0.020031 0.503158
2835 1 0.765567 0.0367651 0.504078
2839 1 0.788933 0.0257483 0.50226
2910 1 0.778401 0.0309931 0.502755
5564 1 0.793305 0.0365354 0.500662
2912 1 0.804873 0.0290298 0.500685
2917 1 0.816986 0.0239654 0.501168
2987 1 0.822629 0.0351122 0.500604
5580 1 0.844698 0.0212518 0.501616
2850 1 0.85112 0.0340249 0.501753
2919 1 0.833595 0.0289717 0.500445
3063 1 0.862349 0.0267357 0.502496
2922 1 0.880198 0.0269357 0.503904
5581 1 0.874062 0.0186866 0.502504
2923 1 0.871529 0.0326868 0.503371
2854 1 0.902018 0.0195139 0.503242
2852 1 0.891074 0.0240656 0.503312
2855 1 0.896068 0.0363617 0.504038
2864 1 0.922323 0.0222907 0.502214
2856 1 0.908148 0.0305337 0.502244
141 1 0.940959 0.0188858 0.501911
5598 1 0.926703 0.0338179 0.50225
2865 1 0.937182 0.0314859 0.501635
2863 1 0.956015 0.0196573 0.50182
2867 1 0.948065 0.0272907 0.502251
282 1 0.955265 0.034941 0.501667
2940 1 0.973973 0.0195355 0.503142
78 1 0.966895 0.0276637 0.503468
3009 1 0.983779 0.034894 0.502374
2936 1 0.985088 0.0237051 0.501894
72 1 0.994302 0.0320808 0.500133
3161 1 0.52792 0.0442426 0.500426
3023 1 0.539765 0.0403811 0.502356
3226 1 0.544837 0.0507525 0.502447
3160 1 0.55583 0.0473954 0.501718
3093 1 0.567538 0.0434115 0.503078
3026 1 0.583257 0.0510281 0.502217
2949 1 0.592657 0.0430431 0.501938
3091 1 0.598963 0.0533425 0.501152
2957 1 0.610043 0.0500023 0.501758
2888 1 0.621868 0.0429132 0.501918
2887 1 0.628755 0.0540433 0.501736
2816 1 0.634326 0.038677 0.501931
2819 1 0.640534 0.0490691 0.502229
2892 1 0.661312 0.0389953 0.506101
2896 1 0.650194 0.0436257 0.503134
3031 1 0.657366 0.0551879 0.503222
5558 1 0.678532 0.0426524 0.505979
2897 1 0.668262 0.0489026 0.5058
2962 1 0.685331 0.0544464 0.506139
2890 1 0.696252 0.0467894 0.506561
2898 1 0.707704 0.0406836 0.505133
3041 1 0.715302 0.0500396 0.505663
2977 1 0.739645 0.0401517 0.505682
2900 1 0.727418 0.0456479 0.503803
2969 1 0.756073 0.0451561 0.503911
2967 1 0.744743 0.0516865 0.503887
2832 1 0.774373 0.0413718 0.502662
2978 1 0.773341 0.051121 0.501857
2976 1 0.761056 0.0554916 0.503197
2979 1 0.78853 0.0552896 0.5019
2906 1 0.785247 0.0439146 0.502694
2983 1 0.800178 0.0467454 0.501778
2985 1 0.810486 0.0397032 0.500374
2984 1 0.817977 0.0526372 0.50159
3057 1 0.828066 0.047279 0.50146
2988 1 0.847149 0.0525946 0.50246
2914 1 0.839848 0.0400181 0.501859
2991 1 0.866085 0.0450965 0.502462
2989 1 0.855607 0.0452987 0.502962
2924 1 0.874089 0.052485 0.505116
2995 1 0.88387 0.0421706 0.503753
2925 1 0.901382 0.0479582 0.503649
3064 1 0.890551 0.0545732 0.505327
2927 1 0.914476 0.04259 0.503922
2868 1 0.932289 0.049248 0.504258
2934 1 0.944502 0.0405583 0.503363
3004 1 0.951066 0.0513094 0.505879
3007 1 0.959335 0.044165 0.504125
288 1 0.973203 0.0387847 0.502548
74 1 0.976457 0.0523551 0.503504
285 1 0.9868 0.0475794 0.50157
3006 1 0.999721 0.042151 0.500488
3159 1 0.532241 0.0557474 0.501437
3231 1 0.535732 0.0697054 0.501391
3233 1 0.546748 0.0648677 0.502272
3092 1 0.570582 0.0569688 0.502196
3163 1 0.559681 0.0613862 0.503345
3097 1 0.56503 0.0736055 0.501306
3028 1 0.589181 0.06104 0.501976
3095 1 0.57751 0.0659216 0.501389
3099 1 0.594546 0.0717164 0.501471
3027 1 0.606017 0.0674149 0.502307
2959 1 0.616308 0.0606578 0.500745
3100 1 0.623692 0.0714078 0.501902
5474 1 0.646652 0.0610306 0.500993
3169 1 0.635269 0.0660163 0.500968
2885 1 0.650925 0.0713982 0.502983
2830 1 0.661225 0.0663426 0.504453
2886 1 0.675009 0.0612815 0.505449
3035 1 0.67899 0.072605 0.504903
3034 1 0.690994 0.0644631 0.506588
3037 1 0.702218 0.0584865 0.506405
3029 1 0.720948 0.062039 0.505706
2970 1 0.709645 0.0683726 0.505475
3038 1 0.733509 0.0582697 0.503986
2968 1 0.738616 0.0694326 0.503785
2973 1 0.750786 0.0638058 0.505094
2974 1 0.757735 0.0735979 0.502598
3043 1 0.767973 0.0664123 0.501753
2980 1 0.778302 0.0606895 0.502625
3051 1 0.79487 0.0638812 0.501103
2981 1 0.806036 0.0574839 0.500953
2982 1 0.812811 0.0676648 0.50031
3055 1 0.824447 0.0623831 0.50096
2990 1 0.841627 0.0705534 0.500894
2993 1 0.851248 0.0635357 0.503065
2986 1 0.836291 0.057411 0.501918
2994 1 0.862139 0.0598952 0.503357
3059 1 0.859318 0.0739871 0.501789
2992 1 0.869983 0.0696322 0.50463
3061 1 0.880705 0.0613904 0.50447
2996 1 0.88646 0.0728663 0.505085
2997 1 0.896559 0.0665505 0.504879
2928 1 0.920024 0.0556047 0.504678
2926 1 0.908647 0.0597196 0.505083
3001 1 0.913977 0.070385 0.504236
3003 1 0.929054 0.0632854 0.505168
2930 1 0.941065 0.0567486 0.50649
2935 1 0.9432 0.0695097 0.50701
214 1 0.954404 0.0661789 0.506144
2931 1 0.964491 0.0591797 0.505429
213 1 0.970308 0.0689414 0.506064
3010 1 0.981236 0.0737736 0.503872
6 1 0.982022 0.0630185 0.503977
145 1 0.991464 0.0592333 0.500257
281 1 0.993764 0.0717438 0.501584
3367 1 0.518097 0.088811 0.50028
3228 1 0.551669 0.0775406 0.502333
3229 1 0.540888 0.0830449 0.501041
3235 1 0.571314 0.0836964 0.502268
3232 1 0.560092 0.0861847 0.502242
3162 1 0.589162 0.089002 0.502794
3237 1 0.58165 0.0778862 0.501778
3094 1 0.599941 0.0824682 0.502055
2958 1 0.612486 0.0778088 0.500602
3164 1 0.618039 0.0886721 0.500826
3025 1 0.627374 0.0841943 0.502701
2961 1 0.639075 0.0784751 0.502352
3244 1 0.646192 0.0865007 0.504385
3101 1 0.657863 0.0823061 0.504797
3103 1 0.662365 0.0922971 0.505353
3030 1 0.668639 0.0767614 0.505635
2963 1 0.6731 0.0870354 0.507776
2889 1 0.698186 0.0757139 0.507351
3171 1 0.686656 0.0803182 0.507248
3109 1 0.693322 0.090444 0.50802
2960 1 0.703661 0.08491 0.506579
3173 1 0.715121 0.0793167 0.505617
3039 1 0.721061 0.0907954 0.506244
2964 1 0.727396 0.07441 0.506571
3040 1 0.733443 0.0849834 0.504299
2971 1 0.747205 0.0783233 0.504924
3044 1 0.752101 0.0907097 0.504367
3045 1 0.763613 0.083374 0.501786
3047 1 0.774468 0.077782 0.500472
3048 1 0.782006 0.0891659 0.500908
3050 1 0.789378 0.0806811 0.500703
3052 1 0.802268 0.0740998 0.500224
3123 1 0.807325 0.0854891 0.500224
3054 1 0.824269 0.0917129 0.500268
3129 1 0.849159 0.0790158 0.500087
3128 1 0.852924 0.0908337 0.500891
3060 1 0.864662 0.0852463 0.502758
3133 1 0.880921 0.0902144 0.503244
3062 1 0.875584 0.0796357 0.503702
3067 1 0.90338 0.0779147 0.504675
3065 1 0.891411 0.0843999 0.504108
2999 1 0.919905 0.0818089 0.504555
3000 1 0.910215 0.0885506 0.504396
3075 1 0.936737 0.0835071 0.506881
2998 1 0.930075 0.074601 0.505139
3002 1 0.926287 0.0920038 0.505528
3072 1 0.962377 0.0761193 0.506449
3071 1 0.948355 0.0813772 0.506829
3141 1 0.957826 0.0883969 0.505889
3145 1 0.969644 0.0843555 0.506503
211 1 0.982064 0.0845281 0.504064
3073 1 0.995944 0.0847946 0.502914
3363 1 0.511095 0.107171 0.500413
3299 1 0.535421 0.0977192 0.500392
3166 1 0.547275 0.0931808 0.501642
3300 1 0.550635 0.108156 0.500701
3234 1 0.56236 0.0980566 0.501471
3098 1 0.577316 0.0970039 0.501911
3239 1 0.587283 0.108114 0.501493
3096 1 0.595771 0.0997605 0.501754
3167 1 0.606501 0.0933009 0.501569
3378 1 0.601968 0.11102 0.500777
3241 1 0.612701 0.105918 0.501168
3170 1 0.623529 0.100463 0.502805
3165 1 0.634559 0.0938111 0.5022
3102 1 0.639557 0.105654 0.503618
3317 1 0.659536 0.107847 0.504226
3168 1 0.651081 0.0975718 0.505851
3174 1 0.681258 0.0952407 0.506406
3036 1 0.671159 0.101698 0.505451
3105 1 0.686684 0.106961 0.50558
3108 1 0.697476 0.10148 0.507073
3110 1 0.718536 0.10783 0.505799
3107 1 0.710982 0.0966304 0.506136
3111 1 0.705207 0.110286 0.503924
3112 1 0.729726 0.0996349 0.505421
3042 1 0.740842 0.0954866 0.505054
3115 1 0.757399 0.10042 0.50207
3113 1 0.746833 0.10681 0.504632
3046 1 0.768581 0.0956541 0.50104
3117 1 0.775525 0.106351 0.501746
3122 1 0.793161 0.110759 0.501357
3119 1 0.785883 0.100529 0.50133
3193 1 0.803644 0.103884 0.500247
3121 1 0.799324 0.0928596 0.501258
3124 1 0.813718 0.0973396 0.500039
3126 1 0.822245 0.107649 0.500124
3197 1 0.858802 0.102221 0.500128
3130 1 0.869427 0.0973411 0.50191
3134 1 0.876118 0.107872 0.50089
3135 1 0.886112 0.101044 0.501966
3066 1 0.898561 0.0948649 0.503114
3068 1 0.905028 0.10629 0.503469
3069 1 0.915928 0.100291 0.503858
3070 1 0.924052 0.110307 0.502495
3077 1 0.933833 0.104222 0.5047
3008 1 0.943421 0.0972794 0.505187
3143 1 0.955816 0.102136 0.506901
3078 1 0.96971 0.099543 0.504271
286 1 0.996087 0.1098 0.503135
3079 1 0.995782 0.0979929 0.504183
3080 1 0.983186 0.0966242 0.505268
3434 1 0.50283 0.123392 0.501413
3294 1 0.515396 0.11843 0.500787
557 1 0.500334 0.111527 0.501127
489 1 0.532345 0.124838 0.500102
3369 1 0.526868 0.114264 0.500469
3304 1 0.544479 0.121467 0.50122
3371 1 0.559842 0.123921 0.502213
3230 1 0.561592 0.112684 0.50076
3377 1 0.568345 0.129174 0.501458
3238 1 0.573169 0.111493 0.501238
3308 1 0.579447 0.123802 0.502229
3306 1 0.590465 0.11879 0.502201
3307 1 0.608308 0.124095 0.502321
3240 1 0.618288 0.117359 0.502643
3172 1 0.626014 0.127408 0.501976
3245 1 0.629555 0.113162 0.501746
3104 1 0.636953 0.12339 0.5018
3243 1 0.648007 0.113449 0.503139
3313 1 0.65507 0.12543 0.501596
3246 1 0.665914 0.118096 0.501958
3318 1 0.682895 0.122903 0.503899
3247 1 0.677649 0.112178 0.503578
3175 1 0.694343 0.119304 0.504632
3177 1 0.710981 0.124686 0.504695
3181 1 0.721738 0.118819 0.503789
3184 1 0.739287 0.124129 0.503538
3183 1 0.735047 0.113108 0.504193
3114 1 0.754407 0.118624 0.503924
3116 1 0.764632 0.113279 0.50417
3187 1 0.770651 0.124336 0.502267
3189 1 0.787054 0.129245 0.500446
3118 1 0.781551 0.118412 0.502676
3191 1 0.811632 0.113449 0.500968
3120 1 0.799452 0.121108 0.500492
3190 1 0.815095 0.125435 0.500022
3201 1 0.866094 0.114436 0.501048
3199 1 0.855251 0.120829 0.501029
3132 1 0.870097 0.125385 0.500089
3136 1 0.882531 0.118809 0.500917
3205 1 0.886716 0.12957 0.500478
3137 1 0.89325 0.111572 0.501997
3138 1 0.89734 0.123211 0.501814
3139 1 0.91044 0.116887 0.502642
3140 1 0.916862 0.127716 0.502502
3074 1 0.938549 0.116421 0.50426
3142 1 0.92843 0.121637 0.502762
3213 1 0.943236 0.128908 0.503507
3076 1 0.94982 0.112039 0.503879
3146 1 0.956395 0.123949 0.504
3352 1 0.968725 0.112893 0.503819
3219 1 0.970742 0.127564 0.50379
3148 1 0.982193 0.111669 0.503006
144 1 0.998228 0.122377 0.501521
356 1 0.985036 0.123645 0.502788
626 1 0.51028 0.145718 0.500331
3364 1 0.508531 0.133958 0.50032
488 1 0.518513 0.129808 0.500396
3437 1 0.522234 0.142843 0.50138
3366 1 0.536357 0.136707 0.501472
3370 1 0.550969 0.133967 0.502516
3303 1 0.552195 0.145947 0.501757
3507 1 0.562876 0.141784 0.502144
3301 1 0.57502 0.138675 0.503274
3305 1 0.586218 0.136766 0.502916
3302 1 0.597277 0.130081 0.502871
3373 1 0.602655 0.140339 0.503282
3375 1 0.593886 0.145784 0.503027
3446 1 0.613981 0.135319 0.50289
3176 1 0.620928 0.145857 0.502651
3381 1 0.632666 0.140849 0.502131
3310 1 0.644221 0.133106 0.502254
3385 1 0.646462 0.144369 0.501911
3312 1 0.662284 0.136315 0.501091
3242 1 0.672932 0.130216 0.501516
3316 1 0.677968 0.141119 0.501972
3106 1 0.701429 0.131095 0.504904
3389 1 0.690311 0.136153 0.503042
3320 1 0.693506 0.148008 0.505803
3179 1 0.717296 0.138318 0.505583
3180 1 0.70751 0.142926 0.504237
3249 1 0.724027 0.147051 0.504027
3182 1 0.729319 0.132159 0.505008
3250 1 0.736569 0.141586 0.503548
3185 1 0.75886 0.130791 0.502071
3253 1 0.745386 0.135111 0.502758
3254 1 0.751878 0.146311 0.502481
3255 1 0.765705 0.140023 0.500623
3186 1 0.776736 0.135479 0.501407
3188 1 0.780096 0.146945 0.501135
3261 1 0.792244 0.139479 0.500141
3206 1 0.882793 0.147752 0.500088
3207 1 0.893152 0.140754 0.500091
3209 1 0.90374 0.131712 0.501696
3211 1 0.920808 0.13751 0.501487
3208 1 0.909636 0.143368 0.501408
3281 1 0.939187 0.144454 0.502404
3210 1 0.932495 0.133336 0.50195
3144 1 0.949823 0.140007 0.501812
3215 1 0.960077 0.134152 0.500734
3214 1 0.97624 0.137096 0.500902
3287 1 0.966312 0.144171 0.501292
3149 1 0.98807 0.137976 0.501623
3433 1 0.503049 0.162367 0.501896
3436 1 0.515131 0.156805 0.501937
3439 1 0.528446 0.153333 0.501714
3579 1 0.53236 0.16634 0.500603
3581 1 0.544977 0.162836 0.5016
3435 1 0.539981 0.149294 0.500913
3440 1 0.568287 0.153356 0.502729
3236 1 0.556386 0.158342 0.502351
3374 1 0.579443 0.149769 0.503014
3379 1 0.586758 0.161668 0.502658
3376 1 0.574423 0.164878 0.502928
3511 1 0.598267 0.157711 0.503464
3382 1 0.609044 0.151972 0.502816
3443 1 0.623331 0.15955 0.503262
3445 1 0.614232 0.165771 0.504442
3388 1 0.636921 0.153076 0.501858
3315 1 0.64342 0.163438 0.503231
3387 1 0.655017 0.149535 0.502622
3449 1 0.653738 0.162789 0.502595
3386 1 0.666274 0.148961 0.502386
3519 1 0.670802 0.159522 0.501359
3314 1 0.682184 0.153097 0.502432
3391 1 0.703164 0.159971 0.504532
3521 1 0.689879 0.164867 0.50282
3251 1 0.713637 0.154355 0.504719
3248 1 0.720162 0.16509 0.503059
3321 1 0.731108 0.159666 0.503005
3252 1 0.741264 0.152824 0.503036
3325 1 0.74793 0.162665 0.50087
3256 1 0.758396 0.156059 0.500832
3277 1 0.899747 0.150453 0.500623
3279 1 0.906293 0.160876 0.500097
3351 1 0.917102 0.155608 0.500345
3283 1 0.927544 0.151425 0.50181
3285 1 0.955367 0.149342 0.500458
628 1 0.508174 0.174264 0.502885
3441 1 0.518997 0.169291 0.501305
3438 1 0.525137 0.179987 0.502478
3506 1 0.538115 0.176774 0.502176
3577 1 0.551304 0.175198 0.503551
3372 1 0.562741 0.169656 0.504304
3510 1 0.567487 0.18179 0.504699
3515 1 0.590314 0.17368 0.502823
3447 1 0.579669 0.177273 0.50331
3380 1 0.603469 0.169442 0.503262
3309 1 0.607177 0.181604 0.504485
3444 1 0.619702 0.178138 0.503713
3311 1 0.631619 0.168103 0.504997
3455 1 0.641064 0.177604 0.503298
3585 1 0.633635 0.184543 0.504187
3452 1 0.663816 0.167216 0.502583
3518 1 0.651953 0.175584 0.502366
3529 1 0.667951 0.178157 0.502451
3384 1 0.680137 0.171704 0.502422
3457 1 0.684155 0.182382 0.50291
3459 1 0.69785 0.176853 0.502992
3461 1 0.714909 0.180893 0.504115
3178 1 0.707779 0.171212 0.504373
3319 1 0.737667 0.171487 0.501997
3463 1 0.726469 0.176405 0.503221
3322 1 0.744148 0.180083 0.501228
3326 1 0.754663 0.174871 0.500458
3323 1 0.759216 0.184952 0.500821
3327 1 0.765337 0.168078 0.500645
3641 1 0.517732 0.197547 0.503116
3431 1 0.514016 0.185249 0.503431
3571 1 0.507789 0.200726 0.502731
3502 1 0.528288 0.19264 0.501919
3578 1 0.55511 0.188012 0.505124
3505 1 0.546954 0.199864 0.502656
3432 1 0.54191 0.188737 0.502629
3508 1 0.561217 0.200025 0.502944
3514 1 0.571687 0.194016 0.503421
3582 1 0.58277 0.190176 0.503106
3509 1 0.588505 0.203055 0.502351
3383 1 0.595378 0.187112 0.501968
3442 1 0.599712 0.197122 0.503483
3450 1 0.613439 0.194418 0.504206
3587 1 0.624237 0.192287 0.504784
3589 1 0.64611 0.192385 0.504107
3448 1 0.635742 0.200947 0.505203
3525 1 0.656312 0.186347 0.503356
3451 1 0.663448 0.195261 0.503368
3526 1 0.67413 0.190373 0.502982
3732 1 0.681182 0.199357 0.502843
3458 1 0.693061 0.196012 0.503578
3456 1 0.701531 0.187628 0.503114
3465 1 0.713078 0.191396 0.502147
3533 1 0.707128 0.200944 0.503018
3464 1 0.730885 0.186714 0.500772
3523 1 0.725316 0.195785 0.501257
768 1 0.512112 0.21209 0.501574
3576 1 0.535821 0.206069 0.501899
3573 1 0.524616 0.210459 0.501059
3574 1 0.549743 0.213342 0.50178
3713 1 0.538551 0.219068 0.500958
3643 1 0.565366 0.210893 0.502694
3583 1 0.568073 0.221994 0.501339
3504 1 0.5767 0.20608 0.502251
3657 1 0.579682 0.21756 0.501987
3588 1 0.592755 0.214087 0.501744
3512 1 0.606364 0.210203 0.502198
3517 1 0.623727 0.209861 0.503249
3663 1 0.629942 0.218159 0.501917
3527 1 0.641454 0.212506 0.503668
3392 1 0.653717 0.206832 0.504783
3593 1 0.659479 0.219145 0.502891
3390 1 0.665912 0.208422 0.503475
3591 1 0.675875 0.208366 0.501871
3453 1 0.671682 0.22142 0.501926
3460 1 0.695696 0.205967 0.501721
3596 1 0.696651 0.216267 0.501445
3595 1 0.685481 0.213472 0.500933
3462 1 0.713073 0.21053 0.502575
3532 1 0.707493 0.220027 0.501076
3667 1 0.722897 0.208757 0.502718
3469 1 0.736325 0.215775 0.500489
3394 1 0.750131 0.204612 0.500032
3649 1 0.555419 0.224958 0.502298
3575 1 0.543164 0.23072 0.500256
3580 1 0.571052 0.233763 0.50238
3650 1 0.55659 0.236023 0.50088
3660 1 0.581637 0.229337 0.501301
3516 1 0.592929 0.234502 0.501425
3659 1 0.600413 0.224905 0.50235
3520 1 0.616143 0.224595 0.500555
3661 1 0.62282 0.234778 0.500829
3454 1 0.633643 0.228792 0.501163
3522 1 0.646226 0.222861 0.502754
3664 1 0.640323 0.237937 0.501605
3733 1 0.656207 0.232757 0.501541
3666 1 0.683172 0.225937 0.501248
3592 1 0.667364 0.233887 0.501939
3594 1 0.679692 0.23853 0.500177
3739 1 0.693137 0.228705 0.500537
3528 1 0.721459 0.224573 0.501912
3530 1 0.704541 0.232029 0.500133
3531 1 0.733409 0.227341 0.501668
3586 1 0.572079 0.246474 0.500607
3654 1 0.589943 0.252198 0.500136
3656 1 0.583726 0.242015 0.501315
3590 1 0.599506 0.243873 0.500553
3730 1 0.634661 0.249048 0.500493
3735 1 0.651137 0.24349 0.50108
3734 1 0.662025 0.244438 0.500004
3736 1 0.686921 0.25545 0.50015
3602 1 0.701938 0.245089 0.500535
3524 1 0.730129 0.240927 0.500886
3731 1 0.594268 0.263078 0.501941
3727 1 0.605335 0.267391 0.50045
3668 1 0.714198 0.261881 0.501068
3724 1 0.601287 0.278989 0.500817
3687 1 0.8599 0.286138 0.501671
3561 1 0.878872 0.287212 0.500805
3621 1 0.87211 0.28014 0.500329
3553 1 0.894267 0.292729 0.500276
3618 1 0.847952 0.310775 0.500071
3757 1 0.85828 0.302863 0.501164
3759 1 0.865061 0.313015 0.501081
3697 1 0.882582 0.297205 0.501059
3693 1 0.874138 0.306664 0.501769
3689 1 0.88641 0.311402 0.500656
3766 1 0.893799 0.30271 0.502228
3690 1 0.903838 0.303939 0.500365
3691 1 0.915206 0.302758 0.500392
3821 1 0.784993 0.328479 0.500047
3752 1 0.79912 0.331133 0.500437
3826 1 0.845802 0.329971 0.500939
3827 1 0.859395 0.330963 0.501889
3831 1 0.87166 0.32415 0.500698
3765 1 0.8828 0.321996 0.500235
3701 1 0.911335 0.326157 0.500534
3761 1 0.92107 0.320137 0.500823
3694 1 0.926049 0.332964 0.500624
3772 1 0.933982 0.318747 0.500328
3965 1 0.796381 0.344113 0.50039
3830 1 0.852597 0.3487 0.500451
3828 1 0.861993 0.341197 0.50126
3688 1 0.886045 0.334812 0.500429
3837 1 0.872448 0.336299 0.500582
3835 1 0.890571 0.347129 0.501788
3839 1 0.8989 0.333608 0.500706
3767 1 0.901759 0.344178 0.500878
3699 1 0.915061 0.350843 0.502243
3770 1 0.913899 0.339717 0.501325
3909 1 0.926835 0.348599 0.50137
3925 1 0.574417 0.366598 0.500217
3956 1 0.786302 0.354277 0.500462
3903 1 0.866085 0.365932 0.500035
3762 1 0.863053 0.353365 0.500137
3832 1 0.878037 0.360911 0.500678
3911 1 0.903807 0.355762 0.502218
3768 1 0.890344 0.359184 0.501219
3914 1 0.907276 0.368722 0.500902
3840 1 0.917213 0.364379 0.500306
3769 1 0.93009 0.364075 0.500776
3913 1 0.942439 0.358821 0.500291
3841 1 0.959375 0.369846 0.500712
3984 1 0.955178 0.35606 0.500373
3981 1 0.968266 0.353816 0.500841
4057 1 0.971041 0.367272 0.501299
3847 1 0.982782 0.362573 0.50019
3923 1 0.570055 0.378609 0.500494
3924 1 0.583737 0.382754 0.500089
3997 1 0.599617 0.372902 0.500901
3838 1 0.882936 0.373469 0.50148
3904 1 0.871417 0.37991 0.501373
3834 1 0.885577 0.388528 0.501117
3973 1 0.894564 0.371807 0.500715
3905 1 0.896656 0.385992 0.501342
3976 1 0.909088 0.383536 0.501843
3908 1 0.92118 0.379225 0.501057
3907 1 0.931466 0.377663 0.501367
3842 1 0.943563 0.371559 0.50129
3912 1 0.948757 0.385225 0.501997
4051 1 0.962154 0.383007 0.501615
3989 1 0.973211 0.379615 0.500645
3916 1 0.988379 0.373912 0.500133
3845 1 0.989486 0.388747 0.500241
4064 1 0.574163 0.391598 0.501173
3994 1 0.580791 0.399925 0.500459
4029 1 0.815973 0.403639 0.50135
3966 1 0.85422 0.402967 0.500183
3970 1 0.866177 0.40575 0.500217
4041 1 0.868479 0.393894 0.500408
3902 1 0.878819 0.396088 0.500067
3906 1 0.889316 0.400767 0.501438
3974 1 0.899966 0.398376 0.501704
4049 1 0.915345 0.406629 0.502196
3975 1 0.923875 0.392834 0.502612
3978 1 0.910704 0.394487 0.502205
3910 1 0.936816 0.389315 0.501946
3977 1 0.939933 0.400888 0.50202
3980 1 0.928462 0.404626 0.502102
3979 1 0.951863 0.396886 0.502017
3990 1 0.977137 0.389016 0.502451
4056 1 0.980481 0.402017 0.501597
4128 1 0.964342 0.393962 0.502365
3983 1 0.967686 0.405506 0.501239
3987 1 0.993039 0.402233 0.501337
4033 1 0.810993 0.414181 0.500034
4101 1 0.796882 0.423947 0.500411
4032 1 0.799511 0.411395 0.500773
4037 1 0.866379 0.417273 0.501961
4036 1 0.852755 0.413877 0.501811
3972 1 0.879488 0.407466 0.501106
4038 1 0.880595 0.418696 0.502395
4045 1 0.8885 0.423807 0.502852
4039 1 0.891915 0.411942 0.502175
4043 1 0.902962 0.413073 0.501616
4044 1 0.906806 0.424525 0.503048
4120 1 0.916589 0.419138 0.502734
4119 1 0.928696 0.418575 0.501237
4194 1 0.941462 0.412433 0.502114
4123 1 0.955154 0.40873 0.501894
4122 1 0.956441 0.420751 0.501233
4050 1 0.946363 0.421963 0.500619
4055 1 0.968901 0.416011 0.50188
4129 1 0.981987 0.415951 0.500628
1193 1 0.996628 0.412831 0.501232
4127 1 0.998357 0.424787 0.502029
4028 1 0.793102 0.436154 0.501428
4172 1 0.821411 0.429463 0.500385
4107 1 0.846263 0.427834 0.500495
4104 1 0.843131 0.438196 0.502289
4109 1 0.859202 0.429478 0.501385
4106 1 0.85699 0.442406 0.501421
4042 1 0.872644 0.432543 0.501261
4040 1 0.884494 0.436391 0.503333
4048 1 0.897894 0.441285 0.502259
4115 1 0.896772 0.430484 0.502868
4257 1 0.907863 0.442755 0.503952
4046 1 0.924311 0.427318 0.502523
4047 1 0.915215 0.433729 0.502506
4188 1 0.936141 0.429932 0.501948
4187 1 0.935486 0.441272 0.501774
4195 1 0.962866 0.441093 0.501667
4052 1 0.948214 0.436092 0.502164
4199 1 0.959813 0.431128 0.501214
4124 1 0.972889 0.429945 0.501154
4125 1 0.9748 0.44172 0.500664
1263 1 0.998686 0.437875 0.502251
4189 1 0.98485 0.427041 0.501184
4121 1 0.988151 0.439271 0.50306
4102 1 0.811811 0.45514 0.500575
4176 1 0.82695 0.446851 0.500164
4173 1 0.824849 0.458242 0.50091
4108 1 0.868643 0.445699 0.501571
4112 1 0.866216 0.459269 0.502181
4177 1 0.85252 0.453801 0.500651
4116 1 0.878209 0.461209 0.502309
4111 1 0.881746 0.449002 0.502561
4118 1 0.902718 0.461622 0.502527
4113 1 0.894903 0.451969 0.503072
4186 1 0.924599 0.445069 0.503355
4261 1 0.912161 0.45361 0.502741
4335 1 0.940469 0.453143 0.502056
4117 1 0.927958 0.457113 0.502732
4190 1 0.954157 0.460128 0.501641
4191 1 0.950541 0.447234 0.501472
4263 1 0.965335 0.454545 0.502397
4193 1 0.977227 0.453397 0.502103
1334 1 0.990879 0.452004 0.502045
4248 1 0.845933 0.477103 0.501511
4180 1 0.849105 0.464426 0.500806
4246 1 0.836292 0.463088 0.5012
4385 1 0.858633 0.480231 0.501337
4181 1 0.862869 0.469835 0.501848
4183 1 0.886115 0.478924 0.503426
4179 1 0.874042 0.472744 0.503041
4185 1 0.901069 0.480524 0.503656
4114 1 0.8902 0.466776 0.504345
4325 1 0.920473 0.467965 0.502637
4255 1 0.909217 0.471626 0.502921
4327 1 0.941947 0.46987 0.501949
4259 1 0.928884 0.473646 0.501915
4337 1 0.955462 0.472402 0.500437
4339 1 0.980347 0.478072 0.501917
4198 1 0.979516 0.465539 0.501834
1471 1 0.968083 0.479858 0.502338
4264 1 0.966372 0.468026 0.502718
4267 1 0.992471 0.47647 0.503605
1401 1 0.991772 0.464585 0.504327
4249 1 0.841897 0.490617 0.500404
4182 1 0.867405 0.496754 0.500591
4251 1 0.854518 0.493674 0.500004
4184 1 0.881964 0.491907 0.501015
4110 1 0.872004 0.486542 0.501943
4258 1 0.896466 0.495009 0.503299
4323 1 0.9094 0.491646 0.503227
4475 1 0.921545 0.496684 0.502454
4256 1 0.917743 0.482484 0.503399
4329 1 0.933578 0.498084 0.503689
4260 1 0.942521 0.483235 0.502414
4331 1 0.930392 0.486599 0.502286
4405 1 0.944975 0.495417 0.502955
4334 1 0.956835 0.495392 0.501897
4333 1 0.955636 0.482478 0.502173
4268 1 0.970317 0.493074 0.502296
4269 1 0.984231 0.489431 0.502796
1541 1 0.9972 0.488933 0.502553
4066 1 0.506987 0.387725 0.68237
1399 1 0.659648 0.51641 0.492875
4350 1 0.664332 0.502308 0.492371
4285 1 0.676293 0.507719 0.494603
4284 1 0.689272 0.511744 0.496323
4352 1 0.699782 0.514571 0.497518
4422 1 0.717015 0.504403 0.495486
4424 1 0.710838 0.516215 0.496212
4291 1 0.727649 0.508708 0.495869
4296 1 0.739648 0.511605 0.494136
4233 1 0.754735 0.504284 0.497106
4161 1 0.752045 0.516224 0.495321
4297 1 0.74369 0.501544 0.495697
4301 1 0.769305 0.509427 0.496641
4373 1 0.779687 0.512865 0.496869
4239 1 0.792864 0.515809 0.496701
4168 1 0.783471 0.501255 0.497084
4303 1 0.796567 0.503882 0.496259
4230 1 0.808268 0.506252 0.497592
4238 1 0.821924 0.51175 0.497574
4381 1 0.826661 0.500418 0.497635
4380 1 0.833992 0.514038 0.498208
4310 1 0.838788 0.503043 0.498807
4319 1 0.850072 0.50491 0.499841
4274 1 0.65785 0.528859 0.493506
4342 1 0.672415 0.519538 0.494254
4495 1 0.678741 0.534856 0.49569
4201 1 0.668679 0.53285 0.494893
4420 1 0.684877 0.524053 0.495336
1467 1 0.695576 0.525926 0.496034
4349 1 0.709498 0.530355 0.496429
4423 1 0.722947 0.534139 0.4953
4355 1 0.723331 0.52245 0.495514
4222 1 0.735861 0.523901 0.494934
4369 1 0.748423 0.528844 0.495549
4366 1 0.760239 0.534001 0.497021
4231 1 0.762905 0.521637 0.497337
4299 1 0.778148 0.525093 0.496757
4306 1 0.790201 0.528935 0.496844
4371 1 0.802242 0.532285 0.498434
4241 1 0.804875 0.51918 0.497544
4309 1 0.813245 0.535933 0.498772
4312 1 0.817919 0.522382 0.49751
4379 1 0.831659 0.52483 0.498533
4316 1 0.845439 0.52037 0.499584
4427 1 0.653453 0.542804 0.492878
4347 1 0.665602 0.545914 0.494523
1466 1 0.676756 0.549082 0.496554
4421 1 0.692663 0.53938 0.497294
4358 1 0.688489 0.550352 0.497844
4356 1 0.701874 0.555517 0.496908
1610 1 0.705223 0.543124 0.49618
4348 1 0.718451 0.546653 0.49675
4294 1 0.733273 0.539263 0.497702
4354 1 0.731726 0.551069 0.496472
4295 1 0.745601 0.542573 0.496539
4372 1 0.756932 0.544857 0.496918
4228 1 0.773265 0.537601 0.497601
4443 1 0.768882 0.548999 0.497597
4305 1 0.782433 0.552655 0.498639
4300 1 0.786386 0.539815 0.498394
4307 1 0.798264 0.544795 0.49824
4308 1 0.811904 0.547447 0.49891
4453 1 0.827093 0.537421 0.499533
4375 1 0.824284 0.550106 0.499586
4461 1 0.874965 0.552404 0.499689
1469 1 0.661476 0.556636 0.495064
4346 1 0.656113 0.568315 0.493695
4416 1 0.673159 0.560564 0.495037
4497 1 0.687222 0.564606 0.496457
4357 1 0.699342 0.567539 0.497131
4493 1 0.714251 0.558056 0.497342
4360 1 0.710759 0.571038 0.497858
4359 1 0.726397 0.564016 0.498078
4290 1 0.738161 0.566449 0.499061
4368 1 0.741785 0.556204 0.497805
4298 1 0.754773 0.557179 0.49805
4367 1 0.750555 0.569653 0.499361
4445 1 0.765488 0.561954 0.49787
4302 1 0.794896 0.556122 0.499938
4451 1 0.809784 0.559891 0.499868
4374 1 0.803278 0.572451 0.499363
4317 1 0.831676 0.566341 0.499526
4449 1 0.820914 0.563675 0.498461
4384 1 0.842741 0.570728 0.498647
4386 1 0.89474 0.573251 0.499712
1613 1 0.97381 0.571575 0.499876
4286 1 0.651883 0.584286 0.491212
4486 1 0.664884 0.586818 0.493407
4430 1 0.668229 0.574501 0.494295
4491 1 0.682485 0.577395 0.496967
4425 1 0.678753 0.590751 0.49593
4489 1 0.694174 0.579139 0.497635
4365 1 0.690368 0.591671 0.497774
4362 1 0.705117 0.585499 0.49768
4429 1 0.717532 0.58806 0.49891
4364 1 0.721783 0.575129 0.497734
4363 1 0.731228 0.590954 0.498746
4292 1 0.733283 0.578135 0.499057
4370 1 0.800201 0.584173 0.499463
4377 1 0.828318 0.580715 0.499854
4454 1 0.839255 0.583506 0.498433
4528 1 0.850604 0.588408 0.499013
4529 1 0.854204 0.576673 0.499307
4456 1 0.864798 0.57686 0.499613
4390 1 0.881578 0.582494 0.498227
4614 1 0.902471 0.588209 0.498704
4464 1 0.891058 0.58728 0.499756
4466 1 0.919932 0.582085 0.499146
4472 1 0.934843 0.589149 0.498371
4543 1 0.946609 0.586757 0.498609
1683 1 0.989937 0.592546 0.49995
4492 1 0.606018 0.610328 0.495101
1538 1 0.619654 0.600961 0.492044
4341 1 0.641927 0.595857 0.490303
1468 1 0.635941 0.605985 0.492187
4414 1 0.654162 0.598349 0.493068
1539 1 0.665403 0.598414 0.493499
1608 1 0.67766 0.603956 0.497066
4431 1 0.702553 0.598117 0.498773
4499 1 0.688925 0.60569 0.498412
4432 1 0.700291 0.610352 0.498599
4433 1 0.715049 0.600818 0.498505
4361 1 0.728159 0.60371 0.498647
4515 1 0.74464 0.593709 0.499237
4509 1 0.754895 0.597441 0.499202
4452 1 0.765845 0.601696 0.499769
4660 1 0.791746 0.608245 0.498573
4446 1 0.795318 0.595262 0.499876
4378 1 0.778825 0.602779 0.499365
4590 1 0.806602 0.601209 0.499957
4447 1 0.846915 0.601308 0.499091
4376 1 0.834507 0.595768 0.498362
4521 1 0.859268 0.603716 0.498023
4531 1 0.862516 0.593042 0.498839
4388 1 0.874401 0.596108 0.498902
4542 1 0.885716 0.596595 0.497729
4523 1 0.87422 0.609134 0.497635
4527 1 0.889061 0.607907 0.49823
4685 1 0.89837 0.598799 0.497306
4541 1 0.914047 0.595351 0.497356
4617 1 0.90858 0.60702 0.497483
4546 1 0.925876 0.600404 0.496599
4755 1 0.938893 0.600499 0.497849
4618 1 0.950584 0.598206 0.498312
4619 1 0.977611 0.60859 0.499735
4550 1 0.963015 0.597933 0.498964
1682 1 0.965633 0.610149 0.498249
1753 1 0.990506 0.606954 0.498627
4563 1 0.609328 0.627434 0.498247
4412 1 0.619359 0.614363 0.493928
1604 1 0.647679 0.611358 0.492994
1394 1 0.632042 0.61634 0.494873
4496 1 0.643353 0.620695 0.496332
1609 1 0.660683 0.611203 0.494116
4413 1 0.653919 0.623736 0.49596
4418 1 0.666448 0.627847 0.497773
4415 1 0.683149 0.618666 0.498578
1679 1 0.669704 0.616364 0.496488
4436 1 0.696607 0.622229 0.498026
4434 1 0.712926 0.612008 0.497857
4505 1 0.70807 0.624169 0.499525
4508 1 0.720052 0.627872 0.499046
4585 1 0.736629 0.619134 0.499771
4591 1 0.775164 0.616295 0.498635
4592 1 0.787704 0.61989 0.499129
4444 1 0.804381 0.611399 0.499159
4530 1 0.843288 0.612809 0.498345
4532 1 0.840755 0.623972 0.498194
4470 1 0.851577 0.623062 0.496375
4613 1 0.866656 0.620975 0.497048
4526 1 0.855188 0.614311 0.497226
4534 1 0.88389 0.618395 0.496963
4469 1 0.875041 0.626975 0.496729
4400 1 0.893585 0.625766 0.495967
4611 1 0.899759 0.615967 0.497389
4610 1 0.910013 0.623416 0.495404
4679 1 0.920375 0.618004 0.496128
4538 1 0.932957 0.61717 0.496518
4540 1 0.94186 0.611528 0.497466
4616 1 0.944392 0.626611 0.498348
4688 1 0.95296 0.612614 0.497092
4548 1 0.955927 0.624609 0.497704
4684 1 0.968802 0.622373 0.498246
4689 1 0.979933 0.623231 0.49838
1752 1 0.993496 0.618514 0.49851
4411 1 0.598142 0.636414 0.499355
4490 1 0.624742 0.629917 0.496748
4485 1 0.638045 0.633655 0.497563
4494 1 0.635685 0.646134 0.499923
4561 1 0.652001 0.636816 0.498975
4488 1 0.68043 0.630196 0.498636
4657 1 0.831829 0.647642 0.497949
4664 1 0.825563 0.633817 0.499815
4601 1 0.836406 0.636037 0.497673
4603 1 0.847447 0.640174 0.496054
4597 1 0.856973 0.632608 0.495332
4525 1 0.867489 0.637444 0.496258
4535 1 0.860523 0.647518 0.495531
4536 1 0.877073 0.645078 0.495897
4533 1 0.885525 0.635303 0.495617
4607 1 0.904074 0.632706 0.496417
4745 1 0.895464 0.643898 0.49703
4751 1 0.921554 0.631952 0.497248
4753 1 0.913451 0.641616 0.49612
4537 1 0.933944 0.630365 0.497115
4683 1 0.933728 0.642145 0.497895
4612 1 0.947004 0.638967 0.498001
4825 1 0.958962 0.637605 0.497922
1824 1 0.971036 0.637222 0.498278
4758 1 0.984179 0.64784 0.497343
1826 1 0.982255 0.635196 0.499194
4687 1 0.995195 0.632654 0.499566
1692 1 0.997076 0.644206 0.498597
1817 1 0.543623 0.660089 0.49998
1537 1 0.553351 0.651192 0.499957
4729 1 0.828891 0.661331 0.497887
4731 1 0.816048 0.657425 0.499194
4600 1 0.837963 0.661447 0.495393
4524 1 0.845126 0.651317 0.497474
4602 1 0.854457 0.657758 0.495242
4667 1 0.864204 0.665906 0.495345
4605 1 0.870208 0.656085 0.49522
4672 1 0.881386 0.662775 0.495064
4606 1 0.887861 0.654363 0.495727
4468 1 0.897787 0.662319 0.495764
4608 1 0.90326 0.651451 0.4957
4609 1 0.922795 0.65059 0.497448
4681 1 0.913997 0.658453 0.494902
4680 1 0.92497 0.66635 0.497048
4817 1 0.937103 0.653383 0.49534
1892 1 0.937593 0.664407 0.49622
4686 1 0.9489 0.65201 0.496842
4682 1 0.961503 0.650633 0.496838
4756 1 0.962695 0.662498 0.496735
4752 1 0.949276 0.665392 0.496491
1822 1 0.973008 0.650607 0.498388
4757 1 0.975438 0.663506 0.497842
1823 1 0.988739 0.660387 0.498176
1677 1 0.506302 0.676942 0.497966
4482 1 0.519271 0.676185 0.49994
4662 1 0.825246 0.673033 0.498702
4661 1 0.82654 0.683881 0.498322
4598 1 0.846512 0.669427 0.494638
4604 1 0.836951 0.676701 0.497038
4665 1 0.84559 0.684659 0.497647
4669 1 0.854389 0.676224 0.4972
4668 1 0.864094 0.684208 0.496345
4671 1 0.873657 0.673716 0.496093
4742 1 0.883743 0.681798 0.495653
4815 1 0.889405 0.671793 0.496803
4675 1 0.900231 0.6793 0.496852
4677 1 0.907401 0.670179 0.496242
4676 1 0.921362 0.675417 0.495547
4747 1 0.934526 0.676353 0.494746
4827 1 0.951881 0.676308 0.496659
4759 1 0.977995 0.675038 0.496528
1962 1 0.964904 0.674496 0.495647
1895 1 0.99089 0.672608 0.497494
1605 1 0.503633 0.687104 0.499888
4743 1 0.835886 0.692672 0.498745
4666 1 0.849175 0.700528 0.498531
4804 1 0.838206 0.70346 0.499565
4674 1 0.866173 0.700754 0.497754
4673 1 0.855791 0.690872 0.497368
4670 1 0.883088 0.698357 0.498774
4746 1 0.874272 0.690523 0.497391
4748 1 0.891498 0.688919 0.498034
4816 1 0.901331 0.696684 0.498522
4818 1 0.920384 0.697426 0.497118
4678 1 0.90925 0.687345 0.497158
4749 1 0.928585 0.687377 0.496061
4829 1 0.938768 0.694925 0.496197
4690 1 0.94588 0.686149 0.496082
4750 1 0.951469 0.702902 0.496625
4754 1 0.955849 0.692998 0.496212
4824 1 0.966994 0.699774 0.496599
4823 1 0.96468 0.68694 0.496084
1964 1 0.977452 0.685662 0.4979
4828 1 0.979045 0.69727 0.49711
1894 1 0.990242 0.699005 0.497363
4830 1 0.989922 0.686792 0.497554
4744 1 0.857626 0.709875 0.499678
4879 1 0.876541 0.708113 0.499426
4813 1 0.893495 0.705852 0.499429
4889 1 0.912171 0.704707 0.498646
4822 1 0.922214 0.71454 0.497615
4887 1 0.912737 0.721834 0.499509
4819 1 0.930457 0.704289 0.496453
4821 1 0.940102 0.711459 0.498042
4892 1 0.949486 0.72118 0.498017
4826 1 0.961763 0.71068 0.497422
1961 1 0.978178 0.711305 0.497943
4760 1 0.967831 0.719745 0.49901
1966 1 0.987364 0.717655 0.499642
1899 1 0.995437 0.707646 0.499889
4812 1 0.905189 0.731168 0.499833
4883 1 0.895289 0.723888 0.499892
4820 1 0.923882 0.731419 0.498933
4896 1 0.932868 0.722431 0.497276
4893 1 0.932636 0.739947 0.498819
4965 1 0.952725 0.737795 0.499533
5157 1 0.843729 0.826069 0.499551
5086 1 0.805316 0.844978 0.49903
5156 1 0.822612 0.8452 0.49824
5088 1 0.832795 0.834796 0.499517
5161 1 0.841237 0.843293 0.498491
5087 1 0.851121 0.833588 0.499747
5217 1 0.796237 0.853713 0.499386
5285 1 0.807643 0.863095 0.497386
5291 1 0.81375 0.854257 0.498665
5225 1 0.8229 0.863178 0.499179
5154 1 0.833237 0.854476 0.498746
5159 1 0.850946 0.852404 0.499547
5227 1 0.841528 0.862885 0.4992
5230 1 0.857209 0.86165 0.499966
5361 1 0.794421 0.884516 0.499598
5223 1 0.814394 0.873024 0.499944
5295 1 0.824077 0.881163 0.499563
5296 1 0.832486 0.888153 0.498953
5226 1 0.845031 0.881207 0.499098
5356 1 0.794821 0.89566 0.499937
5362 1 0.807951 0.897705 0.499769
5363 1 0.814743 0.88896 0.499888
5352 1 0.798513 0.906322 0.499756
5438 1 0.824933 0.896874 0.498265
5228 1 0.851243 0.890027 0.499843
5300 1 0.842027 0.89584 0.499336
5298 1 0.834283 0.905863 0.498764
5435 1 0.853278 0.905588 0.499195
2660 1 0.50265 0.919333 0.498551
2658 1 0.510968 0.911855 0.499591
5353 1 0.790144 0.914621 0.499582
5288 1 0.779853 0.914063 0.499868
5429 1 0.807926 0.911304 0.498944
5434 1 0.80608 0.92414 0.499322
5366 1 0.818139 0.907527 0.499824
5437 1 0.823902 0.916436 0.498814
5506 1 0.843263 0.915826 0.49939
5440 1 0.833515 0.923399 0.498026
5507 1 0.853838 0.92206 0.498116
5436 1 0.863666 0.911829 0.499213
5443 1 0.873128 0.922547 0.498437
5445 1 0.890185 0.921169 0.49961
5457 1 0.994951 0.916662 0.499584
5461 1 0.515699 0.937832 0.498539
5392 1 0.513413 0.927033 0.49835
5462 1 0.503913 0.943271 0.49709
5425 1 0.739865 0.928109 0.499541
5358 1 0.790091 0.934033 0.49988
5430 1 0.798058 0.94279 0.498658
5505 1 0.808952 0.936656 0.499159
5575 1 0.816802 0.926342 0.499739
5504 1 0.820078 0.941594 0.498245
5578 1 0.826038 0.932245 0.497537
5577 1 0.844516 0.932714 0.496931
5509 1 0.851757 0.941042 0.498074
5439 1 0.834475 0.940381 0.498946
5511 1 0.869864 0.940135 0.498857
5367 1 0.861457 0.932094 0.49832
5442 1 0.87904 0.931462 0.498911
5515 1 0.899382 0.928903 0.499243
5527 1 0.978889 0.935193 0.499929
5526 1 0.989542 0.944181 0.499879
5456 1 0.986355 0.926835 0.499607
5458 1 0.997314 0.935051 0.499105
2800 1 0.508813 0.955528 0.496495
2799 1 0.518696 0.95053 0.498922
5502 1 0.794792 0.961455 0.49952
5359 1 0.787539 0.951179 0.49919
2838 1 0.804396 0.953483 0.496621
5433 1 0.81137 0.948577 0.499407
2845 1 0.819511 0.959594 0.497679
5508 1 0.826787 0.951172 0.499377
2913 1 0.835439 0.959117 0.498621
5444 1 0.844782 0.950762 0.497098
5513 1 0.853718 0.960713 0.498122
5512 1 0.862026 0.95021 0.499195
2857 1 0.872192 0.957381 0.499853
5441 1 0.879639 0.948968 0.499461
5597 1 0.981367 0.953475 0.499753
5525 1 0.970887 0.94481 0.499439
5528 1 0.989984 0.960552 0.498223
5529 1 0.999626 0.954316 0.49944
5531 1 0.50301 0.972713 0.498215
5503 1 0.782637 0.967898 0.498749
5364 1 0.798422 0.972073 0.499125
5499 1 0.810344 0.967579 0.498714
5573 1 0.828034 0.969864 0.498711
5574 1 0.817939 0.977416 0.498825
5514 1 0.844325 0.970487 0.49917
2843 1 0.838739 0.980998 0.49974
5572 1 0.855004 0.97593 0.499702
5584 1 0.875479 0.976561 0.499612
5590 1 0.935646 0.964351 0.499969
2869 1 0.962426 0.97262 0.499266
5593 1 0.95254 0.964485 0.499754
1 1 0.979345 0.970718 0.498722
2733 1 0.973177 0.980934 0.498058
2662 1 0.990044 0.979852 0.498528
5530 1 0.999343 0.971044 0.497328
70 1 0.506855 0.985615 0.499087
2907 1 0.787053 0.997204 0.499733
5583 1 0.86655 0.983714 0.499928
2862 1 0.928579 0.990769 0.499137
71 1 0.945652 0.990376 0.498112
5522 1 0.955907 0.98253 0.49969
2731 1 0.980541 0.990049 0.498125
2664 1 0.999715 0.989029 0.498486
2736 1 0.990476 0.998402 0.498531
4250 1 0.860141 0.509046 0.500742
4252 1 0.869875 0.515126 0.503197
4253 1 0.877691 0.503651 0.501436
4254 1 0.88827 0.507615 0.502575
4324 1 0.904899 0.505974 0.50318
4328 1 0.892507 0.518038 0.502232
4401 1 0.917698 0.508455 0.502455
4408 1 0.93177 0.510791 0.503407
4406 1 0.946923 0.508926 0.50321
4266 1 0.959985 0.506211 0.502513
4399 1 0.961742 0.517658 0.503905
4262 1 0.972158 0.50654 0.503604
4196 1 0.97332 0.517856 0.50351
4270 1 0.997914 0.500987 0.502253
1403 1 0.984567 0.502213 0.502329
4403 1 0.986518 0.514455 0.503001
4459 1 0.842821 0.531495 0.500915
4320 1 0.858 0.5212 0.50269
4389 1 0.854632 0.533856 0.502127
4322 1 0.866206 0.526548 0.502554
4394 1 0.882326 0.531682 0.502009
4393 1 0.879112 0.522594 0.503063
4402 1 0.906163 0.519738 0.502954
4326 1 0.894608 0.53255 0.5023
4332 1 0.90722 0.530157 0.503598
4473 1 0.917584 0.520142 0.503608
4478 1 0.924956 0.526818 0.502632
4471 1 0.924937 0.537031 0.504499
4336 1 0.935959 0.522892 0.503249
4479 1 0.938476 0.534585 0.504337
4265 1 0.947684 0.520966 0.503304
4407 1 0.95136 0.533227 0.503653
4404 1 0.964645 0.529053 0.503703
1476 1 0.976873 0.528338 0.502826
1475 1 0.990261 0.526167 0.50447
4318 1 0.850752 0.54549 0.50235
4311 1 0.838867 0.542009 0.500202
4382 1 0.835154 0.553971 0.500169
4458 1 0.863138 0.551101 0.502597
4391 1 0.864692 0.539218 0.502162
4321 1 0.878109 0.541751 0.502105
4395 1 0.88939 0.548483 0.500761
4330 1 0.900083 0.542871 0.502558
4467 1 0.903139 0.553593 0.503011
4396 1 0.913327 0.538809 0.503959
4539 1 0.914425 0.55251 0.503868
4615 1 0.926149 0.548124 0.502792
4476 1 0.940149 0.547986 0.503129
4477 1 0.952164 0.546686 0.503645
4338 1 0.964667 0.542373 0.50311
1543 1 0.976529 0.540994 0.503486
4480 1 0.965346 0.554906 0.503625
4409 1 0.978498 0.553383 0.501764
1547 1 0.988751 0.539306 0.502518
1544 1 0.991794 0.552412 0.500555
4439 1 0.762846 0.573251 0.500266
4442 1 0.778999 0.563427 0.50044
4440 1 0.791332 0.56889 0.501176
4387 1 0.846303 0.556843 0.500128
4457 1 0.857753 0.561042 0.500128
4455 1 0.870607 0.567337 0.50021
4397 1 0.886979 0.559983 0.501129
4463 1 0.88249 0.57165 0.500551
4392 1 0.90086 0.563182 0.501296
4460 1 0.915731 0.565589 0.502216
4465 1 0.92763 0.562503 0.50343
4544 1 0.940969 0.56159 0.501985
4547 1 0.942639 0.573544 0.502774
4410 1 0.953556 0.560999 0.502829
1542 1 0.955662 0.573333 0.501049
4474 1 0.965446 0.567472 0.502324
1615 1 0.984442 0.566538 0.500406
4340 1 0.996097 0.564973 0.5002
4516 1 0.75785 0.584381 0.500323
4507 1 0.746491 0.581241 0.500511
4513 1 0.769909 0.588176 0.500474
4441 1 0.775429 0.576755 0.500244
4589 1 0.783496 0.591408 0.500639
4511 1 0.786596 0.578825 0.501432
4517 1 0.811807 0.588429 0.500604
4304 1 0.81461 0.576862 0.500593
4462 1 0.871435 0.583964 0.500665
4398 1 0.907915 0.575246 0.501023
4545 1 0.93241 0.576444 0.502002
4549 1 0.960739 0.585718 0.501055
1611 1 0.972503 0.582419 0.500189
4620 1 0.986547 0.580083 0.500254
1612 1 0.99887 0.578013 0.500184
4438 1 0.740386 0.606714 0.500708
4519 1 0.818686 0.606408 0.500044
4520 1 0.831037 0.608813 0.50056
4522 1 0.823591 0.593179 0.500507
1681 1 0.976743 0.594763 0.500702
4512 1 0.723737 0.6164 0.500221
4437 1 0.751705 0.611548 0.500089
4514 1 0.749576 0.623517 0.501749
4654 1 0.762354 0.627026 0.501224
4588 1 0.772426 0.628216 0.501279
4583 1 0.763671 0.613228 0.500568
4518 1 0.799781 0.62447 0.501223
4593 1 0.813329 0.628415 0.50046
4599 1 0.830002 0.621063 0.501361
4730 1 0.817049 0.617778 0.500376
1396 1 0.583054 0.645818 0.500763
4557 1 0.59512 0.647616 0.502753
4487 1 0.611517 0.640158 0.500651
4565 1 0.624368 0.641919 0.500912
4500 1 0.663627 0.63857 0.500008
4426 1 0.675916 0.642471 0.500512
4501 1 0.692033 0.63423 0.500876
4571 1 0.68725 0.645391 0.502211
4506 1 0.716107 0.638347 0.501973
4435 1 0.703776 0.635968 0.501588
4578 1 0.728774 0.643453 0.502658
4510 1 0.732178 0.631875 0.500255
4579 1 0.743611 0.636074 0.501431
4580 1 0.741431 0.646728 0.503948
4581 1 0.758171 0.638275 0.503612
4658 1 0.769054 0.640812 0.502127
4450 1 0.782355 0.632646 0.500301
4584 1 0.779052 0.645464 0.502148
4582 1 0.790447 0.64473 0.501966
4448 1 0.7963 0.635632 0.501337
4659 1 0.808941 0.640363 0.501932
4595 1 0.820483 0.645091 0.500201
1535 1 0.568065 0.649066 0.500338
4560 1 0.564604 0.665791 0.502698
1465 1 0.577071 0.657926 0.502311
1748 1 0.591578 0.660306 0.504496
4635 1 0.603172 0.663187 0.504463
1680 1 0.606859 0.648673 0.502818
4564 1 0.618124 0.653997 0.503117
4551 1 0.61546 0.665537 0.504379
4566 1 0.647214 0.649404 0.502236
4570 1 0.646332 0.660257 0.502696
4568 1 0.631561 0.65805 0.502783
4567 1 0.656378 0.665694 0.504133
4428 1 0.659187 0.651004 0.500999
4498 1 0.671214 0.65534 0.50385
4504 1 0.684412 0.657669 0.504321
4503 1 0.70057 0.648407 0.502638
4575 1 0.697152 0.661625 0.504407
4577 1 0.713165 0.653105 0.502365
4647 1 0.710127 0.664022 0.505048
4649 1 0.725654 0.657076 0.503816
4650 1 0.737579 0.659378 0.504083
4653 1 0.755758 0.651887 0.503061
4651 1 0.750831 0.663333 0.503834
4797 1 0.766998 0.654486 0.502949
4586 1 0.778516 0.656653 0.503474
4587 1 0.792299 0.656645 0.503835
4728 1 0.802795 0.649476 0.500316
4596 1 0.80567 0.663772 0.501707
4559 1 0.531271 0.683477 0.501101
4484 1 0.535856 0.672404 0.500446
1749 1 0.549863 0.671178 0.502315
1888 1 0.543739 0.684434 0.502424
1462 1 0.561152 0.6776 0.503448
4628 1 0.572808 0.681471 0.503285
4481 1 0.577714 0.670276 0.503647
4483 1 0.589285 0.671872 0.504198
4627 1 0.584792 0.68487 0.504027
4562 1 0.598752 0.675863 0.506275
4631 1 0.611332 0.679246 0.505632
4638 1 0.623978 0.681297 0.506913
4637 1 0.627201 0.669079 0.503939
4641 1 0.640783 0.669651 0.504684
4639 1 0.637736 0.681266 0.507291
4572 1 0.650767 0.676761 0.506414
4569 1 0.663441 0.680243 0.505954
4502 1 0.668312 0.66778 0.50491
4573 1 0.681486 0.669553 0.504326
4645 1 0.676072 0.682251 0.504624
4576 1 0.694149 0.674259 0.5048
4646 1 0.706404 0.677655 0.506332
4717 1 0.719461 0.681201 0.505057
4648 1 0.722901 0.66847 0.506235
4719 1 0.734678 0.671034 0.5067
4721 1 0.746793 0.674233 0.504194
4796 1 0.760107 0.679153 0.504389
4725 1 0.76355 0.668081 0.504027
4724 1 0.770698 0.680967 0.503824
4727 1 0.774193 0.668949 0.503266
4726 1 0.789941 0.670609 0.504143
4800 1 0.779835 0.676861 0.505641
4655 1 0.814447 0.671938 0.500974
4799 1 0.801599 0.6748 0.50344
4735 1 0.809584 0.682124 0.502545
1536 1 0.501589 0.69907 0.501177
4692 1 0.511406 0.702587 0.501717
1603 1 0.515384 0.691161 0.501405
1747 1 0.52884 0.695217 0.501996
1816 1 0.551371 0.70143 0.503644
1750 1 0.540019 0.698061 0.50268
4553 1 0.555788 0.688664 0.503344
4554 1 0.566458 0.693768 0.504265
4558 1 0.578574 0.696605 0.506072
4626 1 0.593887 0.700782 0.506076
4629 1 0.596019 0.687039 0.505175
4630 1 0.608029 0.691252 0.506184
4636 1 0.621179 0.693761 0.507101
4707 1 0.631773 0.692929 0.508212
4705 1 0.638996 0.702501 0.507962
4574 1 0.64677 0.687007 0.507789
4706 1 0.649868 0.697381 0.50844
4644 1 0.662396 0.692717 0.506949
4640 1 0.674263 0.695122 0.506329
4713 1 0.686959 0.697314 0.505745
4642 1 0.691243 0.686361 0.505806
4715 1 0.702585 0.690432 0.504974
4791 1 0.714537 0.692047 0.506147
4652 1 0.731192 0.685231 0.506272
4720 1 0.72736 0.697557 0.50569
4795 1 0.739839 0.700658 0.505768
4722 1 0.744135 0.686322 0.505624
4723 1 0.755205 0.690946 0.504512
4793 1 0.752561 0.702446 0.50578
4867 1 0.768349 0.69316 0.50563
4792 1 0.778821 0.698054 0.505302
4656 1 0.788219 0.703583 0.506331
4732 1 0.786278 0.686634 0.503569
4663 1 0.798073 0.687501 0.50364
5007 1 0.800413 0.699982 0.503712
4807 1 0.812267 0.700788 0.502522
4594 1 0.816465 0.689743 0.500647
4737 1 0.824371 0.700609 0.50079
1741 1 0.506999 0.715729 0.502421
4693 1 0.51836 0.718385 0.502018
1678 1 0.524241 0.707119 0.501823
1671 1 0.536686 0.709424 0.502853
4621 1 0.547786 0.71389 0.504122
4552 1 0.564269 0.705875 0.504649
1819 1 0.560184 0.717668 0.50559
4769 1 0.571845 0.721447 0.506933
4556 1 0.588629 0.711994 0.506481
4625 1 0.576897 0.709023 0.506107
4701 1 0.606255 0.704151 0.506935
4632 1 0.60098 0.717482 0.506712
4634 1 0.613158 0.718622 0.506328
4633 1 0.619256 0.706242 0.507464
4771 1 0.62836 0.707279 0.508431
4777 1 0.633865 0.718573 0.507469
4779 1 0.643422 0.712916 0.507388
4711 1 0.660883 0.707792 0.506469
4708 1 0.654327 0.717861 0.505979
4712 1 0.667416 0.719292 0.505707
4709 1 0.671988 0.707792 0.506653
4714 1 0.682822 0.709158 0.505403
4716 1 0.699321 0.704003 0.504523
4643 1 0.693742 0.714592 0.50511
4718 1 0.711277 0.70574 0.505192
4787 1 0.707592 0.718956 0.505635
4857 1 0.724203 0.709463 0.505516
4788 1 0.736296 0.712693 0.506296
4863 1 0.747917 0.715186 0.505991
4937 1 0.760243 0.718174 0.50672
4936 1 0.764673 0.706062 0.504918
4862 1 0.776105 0.709191 0.505997
4869 1 0.771219 0.72091 0.504624
4734 1 0.789145 0.714086 0.504696
4738 1 0.801955 0.711904 0.503878
4803 1 0.814398 0.713139 0.501923
4736 1 0.826449 0.716533 0.501794
4805 1 0.838871 0.715138 0.500073
4810 1 0.849136 0.718797 0.500926
4881 1 0.867197 0.717105 0.500998
4811 1 0.885266 0.71754 0.500648
4814 1 0.903832 0.7131 0.500669
1814 1 0.505628 0.729871 0.501968
1820 1 0.517527 0.731177 0.503182
1887 1 0.532123 0.723904 0.504403
4623 1 0.531216 0.735941 0.504342
4766 1 0.545453 0.726 0.504246
4698 1 0.54307 0.740146 0.505816
4767 1 0.55756 0.729699 0.505599
4699 1 0.569296 0.733966 0.504932
4839 1 0.582319 0.735511 0.506964
4697 1 0.588315 0.72458 0.506603
4841 1 0.599664 0.729346 0.507395
4700 1 0.595831 0.740141 0.506491
4703 1 0.624665 0.724318 0.505921
4773 1 0.612726 0.731955 0.504699
4702 1 0.624486 0.735383 0.50609
4775 1 0.643021 0.724703 0.506682
4704 1 0.638284 0.736499 0.507146
4776 1 0.653428 0.729629 0.507044
4710 1 0.664621 0.732488 0.505925
4778 1 0.650299 0.74035 0.507055
4783 1 0.67991 0.723833 0.504587
4855 1 0.675069 0.734874 0.505378
4782 1 0.692561 0.726342 0.505752
4786 1 0.688838 0.738686 0.505983
4856 1 0.719793 0.723158 0.505925
4784 1 0.704416 0.729723 0.504879
5001 1 0.715198 0.735966 0.507048
4789 1 0.732042 0.723701 0.506752
4933 1 0.728461 0.736617 0.506075
4790 1 0.742442 0.726795 0.505307
4859 1 0.754936 0.732289 0.50534
4858 1 0.740875 0.739189 0.505873
4866 1 0.768755 0.733883 0.505342
4794 1 0.779393 0.7374 0.503216
4868 1 0.785213 0.72558 0.503884
4733 1 0.793082 0.73487 0.503233
4871 1 0.799404 0.726042 0.503564
4875 1 0.810831 0.724049 0.502661
4801 1 0.815186 0.735926 0.503406
4802 1 0.823287 0.729326 0.502476
4877 1 0.833584 0.735072 0.501941
4740 1 0.840632 0.725886 0.502045
4739 1 0.848561 0.735809 0.501391
4809 1 0.85871 0.725696 0.501665
4951 1 0.869349 0.736121 0.502488
4741 1 0.877209 0.725694 0.50182
4880 1 0.885522 0.733662 0.500308
4886 1 0.913762 0.73968 0.500747
4895 1 0.940957 0.730865 0.500412
4897 1 0.95928 0.727717 0.500311
4899 1 0.977886 0.72687 0.501337
5035 1 0.970916 0.737396 0.502595
4898 1 0.989159 0.735241 0.502177
2032 1 0.9962 0.726013 0.500701
1746 1 0.501827 0.741648 0.50197
2027 1 0.514576 0.744302 0.502833
4762 1 0.509134 0.756385 0.502175
1890 1 0.5267 0.747359 0.505016
4765 1 0.551556 0.753334 0.504964
4763 1 0.538162 0.754115 0.505593
4555 1 0.555593 0.742891 0.50555
4624 1 0.567816 0.745325 0.505501
4768 1 0.562744 0.757662 0.505789
4838 1 0.580291 0.748632 0.5063
4840 1 0.592377 0.753493 0.506548
4770 1 0.608413 0.743689 0.506128
4842 1 0.604685 0.757793 0.507248
4772 1 0.619812 0.746794 0.506424
4847 1 0.643806 0.750382 0.5056
4774 1 0.632492 0.747838 0.506611
4851 1 0.660178 0.744832 0.50641
4849 1 0.65427 0.75734 0.506061
4781 1 0.674988 0.74651 0.506845
4853 1 0.684879 0.752744 0.506039
4780 1 0.666959 0.7586 0.505977
4854 1 0.697332 0.753516 0.506846
4785 1 0.700389 0.74079 0.507416
4860 1 0.71193 0.748922 0.507188
5008 1 0.737823 0.753664 0.506582
4865 1 0.725908 0.750108 0.506973
4861 1 0.753378 0.744057 0.505761
5009 1 0.750815 0.757763 0.503982
4872 1 0.765888 0.746966 0.503492
4931 1 0.763418 0.758396 0.505186
4935 1 0.777871 0.748861 0.503105
5010 1 0.781828 0.757776 0.504384
4874 1 0.787953 0.74495 0.504106
4938 1 0.794853 0.750728 0.502254
4870 1 0.803285 0.741274 0.502392
4808 1 0.809887 0.751106 0.503038
4873 1 0.799808 0.758985 0.502813
4876 1 0.821478 0.745166 0.502435
4949 1 0.830193 0.754784 0.501806
4806 1 0.840209 0.745738 0.501793
4947 1 0.850293 0.753791 0.501063
4878 1 0.857789 0.743385 0.50208
4953 1 0.866668 0.752348 0.501607
4882 1 0.877773 0.744031 0.501951
4884 1 0.886683 0.751709 0.501645
4954 1 0.906262 0.748577 0.500089
4957 1 0.898654 0.756975 0.501391
4885 1 0.897052 0.743474 0.501658
4888 1 0.914391 0.75775 0.500716
4891 1 0.925561 0.748018 0.500384
4959 1 0.936289 0.754783 0.501311
4894 1 0.944961 0.746936 0.500813
4890 1 0.955167 0.755436 0.500979
4963 1 0.963494 0.746623 0.501369
4966 1 0.973824 0.754053 0.500985
4967 1 0.98225 0.74597 0.502152
4970 1 0.999678 0.744224 0.503406
4969 1 0.991634 0.753576 0.503113
2100 1 0.507748 0.770374 0.503262
2030 1 0.523195 0.761403 0.503603
4903 1 0.521166 0.772547 0.503999
1960 1 0.536157 0.76624 0.505506
4836 1 0.547642 0.767236 0.505331
4905 1 0.558576 0.771287 0.504798
4907 1 0.571667 0.774423 0.504719
4911 1 0.587563 0.766314 0.50589
4909 1 0.575296 0.761142 0.505966
4910 1 0.583184 0.77768 0.505846
4913 1 0.600893 0.769089 0.505659
4843 1 0.617123 0.759905 0.506138
4844 1 0.61489 0.772535 0.505625
4846 1 0.626451 0.775101 0.505539
4845 1 0.630027 0.76341 0.506054
4848 1 0.640762 0.763677 0.507212
4917 1 0.64523 0.773716 0.506294
4921 1 0.656122 0.770655 0.504816
4850 1 0.667841 0.772302 0.505437
4852 1 0.681699 0.764404 0.505885
4923 1 0.679222 0.776694 0.506022
4925 1 0.693495 0.767618 0.505903
4927 1 0.709309 0.760144 0.506821
4929 1 0.705608 0.770629 0.505646
4930 1 0.71659 0.77392 0.506273
4932 1 0.721438 0.762987 0.506985
5003 1 0.734803 0.764557 0.505868
5005 1 0.746988 0.769734 0.505647
4864 1 0.758145 0.773223 0.503758
4934 1 0.772462 0.763377 0.504901
5077 1 0.770668 0.774385 0.505345
5014 1 0.788579 0.765378 0.504533
5012 1 0.782499 0.776665 0.505029
4798 1 0.798645 0.771031 0.506133
4939 1 0.808489 0.774943 0.503485
4941 1 0.814113 0.762483 0.503453
4940 1 0.823517 0.764185 0.504159
5147 1 0.834345 0.769415 0.5048
5017 1 0.844091 0.763098 0.502709
4944 1 0.84944 0.772086 0.50219
4950 1 0.859535 0.761924 0.501017
4952 1 0.869613 0.771148 0.501513
5025 1 0.877224 0.75952 0.501213
5023 1 0.888677 0.768835 0.501089
4956 1 0.898604 0.776163 0.501946
4955 1 0.904515 0.766917 0.502409
4960 1 0.917324 0.773348 0.500995
4958 1 0.927752 0.763841 0.500208
4962 1 0.937263 0.771999 0.501063
4964 1 0.945713 0.762942 0.501329
5034 1 0.955107 0.771848 0.501529
5036 1 0.96455 0.765243 0.501756
5039 1 0.973822 0.77042 0.50269
5105 1 0.964587 0.776635 0.502033
4968 1 0.982909 0.76247 0.503084
5037 1 0.99257 0.771409 0.504394
2166 1 0.503545 0.78221 0.502949
2168 1 0.51484 0.785684 0.503745
4696 1 0.530924 0.77822 0.504857
4978 1 0.527121 0.789392 0.503805
4694 1 0.54538 0.780711 0.50454
4834 1 0.538782 0.791802 0.505666
4906 1 0.552223 0.795619 0.50534
4835 1 0.556458 0.782055 0.505453
4764 1 0.567722 0.785709 0.505479
4908 1 0.58109 0.79131 0.50561
4912 1 0.595295 0.780139 0.50509
4982 1 0.593335 0.793515 0.504353
4915 1 0.608675 0.784586 0.504518
4916 1 0.621172 0.788064 0.504426
4920 1 0.637615 0.779726 0.504104
4985 1 0.633775 0.7911 0.503829
4918 1 0.646184 0.795519 0.503753
4922 1 0.651684 0.7871 0.504675
4919 1 0.663511 0.784049 0.504533
4993 1 0.67433 0.790181 0.504271
4995 1 0.691212 0.78083 0.505257
4926 1 0.685804 0.794048 0.505117
4928 1 0.701562 0.783577 0.505078
4997 1 0.698916 0.796061 0.504584
4999 1 0.712344 0.787159 0.504888
5004 1 0.730269 0.778266 0.505141
5002 1 0.725514 0.791075 0.504627
5073 1 0.736822 0.793705 0.504643
5076 1 0.741421 0.781728 0.505006
5078 1 0.753259 0.785132 0.504747
5075 1 0.767275 0.785532 0.503303
5081 1 0.777311 0.789475 0.504846
5011 1 0.789714 0.794061 0.504963
4945 1 0.791911 0.78185 0.505431
4943 1 0.803892 0.787173 0.505378
4942 1 0.819167 0.77914 0.505427
5013 1 0.816683 0.789976 0.503916
5083 1 0.829964 0.79327 0.502397
4948 1 0.832596 0.780367 0.502915
5089 1 0.844693 0.781722 0.503552
5016 1 0.840851 0.794722 0.502369
4946 1 0.860497 0.780055 0.501686
5021 1 0.853107 0.790082 0.500073
5022 1 0.880319 0.778693 0.502358
5019 1 0.871729 0.78873 0.501601
5024 1 0.889694 0.784991 0.502048
5027 1 0.900003 0.791157 0.50246
5031 1 0.918215 0.791461 0.501108
5029 1 0.909046 0.782895 0.502346
5033 1 0.926754 0.780642 0.501648
5032 1 0.93802 0.789453 0.502557
4961 1 0.945724 0.780861 0.501306
5103 1 0.956 0.789424 0.502945
5038 1 0.973543 0.786802 0.503756
5040 1 0.982664 0.779809 0.503655
2173 1 0.991948 0.786637 0.5031
2099 1 0.500179 0.797327 0.503602
4904 1 0.508709 0.810866 0.502929
4832 1 0.511382 0.798326 0.503328
4902 1 0.524031 0.802394 0.505868
4975 1 0.536346 0.804805 0.506171
4973 1 0.521546 0.814175 0.504515
4977 1 0.549294 0.807258 0.504837
4980 1 0.563532 0.798606 0.505677
5047 1 0.56193 0.81284 0.505577
4979 1 0.575442 0.80252 0.504997
4984 1 0.589296 0.807244 0.506599
4981 1 0.603834 0.796817 0.504005
4986 1 0.601794 0.810286 0.506075
4983 1 0.617854 0.800221 0.504394
5051 1 0.615764 0.81226 0.505175
4914 1 0.630554 0.803921 0.505011
4987 1 0.642439 0.806506 0.50331
4989 1 0.659633 0.798584 0.503774
4990 1 0.655735 0.810913 0.503423
4924 1 0.671219 0.801968 0.503599
4992 1 0.68272 0.804673 0.504685
4994 1 0.69502 0.808982 0.504746
4998 1 0.710529 0.798213 0.505081
4996 1 0.708879 0.810602 0.504844
5071 1 0.720813 0.814424 0.504149
5000 1 0.720858 0.803101 0.502907
5070 1 0.735296 0.806623 0.502907
5143 1 0.748239 0.796682 0.504805
5072 1 0.74676 0.808564 0.504023
5146 1 0.758683 0.810841 0.504932
5080 1 0.76258 0.79994 0.50393
5141 1 0.77431 0.803074 0.504488
5149 1 0.78494 0.807346 0.504258
5148 1 0.798132 0.808171 0.503521
5145 1 0.801197 0.797682 0.504904
5151 1 0.813749 0.801499 0.503051
5150 1 0.809283 0.813282 0.502753
5082 1 0.824289 0.804847 0.502174
5085 1 0.837012 0.808564 0.501421
5018 1 0.864634 0.798114 0.500309
5020 1 0.85535 0.805757 0.501234
5095 1 0.881959 0.796463 0.501007
5093 1 0.873907 0.805089 0.500604
5163 1 0.883346 0.812347 0.502316
5026 1 0.892563 0.803038 0.501892
5097 1 0.902819 0.81177 0.502757
5028 1 0.91013 0.800631 0.502571
5101 1 0.919812 0.808076 0.503737
5102 1 0.930804 0.797504 0.503354
5106 1 0.936886 0.807267 0.506143
5108 1 0.956928 0.806027 0.505062
5104 1 0.947129 0.800967 0.504845
5107 1 0.965725 0.796416 0.505159
5109 1 0.975188 0.806927 0.506378
2172 1 0.983868 0.797294 0.505194
2311 1 0.99501 0.80738 0.504468
4972 1 0.505745 0.823145 0.504011
5042 1 0.519809 0.825784 0.503432
4974 1 0.534532 0.816068 0.505408
5188 1 0.531417 0.829691 0.504197
5045 1 0.547249 0.821193 0.504188
5044 1 0.573717 0.814973 0.506441
5114 1 0.560177 0.824882 0.505863
4976 1 0.573267 0.82799 0.506024
5117 1 0.585184 0.830841 0.507311
5046 1 0.585913 0.81859 0.505813
5048 1 0.596918 0.822641 0.50632
5049 1 0.610299 0.826378 0.506551
5057 1 0.627499 0.815556 0.50588
5050 1 0.624701 0.828895 0.506436
5053 1 0.641453 0.818852 0.504699
5125 1 0.63705 0.830964 0.505235
5059 1 0.653465 0.823377 0.503969
4988 1 0.664717 0.826901 0.504471
4991 1 0.668086 0.815346 0.50411
5063 1 0.680951 0.817754 0.504809
5061 1 0.677519 0.828976 0.505876
5201 1 0.69297 0.8204 0.505203
5126 1 0.705345 0.822999 0.50548
5069 1 0.717133 0.827698 0.50418
5068 1 0.730936 0.819834 0.503418
5138 1 0.728062 0.832873 0.504689
5140 1 0.75513 0.822742 0.504266
5139 1 0.743478 0.821664 0.504838
5220 1 0.770123 0.817023 0.503804
5079 1 0.766629 0.828908 0.505136
5006 1 0.783273 0.818897 0.503204
5211 1 0.778983 0.82959 0.503582
5074 1 0.794771 0.824612 0.503062
5155 1 0.807683 0.824227 0.501305
5153 1 0.820111 0.816146 0.500792
5152 1 0.823084 0.82685 0.500762
5015 1 0.832287 0.820034 0.500813
5091 1 0.847276 0.816063 0.501849
5092 1 0.866785 0.815486 0.501293
5090 1 0.858988 0.824478 0.501337
5094 1 0.876377 0.823388 0.50214
5162 1 0.886172 0.830845 0.502409
5167 1 0.894071 0.820748 0.501204
5030 1 0.902799 0.829676 0.503316
5169 1 0.912075 0.817611 0.504186
5099 1 0.921009 0.826135 0.50371
5100 1 0.930109 0.818214 0.505783
5173 1 0.938828 0.827616 0.504948
5177 1 0.957962 0.826077 0.504277
5171 1 0.947839 0.819653 0.505632
5179 1 0.966357 0.81546 0.505167
5180 1 0.974663 0.824628 0.504512
5110 1 0.985429 0.817263 0.504969
2381 1 0.993215 0.825909 0.503723
5258 1 0.515725 0.839615 0.503089
5253 1 0.502995 0.83426 0.50206
2590 1 0.514353 0.851524 0.50224
5257 1 0.528972 0.842629 0.504182
5183 1 0.543859 0.833831 0.504156
5321 1 0.5418 0.845442 0.503993
5263 1 0.553731 0.849907 0.504311
5182 1 0.557094 0.837393 0.504438
5189 1 0.569769 0.841269 0.50547
5186 1 0.564725 0.851389 0.503435
5185 1 0.58225 0.843757 0.506315
5116 1 0.597331 0.833709 0.507299
5187 1 0.593036 0.846254 0.506035
5119 1 0.609807 0.837327 0.507077
5192 1 0.603491 0.847872 0.505801
5124 1 0.621008 0.842454 0.507075
5056 1 0.633264 0.84522 0.505956
5121 1 0.645287 0.845096 0.506024
5132 1 0.648036 0.834388 0.505052
5193 1 0.661345 0.837986 0.505127
5055 1 0.656929 0.850105 0.504093
5058 1 0.67301 0.843084 0.50507
5128 1 0.684871 0.844907 0.505122
5052 1 0.689499 0.833946 0.505558
5129 1 0.700831 0.837068 0.504158
5127 1 0.69659 0.850662 0.50493
5062 1 0.712221 0.83973 0.504622
5066 1 0.725878 0.843806 0.504774
5064 1 0.73832 0.848688 0.50501
5281 1 0.740322 0.835116 0.504625
5215 1 0.753042 0.83685 0.504715
5142 1 0.749446 0.850575 0.505396
5208 1 0.764313 0.841177 0.503361
5218 1 0.776039 0.843472 0.502944
5221 1 0.790107 0.841652 0.501444
5084 1 0.801566 0.834999 0.500871
5224 1 0.814407 0.83389 0.501529
5160 1 0.868939 0.833461 0.500766
5158 1 0.859276 0.842107 0.50133
5164 1 0.868472 0.850706 0.500948
5231 1 0.877751 0.8411 0.501579
5165 1 0.884438 0.85025 0.502076
5096 1 0.89577 0.840203 0.50386
5168 1 0.906404 0.848023 0.502034
5098 1 0.914415 0.838657 0.504276
5243 1 0.924238 0.846195 0.504827
5174 1 0.939233 0.845895 0.505829
5170 1 0.929044 0.833838 0.505708
5172 1 0.949601 0.836403 0.504938
5245 1 0.960647 0.845503 0.50538
5175 1 0.968299 0.834995 0.505576
5178 1 0.978937 0.842827 0.504873
5176 1 0.986173 0.834369 0.504586
2383 1 0.995365 0.843502 0.504109
5251 1 0.503526 0.853295 0.501271
5181 1 0.512998 0.865916 0.50272
5112 1 0.525665 0.854248 0.504353
5254 1 0.522985 0.868931 0.503552
5395 1 0.535124 0.870202 0.503147
5184 1 0.537949 0.859222 0.503567
5198 1 0.549545 0.862726 0.503069
5196 1 0.56302 0.864603 0.503771
5330 1 0.574732 0.867889 0.503613
5261 1 0.578251 0.857791 0.504909
5331 1 0.589966 0.858666 0.506196
5265 1 0.604029 0.861892 0.506376
5120 1 0.617206 0.854465 0.507154
5118 1 0.615663 0.869425 0.506454
5268 1 0.630796 0.857487 0.507342
5123 1 0.64218 0.859626 0.50623
5054 1 0.653321 0.861805 0.505482
5273 1 0.666547 0.866267 0.503829
5205 1 0.66912 0.855103 0.504199
5190 1 0.681572 0.858223 0.503273
5195 1 0.677568 0.869889 0.502333
5122 1 0.693181 0.861979 0.504522
5067 1 0.709132 0.852063 0.504415
5060 1 0.705116 0.86582 0.505151
5065 1 0.716977 0.867862 0.50513
5284 1 0.72107 0.85594 0.505395
5349 1 0.734309 0.859351 0.505589
5209 1 0.747127 0.862721 0.504168
5213 1 0.758003 0.866172 0.503586
5216 1 0.771376 0.857834 0.503053
5289 1 0.760672 0.854413 0.503631
5287 1 0.771331 0.870002 0.502913
5290 1 0.783005 0.85934 0.501616
5232 1 0.865262 0.869044 0.501646
5166 1 0.875231 0.85954 0.500398
5301 1 0.884774 0.867055 0.50151
5234 1 0.896214 0.857345 0.502602
5237 1 0.903859 0.86566 0.501993
5241 1 0.915339 0.857736 0.50343
5239 1 0.924584 0.865049 0.503528
5244 1 0.932693 0.855444 0.504585
5311 1 0.942845 0.863919 0.503933
5315 1 0.960842 0.862856 0.505163
5246 1 0.95027 0.852671 0.504523
5247 1 0.968342 0.854092 0.505011
5250 1 0.976243 0.865105 0.504394
5249 1 0.986174 0.85412 0.504331
2316 1 0.995113 0.862601 0.502608
2589 1 0.509394 0.881915 0.501143
5259 1 0.504299 0.87126 0.500208
5252 1 0.519733 0.880381 0.502419
5397 1 0.532292 0.884258 0.50292
5256 1 0.548168 0.876426 0.503717
5327 1 0.541807 0.8874 0.503391
5255 1 0.559733 0.876551 0.501921
5329 1 0.571855 0.878444 0.502919
5399 1 0.556216 0.887809 0.502478
5267 1 0.587247 0.870458 0.504747
5264 1 0.583608 0.882172 0.502456
5398 1 0.598029 0.873835 0.504
5471 1 0.595396 0.885794 0.50266
5115 1 0.611001 0.880864 0.505158
5191 1 0.627224 0.870633 0.506917
5200 1 0.623374 0.882832 0.505026
5262 1 0.639166 0.873868 0.506987
5202 1 0.636501 0.886081 0.505075
5272 1 0.648441 0.888248 0.505425
5338 1 0.650502 0.874268 0.50631
5130 1 0.661833 0.878681 0.503121
5137 1 0.674878 0.883048 0.504128
5206 1 0.690603 0.874814 0.504453
5203 1 0.686067 0.887032 0.502419
5210 1 0.701218 0.878127 0.503247
5134 1 0.712042 0.881891 0.503376
5144 1 0.726792 0.871137 0.503809
5277 1 0.725908 0.885425 0.505222
5350 1 0.737296 0.886066 0.503792
5212 1 0.75444 0.87919 0.503095
5219 1 0.741493 0.873409 0.503647
5214 1 0.769807 0.888498 0.500197
5351 1 0.765014 0.879335 0.502185
5421 1 0.780338 0.885372 0.500481
5222 1 0.781553 0.87275 0.500273
5294 1 0.796527 0.871509 0.500845
5292 1 0.805949 0.880475 0.500368
5229 1 0.850845 0.871342 0.500415
5297 1 0.833339 0.873422 0.500152
5299 1 0.858453 0.880597 0.500438
5302 1 0.868631 0.886592 0.501128
5233 1 0.875895 0.876345 0.502125
5304 1 0.884997 0.883425 0.502138
5303 1 0.90331 0.883656 0.502527
5235 1 0.894754 0.875152 0.502371
5236 1 0.914275 0.873793 0.502317
5238 1 0.921943 0.882952 0.502931
5242 1 0.933603 0.873725 0.504149
5308 1 0.941156 0.882854 0.50224
5312 1 0.957837 0.881865 0.505344
5313 1 0.949899 0.871482 0.504615
2451 1 0.977104 0.88127 0.503255
5317 1 0.96657 0.873466 0.504934
2382 1 0.986733 0.874151 0.503175
5248 1 0.996482 0.882461 0.501413
2587 1 0.516524 0.895291 0.502014
2520 1 0.507057 0.893988 0.500619
5323 1 0.520857 0.906699 0.500994
2588 1 0.530408 0.897051 0.503019
5322 1 0.544892 0.898352 0.502737
5325 1 0.554867 0.902573 0.503003
5393 1 0.537186 0.905667 0.501876
5260 1 0.569249 0.891356 0.502194
5396 1 0.566131 0.902557 0.500768
5326 1 0.580291 0.892929 0.503761
5472 1 0.580792 0.906112 0.502355
5400 1 0.60782 0.892172 0.503549
5404 1 0.593381 0.898172 0.503155
5539 1 0.611419 0.904416 0.503545
5199 1 0.620334 0.895955 0.504391
5194 1 0.632331 0.897153 0.503173
5339 1 0.643661 0.900128 0.504391
5266 1 0.656017 0.902474 0.504728
5131 1 0.659049 0.889988 0.504882
5133 1 0.672311 0.895559 0.50291
5271 1 0.683718 0.898439 0.503016
5340 1 0.698583 0.890355 0.50475
5136 1 0.696027 0.902134 0.503817
5345 1 0.710474 0.894255 0.504029
5278 1 0.708864 0.905769 0.502929
5274 1 0.722037 0.89741 0.503719
5286 1 0.734207 0.901499 0.503218
5420 1 0.750261 0.890265 0.502586
5276 1 0.746692 0.902427 0.501633
5489 1 0.757725 0.906511 0.501838
5355 1 0.773079 0.900672 0.502504
5280 1 0.760989 0.893306 0.502228
5293 1 0.784115 0.898922 0.500395
5365 1 0.860141 0.895591 0.500862
5371 1 0.888835 0.902631 0.501065
5369 1 0.871706 0.905259 0.500848
5368 1 0.878341 0.894934 0.501117
5306 1 0.903404 0.901636 0.503195
5373 1 0.894523 0.892451 0.501844
5305 1 0.912964 0.892508 0.502658
5307 1 0.923285 0.900248 0.502045
5240 1 0.931327 0.890027 0.50318
5310 1 0.941823 0.89981 0.502745
5314 1 0.949896 0.890157 0.503845
5383 1 0.96094 0.900227 0.503069
5384 1 0.9795 0.899949 0.504276
5385 1 0.968623 0.891937 0.503733
5389 1 0.99443 0.900437 0.501503
5316 1 0.986241 0.891221 0.502864
5394 1 0.520072 0.919468 0.501597
5469 1 0.529548 0.915076 0.50198
5463 1 0.538501 0.924693 0.502682
5324 1 0.545794 0.916479 0.5035
5467 1 0.55738 0.914428 0.502516
5328 1 0.569707 0.914238 0.502988
5470 1 0.556335 0.925163 0.503039
5544 1 0.590443 0.917335 0.503043
5402 1 0.579239 0.924069 0.504889
5538 1 0.599869 0.909069 0.503463
5332 1 0.607452 0.922409 0.503245
5334 1 0.628201 0.909001 0.503255
5478 1 0.617275 0.915157 0.503122
5479 1 0.633714 0.922477 0.503315
5197 1 0.64031 0.911547 0.504482
5135 1 0.651735 0.917699 0.503569
5270 1 0.663667 0.918967 0.503168
5341 1 0.667956 0.908529 0.502736
5343 1 0.676044 0.921895 0.503015
5409 1 0.679836 0.909929 0.501476
5279 1 0.691813 0.912707 0.503299
5344 1 0.688352 0.925671 0.502929
5204 1 0.718743 0.912605 0.501578
5347 1 0.704165 0.917166 0.504281
5418 1 0.715225 0.924156 0.502489
5417 1 0.731268 0.913185 0.501931
5495 1 0.727566 0.925173 0.502039
5422 1 0.756056 0.919718 0.500483
5207 1 0.743509 0.915896 0.500531
5431 1 0.768374 0.925592 0.502385
5282 1 0.769297 0.910701 0.501037
5432 1 0.796137 0.924892 0.500716
5370 1 0.881188 0.913847 0.500034
5372 1 0.897772 0.911365 0.500072
5374 1 0.906626 0.919409 0.500686
5375 1 0.914116 0.909549 0.502237
5379 1 0.924149 0.918831 0.501233
5309 1 0.933034 0.909116 0.501179
5380 1 0.941611 0.918148 0.501697
5381 1 0.94958 0.909866 0.502072
5453 1 0.959118 0.918125 0.501413
5455 1 0.968822 0.909626 0.502566
5387 1 0.97818 0.916924 0.501095
5386 1 0.987162 0.908483 0.501654
5536 1 0.526664 0.929961 0.501694
5465 1 0.528505 0.943626 0.501299
5466 1 0.553805 0.934585 0.503901
5468 1 0.541727 0.938609 0.502383
2809 1 0.567654 0.92773 0.503281
5540 1 0.57093 0.938633 0.504251
5535 1 0.560514 0.94377 0.502752
5405 1 0.584338 0.933963 0.50383
5403 1 0.59586 0.927885 0.503666
5408 1 0.600853 0.938337 0.503586
5401 1 0.611591 0.935986 0.504011
5333 1 0.621607 0.927936 0.504776
5410 1 0.627111 0.939305 0.505854
5337 1 0.639868 0.933742 0.505775
5335 1 0.648431 0.928055 0.503938
5414 1 0.656322 0.940984 0.505379
5483 1 0.661131 0.932172 0.504637
5275 1 0.673499 0.935087 0.504894
5482 1 0.684966 0.939094 0.504373
5342 1 0.700071 0.9306 0.5043
5346 1 0.712424 0.935486 0.503708
5416 1 0.721659 0.941282 0.502843
5491 1 0.736148 0.942034 0.501954
5348 1 0.753381 0.934371 0.501693
5354 1 0.777261 0.939792 0.501329
5360 1 0.764747 0.937139 0.502131
5357 1 0.780363 0.927424 0.500841
5446 1 0.889339 0.937739 0.500297
5376 1 0.906438 0.936745 0.501108
5377 1 0.916105 0.929062 0.500854
5378 1 0.926022 0.938095 0.500814
5448 1 0.931897 0.926579 0.50194
5451 1 0.942423 0.936763 0.501508
5452 1 0.961017 0.934988 0.500068
5382 1 0.95026 0.926729 0.501148
5454 1 0.969257 0.927216 0.501241
139 1 0.524853 0.960929 0.500795
69 1 0.536668 0.955564 0.502536
5537 1 0.547174 0.949781 0.503017
2805 1 0.552193 0.961009 0.50351
2807 1 0.565927 0.955548 0.502756
5541 1 0.587486 0.945073 0.504137
5545 1 0.577557 0.950525 0.503986
2806 1 0.583825 0.961693 0.503852
5546 1 0.594085 0.956101 0.504314
5473 1 0.605315 0.952726 0.505005
5406 1 0.616937 0.946589 0.505942
5412 1 0.621214 0.957284 0.507101
5269 1 0.644794 0.945667 0.505943
5551 1 0.633576 0.949816 0.506234
2821 1 0.63795 0.961602 0.506472
5411 1 0.650837 0.955618 0.505531
2825 1 0.662992 0.950314 0.506224
5559 1 0.673927 0.946226 0.50605
5556 1 0.680561 0.956079 0.505987
5494 1 0.702565 0.94566 0.503388
5413 1 0.692073 0.948391 0.504442
5490 1 0.695198 0.960949 0.506301
5488 1 0.706432 0.955603 0.504064
5423 1 0.719878 0.954512 0.503352
5424 1 0.739887 0.962961 0.502992
5487 1 0.733471 0.952721 0.501117
5500 1 0.749768 0.955943 0.502333
5428 1 0.746982 0.945844 0.500837
5419 1 0.777035 0.957647 0.500693
5283 1 0.771062 0.948491 0.502276
5570 1 0.760193 0.950103 0.501021
5519 1 0.891487 0.958814 0.500808
5588 1 0.898466 0.947033 0.501214
5589 1 0.908401 0.955278 0.501898
5447 1 0.917032 0.945457 0.502121
5449 1 0.936047 0.946287 0.501264
5520 1 0.92843 0.954975 0.501122
5521 1 0.94556 0.955125 0.500388
5450 1 0.952628 0.9458 0.500843
5523 1 0.963426 0.952811 0.500287
5599 1 0.970086 0.962431 0.500336
68 1 0.513574 0.965025 0.500308
2944 1 0.518758 0.978012 0.501246
2873 1 0.530328 0.97175 0.502176
5534 1 0.541187 0.967491 0.50266
5533 1 0.546449 0.98096 0.503436
2804 1 0.571635 0.967441 0.503026
2882 1 0.558348 0.974093 0.502889
2879 1 0.578372 0.97842 0.503673
5543 1 0.589757 0.972323 0.505341
2813 1 0.60064 0.966168 0.504271
5407 1 0.611031 0.963083 0.505613
2881 1 0.617024 0.974488 0.505699
5476 1 0.626271 0.967499 0.50662
2820 1 0.643973 0.972946 0.506955
5336 1 0.63516 0.979998 0.50724
5549 1 0.661761 0.979534 0.506774
5480 1 0.655127 0.966829 0.506016
5485 1 0.672591 0.973655 0.507434
5481 1 0.667816 0.963205 0.506428
5555 1 0.685387 0.966684 0.505946
5415 1 0.690808 0.978609 0.507423
5484 1 0.702053 0.972612 0.505721
5486 1 0.717698 0.977337 0.503151
5492 1 0.712203 0.966624 0.5046
5560 1 0.727927 0.969275 0.503973
2846 1 0.75639 0.969039 0.503382
5493 1 0.745094 0.974389 0.502695
5426 1 0.765928 0.963372 0.501425
5571 1 0.773057 0.972589 0.503251
5569 1 0.788812 0.978988 0.500464
5582 1 0.864589 0.967505 0.500051
2861 1 0.882506 0.967167 0.500906
2870 1 0.900659 0.966693 0.501572
2858 1 0.891992 0.976667 0.501593
5591 1 0.909008 0.974248 0.501362
2859 1 0.91797 0.963738 0.500772
5600 1 0.943758 0.97235 0.500114
5594 1 0.927193 0.971583 0.500416
140 1 0.511169 0.996151 0.500002
2946 1 0.535327 0.984323 0.502336
3016 1 0.522667 0.989408 0.501496
2945 1 0.553104 0.990932 0.503557
2948 1 0.538315 0.99783 0.503704
2875 1 0.571293 0.993439 0.503264
2872 1 0.564194 0.984174 0.502652
2956 1 0.588142 0.999928 0.50211
5532 1 0.582478 0.988807 0.503628
2811 1 0.599856 0.994928 0.503684
2877 1 0.595717 0.984283 0.505472
5475 1 0.60675 0.982058 0.5053
5547 1 0.623111 0.985457 0.50615
5548 1 0.628156 0.998203 0.505109
2876 1 0.611563 0.992983 0.505916
2824 1 0.639863 0.991821 0.504983
5553 1 0.664854 0.990823 0.506489
5552 1 0.64981 0.984642 0.506585
2823 1 0.656 0.996415 0.506016
2891 1 0.683127 0.994297 0.506746
2822 1 0.677697 0.984145 0.507099
2893 1 0.696596 0.989788 0.505236
2895 1 0.705955 0.983119 0.503881
2899 1 0.714093 0.994804 0.503614
2903 1 0.729703 0.998336 0.504062
5565 1 0.723448 0.987685 0.502854
5567 1 0.734107 0.982415 0.503511
5496 1 0.758385 0.998682 0.502373
5501 1 0.752024 0.987296 0.503582
5427 1 0.741473 0.992115 0.503312
5498 1 0.777763 0.984225 0.502022
5497 1 0.761652 0.98221 0.502731
5568 1 0.769407 0.991641 0.502923
2911 1 0.805395 0.998961 0.500332
2915 1 0.797827 0.989818 0.500947
2920 1 0.806636 0.98301 0.500328
2916 1 0.815443 0.995401 0.500067
2848 1 0.832572 0.998683 0.501276
5576 1 0.827862 0.986431 0.500337
2847 1 0.843436 0.994889 0.50069
5517 1 0.853215 0.987544 0.500033
5585 1 0.883881 0.985582 0.502007
2851 1 0.872542 0.993737 0.502416
2853 1 0.890098 0.99486 0.502379
5518 1 0.900825 0.985153 0.502829
5596 1 0.919124 0.983252 0.501628
2929 1 0.911267 0.992037 0.502268
5595 1 0.937365 0.982997 0.500548
2734 1 0.956408 0.997241 0.500476
2732 1 0.963731 0.990508 0.500054
ITEM: TIMESTEP
400000
ITEM: NUMBER OF ATOMS
5600
ITEM: BOX BOUNDS pp pp pp
-3.8535000000000004e+01 3.8535000000000004e+01
-3.8139758782666611e+01 3.8139758782666611e+01
-6.6060000000000016e+01 6.6060000000000016e+01
ITEM: ATOMS id type xs ys zs
1464 1 0.0439954 0.213778 0.273772
2666 1 0.0136943 0.0154449 0.499105
2665 1 0.00217522 0.00400679 0.499398
2741 1 0.0214761 0.00810272 0.498647
8 1 0.0391318 0.00229895 0.498898
17 1 0.0398391 0.0136372 0.498268
2737 1 0.0522038 0.00981548 0.497706
2744 1 0.064794 0.00629834 0.498386
2671 1 0.0706334 0.0166436 0.498899
2740 1 0.0843992 0.0110865 0.497559
2745 1 0.0773227 4.91885e-05 0.497364
2678 1 0.105251 0.000169819 0.500343
2748 1 0.0942631 0.00100227 0.49825
2536 1 0.0951112 0.0150308 0.500406
2613 1 0.144885 0.00317478 0.501115
2608 1 0.157567 0.00453008 0.500893
129 1 0.403667 0.00367351 0.499603
135 1 0.421524 0.0130851 0.499692
60 1 0.418374 0.00224941 0.499654
66 1 0.433862 0.00958971 0.498362
209 1 0.446706 0.00669282 0.49739
280 1 0.457682 0.00341511 0.497541
416 1 0.462433 0.0157475 0.496841
3153 1 0.473885 0.00729996 0.497964
2802 1 0.498538 0.00112532 0.49902
3085 1 0.486897 0.00596307 0.497996
3018 1 0.49081 0.0172004 0.498277
5 1 0.0110531 0.0277551 0.500406
2738 1 0.0213542 0.0291051 0.49885
2735 1 0.0279071 0.0175686 0.499317
80 1 0.0378715 0.0322079 0.499705
2743 1 0.0464974 0.0226142 0.497948
81 1 0.0511386 0.036111 0.498809
10 1 0.0571742 0.0209561 0.49776
151 1 0.0677813 0.0299926 0.497621
2676 1 0.0774275 0.0363095 0.498412
13 1 0.0844458 0.0255427 0.499023
19 1 0.0953395 0.0266478 0.499455
203 1 0.386403 0.0336898 0.500661
137 1 0.423291 0.0251336 0.498993
62 1 0.438838 0.0346058 0.498038
210 1 0.437159 0.0229263 0.497051
3013 1 0.453031 0.0293779 0.497258
350 1 0.449794 0.0197181 0.498324
3082 1 0.465332 0.0312799 0.498658
3014 1 0.47429 0.0182869 0.496406
3155 1 0.481051 0.0334829 0.497883
490 1 0.493842 0.0287435 0.497904
4 1 0.00915966 0.0383235 0.499347
217 1 0.0175772 0.0435059 0.499314
76 1 0.0173985 0.0550961 0.499539
289 1 0.0042774 0.0535995 0.499862
77 1 0.0267234 0.0379011 0.499199
146 1 0.0364357 0.0433187 0.499729
149 1 0.0625038 0.0403139 0.49968
84 1 0.0613816 0.0517301 0.499146
79 1 0.0859707 0.0428869 0.498662
90 1 0.0907243 0.0557603 0.499576
159 1 0.0962723 0.0380113 0.4984
195 1 0.348411 0.0515331 0.497804
196 1 0.361605 0.051482 0.499387
198 1 0.376012 0.0485456 0.49837
273 1 0.388529 0.0449571 0.498479
205 1 0.40252 0.0434364 0.498339
274 1 0.417905 0.0514558 0.49837
347 1 0.41358 0.0399837 0.498198
277 1 0.428019 0.0501868 0.496518
3011 1 0.439968 0.0497989 0.498415
278 1 0.426119 0.0384362 0.498263
420 1 0.451056 0.0416046 0.497612
417 1 0.459075 0.0483709 0.497383
208 1 0.469747 0.0419313 0.497531
3084 1 0.477216 0.0520176 0.496718
3086 1 0.487499 0.0444441 0.496999
3225 1 0.498888 0.0393828 0.497071
215 1 0.0168914 0.0672758 0.499643
218 1 0.0288672 0.0645696 0.499878
82 1 0.0546241 0.0609668 0.49984
14 1 0.0903152 0.0662126 0.4993
172 1 0.183968 0.0633818 0.499619
183 1 0.276538 0.0699509 0.500378
185 1 0.289462 0.0670451 0.498891
190 1 0.313844 0.0598924 0.500403
189 1 0.300473 0.0644157 0.500008
191 1 0.324251 0.0571734 0.49966
259 1 0.314512 0.0743937 0.498176
262 1 0.32693 0.0672598 0.496796
193 1 0.336542 0.0554855 0.497766
192 1 0.339731 0.0676857 0.495486
194 1 0.35248 0.0654085 0.497076
200 1 0.365768 0.0622034 0.495988
201 1 0.378952 0.0616334 0.496964
202 1 0.378892 0.0742779 0.495422
204 1 0.390852 0.0574697 0.497955
271 1 0.405049 0.0552917 0.49887
269 1 0.392361 0.0705421 0.49766
344 1 0.403648 0.069164 0.498272
340 1 0.416972 0.0677737 0.498195
3151 1 0.442122 0.0623083 0.497952
275 1 0.427723 0.0641944 0.497026
349 1 0.444659 0.0740975 0.496217
346 1 0.455744 0.069759 0.498291
207 1 0.452015 0.0579161 0.49782
3221 1 0.463524 0.058678 0.498233
3154 1 0.46885 0.067532 0.498183
414 1 0.480646 0.0641702 0.497108
3222 1 0.493701 0.0584926 0.49692
3224 1 0.496316 0.0728468 0.49836
103 1 0.18393 0.0759263 0.499466
23 1 0.171477 0.0778442 0.499908
177 1 0.200619 0.0842659 0.498732
317 1 0.212151 0.0833753 0.499437
99 1 0.238527 0.0789937 0.500146
319 1 0.241743 0.0908973 0.498992
253 1 0.266932 0.0855389 0.498471
186 1 0.290379 0.0798414 0.498602
254 1 0.277601 0.0816937 0.498973
255 1 0.304453 0.0887177 0.498036
188 1 0.30184 0.0759657 0.499299
257 1 0.316312 0.0872518 0.496836
330 1 0.328716 0.0818414 0.495833
332 1 0.342927 0.0817998 0.496222
264 1 0.366784 0.0753641 0.494297
331 1 0.370969 0.0893375 0.495761
261 1 0.353055 0.0773139 0.495535
263 1 0.380603 0.0899874 0.495294
267 1 0.393472 0.0853026 0.497035
407 1 0.407435 0.0838351 0.496518
345 1 0.417533 0.0806997 0.497059
341 1 0.422867 0.0911998 0.49581
3081 1 0.431342 0.0768537 0.497025
348 1 0.434111 0.0892555 0.496457
412 1 0.446826 0.0867014 0.496827
419 1 0.457637 0.0827919 0.496215
629 1 0.467199 0.0775421 0.497956
3292 1 0.47496 0.0848977 0.498524
3291 1 0.490526 0.0889523 0.497862
418 1 0.484629 0.0771868 0.498042
170 1 0.202027 0.0976071 0.498732
304 1 0.189883 0.0996791 0.499901
244 1 0.215192 0.0947711 0.498285
169 1 0.215765 0.107712 0.498143
308 1 0.204301 0.110452 0.499531
240 1 0.230131 0.104964 0.49717
176 1 0.227711 0.0928458 0.499247
247 1 0.243847 0.102373 0.498758
249 1 0.256102 0.100709 0.497654
321 1 0.271513 0.110904 0.498263
251 1 0.268214 0.099267 0.49732
323 1 0.284159 0.108558 0.4975
250 1 0.280875 0.0958805 0.498805
252 1 0.295373 0.103058 0.497409
256 1 0.292688 0.0914742 0.497893
258 1 0.307029 0.103912 0.497119
260 1 0.318463 0.098726 0.496763
401 1 0.331241 0.0967619 0.496103
400 1 0.332591 0.110149 0.495106
335 1 0.343149 0.0942538 0.494787
336 1 0.345679 0.106513 0.495397
334 1 0.358273 0.0905849 0.496305
333 1 0.359926 0.102421 0.495701
265 1 0.372119 0.101162 0.495272
338 1 0.385672 0.100822 0.494968
270 1 0.400247 0.11127 0.494921
404 1 0.398898 0.097508 0.49556
266 1 0.411402 0.0965379 0.496304
408 1 0.412517 0.107804 0.494804
409 1 0.426041 0.105602 0.495664
343 1 0.436688 0.101927 0.496187
480 1 0.45012 0.0987945 0.496342
483 1 0.464664 0.110578 0.49724
413 1 0.463554 0.0935038 0.498051
415 1 0.480417 0.0966909 0.49839
485 1 0.474201 0.105785 0.499261
487 1 0.493115 0.0992386 0.499466
236 1 0.191701 0.113034 0.499889
243 1 0.207214 0.123107 0.497928
239 1 0.218125 0.11928 0.497241
315 1 0.230773 0.115802 0.49843
381 1 0.235172 0.129707 0.496386
312 1 0.24741 0.127957 0.496087
246 1 0.244589 0.114485 0.497846
248 1 0.256582 0.111511 0.49808
316 1 0.259729 0.123849 0.497292
322 1 0.271885 0.122778 0.499016
393 1 0.28444 0.119883 0.49766
329 1 0.30908 0.114262 0.497975
325 1 0.3113 0.126992 0.498083
327 1 0.297152 0.118026 0.497395
399 1 0.321315 0.111442 0.497736
328 1 0.323159 0.123658 0.497318
467 1 0.349064 0.118932 0.494922
398 1 0.335619 0.120561 0.495202
405 1 0.362392 0.116092 0.494731
402 1 0.365109 0.128726 0.494824
403 1 0.388272 0.113372 0.494187
337 1 0.374714 0.112795 0.49409
268 1 0.389365 0.125545 0.494858
406 1 0.376556 0.127271 0.494901
339 1 0.403943 0.125064 0.494673
410 1 0.416105 0.121604 0.494481
342 1 0.427376 0.118596 0.495232
482 1 0.440936 0.11568 0.495765
481 1 0.440391 0.128405 0.497306
553 1 0.451862 0.113049 0.496886
551 1 0.452413 0.125117 0.497889
550 1 0.464746 0.122074 0.499112
362 1 0.0175941 0.145977 0.498883
291 1 0.0291051 0.146215 0.499069
357 1 0.0275432 0.13364 0.499157
430 1 0.0549519 0.139895 0.501684
358 1 0.041028 0.141354 0.499544
238 1 0.209117 0.134112 0.498396
382 1 0.213038 0.14457 0.49841
378 1 0.220959 0.131981 0.496797
451 1 0.225829 0.142862 0.496695
314 1 0.238227 0.144058 0.496557
385 1 0.250729 0.139772 0.495786
318 1 0.261377 0.136892 0.496313
320 1 0.275738 0.133581 0.497089
386 1 0.276962 0.147072 0.496858
324 1 0.287879 0.133048 0.498253
387 1 0.289018 0.14502 0.498503
326 1 0.299191 0.130138 0.49764
395 1 0.301335 0.142267 0.4976
397 1 0.314473 0.139167 0.497156
469 1 0.326307 0.13684 0.496984
391 1 0.338458 0.133781 0.495921
465 1 0.351001 0.131383 0.495728
394 1 0.342478 0.145248 0.494938
473 1 0.368725 0.141548 0.494759
466 1 0.354613 0.144651 0.495127
471 1 0.381538 0.140405 0.495945
479 1 0.403043 0.139353 0.493877
475 1 0.392674 0.138338 0.494193
543 1 0.419623 0.147642 0.495
411 1 0.415106 0.135387 0.495213
478 1 0.427694 0.131439 0.495907
545 1 0.430384 0.144269 0.495828
549 1 0.44296 0.140568 0.497742
548 1 0.455929 0.138838 0.499289
558 1 0.495555 0.140392 0.500313
351 1 0.00529745 0.14804 0.500341
290 1 0.00461288 0.16354 0.498273
352 1 0.0180368 0.156702 0.497955
423 1 0.0324549 0.158398 0.498496
377 1 0.201847 0.14795 0.499392
519 1 0.217294 0.160745 0.498821
518 1 0.20287 0.160977 0.499461
379 1 0.240177 0.156611 0.496217
520 1 0.227112 0.154999 0.496882
383 1 0.251644 0.15353 0.495189
455 1 0.254192 0.165525 0.495973
526 1 0.26634 0.162387 0.494879
453 1 0.265791 0.149247 0.497144
458 1 0.279375 0.160224 0.496368
384 1 0.292234 0.157249 0.496084
388 1 0.303663 0.154224 0.498
396 1 0.316562 0.151853 0.49608
392 1 0.328343 0.151327 0.495104
390 1 0.319595 0.165113 0.495848
463 1 0.3326 0.161437 0.493863
464 1 0.345673 0.156965 0.493711
468 1 0.357972 0.157049 0.494051
470 1 0.370308 0.154846 0.494014
541 1 0.385458 0.168765 0.495507
472 1 0.381802 0.15481 0.495777
476 1 0.405168 0.150958 0.493845
477 1 0.393764 0.151886 0.494344
542 1 0.396842 0.164087 0.49569
615 1 0.421046 0.159424 0.496328
474 1 0.409891 0.161734 0.495311
546 1 0.4342 0.157569 0.496744
552 1 0.44996 0.164958 0.496868
619 1 0.446845 0.152761 0.497328
623 1 0.462152 0.160425 0.499879
493 1 0.00702465 0.172472 0.496476
562 1 0.0102552 0.185982 0.49657
495 1 0.0328818 0.170642 0.498596
424 1 0.020483 0.1712 0.497778
494 1 0.0221266 0.183824 0.497291
426 1 0.0358976 0.182007 0.498658
380 1 0.217796 0.171717 0.498965
456 1 0.22992 0.168772 0.497741
450 1 0.232664 0.183081 0.497574
457 1 0.240878 0.167814 0.49727
454 1 0.244969 0.180802 0.497697
525 1 0.256995 0.178398 0.495659
527 1 0.270138 0.174638 0.496269
460 1 0.283131 0.172552 0.495379
459 1 0.295667 0.169808 0.496618
529 1 0.284401 0.186423 0.496188
605 1 0.29741 0.182454 0.496617
389 1 0.308748 0.167068 0.496051
461 1 0.311168 0.180327 0.496877
533 1 0.323946 0.177654 0.49561
607 1 0.334778 0.174441 0.495613
609 1 0.351357 0.18523 0.496129
535 1 0.346597 0.172147 0.494364
537 1 0.35939 0.170236 0.494773
538 1 0.362243 0.181468 0.495038
539 1 0.372019 0.166819 0.495005
611 1 0.386056 0.179376 0.495513
540 1 0.374726 0.180455 0.495039
613 1 0.401237 0.17754 0.494777
616 1 0.413919 0.173579 0.495276
544 1 0.42537 0.172738 0.495438
620 1 0.429047 0.184694 0.495305
617 1 0.436624 0.167838 0.495663
621 1 0.440173 0.181379 0.494055
622 1 0.451682 0.177746 0.496817
554 1 0.465001 0.173414 0.499156
697 1 0.463819 0.184473 0.49836
561 1 0.0020052 0.200186 0.496662
564 1 0.0121047 0.199457 0.497302
492 1 0.023816 0.195861 0.497532
496 1 0.0497594 0.193504 0.499717
497 1 0.0364206 0.195135 0.498108
502 1 0.0661697 0.201215 0.500009
578 1 0.119691 0.20481 0.499369
516 1 0.194219 0.186689 0.500252
586 1 0.194979 0.197202 0.499766
589 1 0.22023 0.184071 0.498278
587 1 0.205976 0.183805 0.498959
661 1 0.213395 0.19464 0.497919
658 1 0.202928 0.202527 0.497551
659 1 0.219754 0.204342 0.498336
591 1 0.226493 0.195565 0.496556
452 1 0.238172 0.192665 0.498012
523 1 0.250094 0.191613 0.497651
597 1 0.261598 0.191012 0.496808
528 1 0.273086 0.187817 0.496813
599 1 0.27761 0.199533 0.498077
530 1 0.28946 0.196772 0.498218
532 1 0.300449 0.195633 0.498323
531 1 0.31347 0.192528 0.497279
534 1 0.325521 0.189782 0.49768
603 1 0.328315 0.202309 0.499132
536 1 0.338502 0.186936 0.496278
604 1 0.338862 0.200157 0.498631
683 1 0.3521 0.197365 0.496653
612 1 0.362763 0.194429 0.494842
685 1 0.375561 0.194451 0.495845
614 1 0.390723 0.192203 0.49555
688 1 0.406219 0.202292 0.494935
687 1 0.403442 0.189869 0.495601
618 1 0.416489 0.187132 0.495371
689 1 0.418011 0.197994 0.494927
695 1 0.443153 0.193899 0.495438
691 1 0.428646 0.197106 0.495332
696 1 0.456017 0.191203 0.496168
625 1 0.473951 0.188633 0.499422
630 1 0.464913 0.201509 0.497307
766 1 0.475836 0.199623 0.500052
633 1 0.0025801 0.213101 0.498096
635 1 0.015484 0.212283 0.497265
565 1 0.0278505 0.210342 0.497742
637 1 0.0319282 0.223014 0.49807
567 1 0.0533391 0.205299 0.499706
563 1 0.0418729 0.208981 0.497852
641 1 0.058035 0.217143 0.499275
570 1 0.0691802 0.214337 0.499358
572 1 0.0814468 0.212083 0.500255
645 1 0.11086 0.217444 0.4993
644 1 0.0980469 0.21924 0.498555
510 1 0.124139 0.218446 0.499407
588 1 0.197546 0.212012 0.49938
727 1 0.211666 0.210464 0.498134
660 1 0.214717 0.222677 0.498293
652 1 0.229668 0.210182 0.498807
590 1 0.240562 0.205003 0.497982
522 1 0.24073 0.219061 0.497429
521 1 0.252106 0.216894 0.498735
524 1 0.251088 0.204676 0.498446
598 1 0.263078 0.202585 0.498096
667 1 0.265421 0.214949 0.49877
600 1 0.279543 0.212408 0.499578
601 1 0.29084 0.208678 0.500223
671 1 0.295172 0.221563 0.50011
602 1 0.305358 0.208424 0.500081
462 1 0.316812 0.204491 0.498517
675 1 0.331534 0.215489 0.498883
608 1 0.343561 0.213466 0.497684
606 1 0.356315 0.208565 0.497721
610 1 0.368025 0.207183 0.496602
678 1 0.370895 0.222421 0.496069
679 1 0.380966 0.207646 0.49473
682 1 0.383375 0.22031 0.493033
686 1 0.39348 0.20424 0.494035
757 1 0.394306 0.216628 0.494324
759 1 0.408301 0.214227 0.494051
690 1 0.419307 0.212338 0.495391
693 1 0.431519 0.207565 0.496122
763 1 0.43441 0.220718 0.49454
692 1 0.442989 0.208796 0.496054
694 1 0.453886 0.205053 0.494843
833 1 0.446715 0.219715 0.493587
698 1 0.457033 0.216963 0.49605
767 1 0.470211 0.213087 0.497892
837 1 0.481922 0.210092 0.498704
834 1 0.487263 0.219217 0.499709
631 1 0.00602978 0.226889 0.49773
703 1 0.00925141 0.238593 0.496572
636 1 0.0201904 0.226183 0.498058
638 1 0.0353681 0.234001 0.497662
634 1 0.0220832 0.237428 0.496641
640 1 0.0476991 0.232193 0.499823
568 1 0.060721 0.230264 0.499212
712 1 0.0732527 0.227769 0.498921
642 1 0.0763826 0.239575 0.497826
643 1 0.0864982 0.222236 0.498236
713 1 0.0887907 0.235964 0.49812
715 1 0.100444 0.233289 0.498013
649 1 0.113149 0.231178 0.499277
580 1 0.141573 0.238091 0.499893
723 1 0.190373 0.240523 0.500586
657 1 0.202615 0.225211 0.500631
662 1 0.215996 0.235729 0.499711
663 1 0.227378 0.221226 0.498476
592 1 0.229686 0.23422 0.498719
593 1 0.255067 0.228802 0.498616
595 1 0.243169 0.234224 0.498125
737 1 0.269361 0.228113 0.498368
666 1 0.283399 0.23824 0.500738
739 1 0.280286 0.225347 0.498006
669 1 0.295114 0.235008 0.500542
677 1 0.335114 0.228078 0.50022
681 1 0.347191 0.226428 0.497815
744 1 0.34747 0.239293 0.498937
747 1 0.359486 0.223726 0.497913
684 1 0.35914 0.236419 0.496801
749 1 0.372276 0.235419 0.494836
680 1 0.384578 0.232517 0.493748
753 1 0.395414 0.228101 0.493737
761 1 0.422216 0.224472 0.49428
756 1 0.414169 0.239359 0.492643
751 1 0.409968 0.227132 0.493969
898 1 0.426424 0.236184 0.493237
760 1 0.437942 0.232001 0.495006
899 1 0.448898 0.23172 0.493278
764 1 0.462185 0.228987 0.496089
835 1 0.472976 0.225302 0.497989
765 1 0.474793 0.23592 0.496108
832 1 0.488163 0.231042 0.498965
704 1 0.000764869 0.254162 0.496289
775 1 0.0123373 0.249554 0.495214
705 1 0.0234452 0.249057 0.495429
706 1 0.03757 0.247444 0.495259
639 1 0.0487091 0.243574 0.497218
709 1 0.053134 0.25636 0.495718
707 1 0.0391923 0.260569 0.495426
711 1 0.0623661 0.240109 0.496698
710 1 0.0647653 0.255126 0.496412
714 1 0.0775156 0.252116 0.496742
785 1 0.0887929 0.248792 0.497113
787 1 0.103217 0.246277 0.498565
646 1 0.116063 0.242373 0.499249
718 1 0.14192 0.251784 0.499724
648 1 0.152885 0.24909 0.49952
654 1 0.182256 0.257238 0.499603
594 1 0.257779 0.241723 0.499288
665 1 0.244912 0.244265 0.499894
596 1 0.269673 0.239824 0.499456
820 1 0.351863 0.253101 0.498466
746 1 0.362033 0.248808 0.496213
819 1 0.374667 0.247253 0.494754
752 1 0.377629 0.259241 0.495036
750 1 0.387384 0.246345 0.494406
821 1 0.391534 0.256755 0.493717
755 1 0.401598 0.240379 0.493009
830 1 0.402891 0.252776 0.494654
896 1 0.416399 0.252323 0.493429
758 1 0.42863 0.249779 0.494537
828 1 0.439684 0.245722 0.494289
762 1 0.440852 0.257902 0.494389
829 1 0.451312 0.24392 0.493941
900 1 0.454519 0.255103 0.493621
831 1 0.463817 0.241015 0.49507
902 1 0.478766 0.247462 0.494793
901 1 0.467524 0.25329 0.494521
1041 1 0.492585 0.242526 0.49674
971 1 0.493049 0.255137 0.495035
773 1 0.00369415 0.266327 0.495994
771 1 0.0139968 0.263056 0.495802
841 1 0.0167324 0.27757 0.497221
708 1 0.0257872 0.262368 0.496148
774 1 0.029187 0.273371 0.496433
779 1 0.0423053 0.272282 0.495833
780 1 0.0542696 0.270558 0.496288
781 1 0.0662426 0.267091 0.495548
783 1 0.0795124 0.264214 0.497086
782 1 0.0819228 0.276517 0.497005
786 1 0.104299 0.259237 0.499164
784 1 0.0916247 0.261029 0.496935
853 1 0.0941203 0.275636 0.497085
855 1 0.106766 0.27178 0.49686
789 1 0.118524 0.268783 0.498431
794 1 0.146882 0.27742 0.49938
720 1 0.14372 0.265347 0.499462
790 1 0.159663 0.271192 0.499634
725 1 0.173359 0.270056 0.499136
795 1 0.169168 0.258818 0.499352
799 1 0.18674 0.268182 0.499515
891 1 0.353071 0.265335 0.498445
822 1 0.366938 0.262155 0.496038
961 1 0.35564 0.276503 0.496764
824 1 0.368418 0.274601 0.496192
754 1 0.381087 0.271451 0.495022
748 1 0.392674 0.268907 0.49434
895 1 0.403703 0.265681 0.492896
965 1 0.415433 0.264915 0.492782
1107 1 0.419101 0.277012 0.494687
968 1 0.4268 0.261436 0.494058
897 1 0.429995 0.273318 0.493728
1039 1 0.442674 0.269873 0.494492
1037 1 0.45518 0.26709 0.49392
969 1 0.468481 0.265343 0.493961
1254 1 0.472462 0.275992 0.496296
1044 1 0.496785 0.268434 0.494058
974 1 0.482981 0.260077 0.495272
972 1 0.484664 0.272486 0.495261
3638 1 0.00611759 0.293076 0.496069
911 1 0.00611228 0.279077 0.494754
844 1 0.0205764 0.288325 0.496082
777 1 0.0319766 0.285711 0.498463
776 1 0.0446172 0.283933 0.497025
778 1 0.0574156 0.282123 0.496424
849 1 0.0699112 0.278689 0.496413
850 1 0.0725327 0.2917 0.498432
847 1 0.0593442 0.293746 0.497882
851 1 0.0850353 0.287884 0.498158
852 1 0.0960661 0.287998 0.498392
856 1 0.107598 0.284841 0.497936
854 1 0.124654 0.293192 0.499556
791 1 0.121821 0.280641 0.499063
788 1 0.134538 0.278656 0.499564
857 1 0.136404 0.290891 0.498177
861 1 0.150797 0.289166 0.498022
796 1 0.162128 0.282508 0.497336
797 1 0.174195 0.281814 0.498113
867 1 0.178019 0.293911 0.497085
800 1 0.18889 0.294827 0.498715
873 1 0.201094 0.29379 0.499564
798 1 0.187947 0.281513 0.49915
958 1 0.345085 0.291478 0.49894
1102 1 0.370706 0.287714 0.495786
963 1 0.357816 0.289492 0.497648
962 1 0.383451 0.284363 0.495251
1034 1 0.406998 0.278341 0.493792
827 1 0.396506 0.282758 0.494218
826 1 0.39755 0.294566 0.493196
1105 1 0.410722 0.291059 0.494009
966 1 0.42274 0.289245 0.493321
1174 1 0.433599 0.284365 0.493934
970 1 0.458289 0.279329 0.494521
967 1 0.445726 0.282394 0.49395
1253 1 0.449776 0.295484 0.494499
1042 1 0.461009 0.292803 0.495774
1109 1 0.474588 0.28893 0.495715
1048 1 0.487118 0.286704 0.494904
3778 1 0.00990025 0.305464 0.496178
842 1 0.0212614 0.303012 0.49736
772 1 0.0336474 0.298473 0.498001
914 1 0.0244553 0.314921 0.49772
843 1 0.0473628 0.295915 0.497436
916 1 0.037457 0.312901 0.497204
846 1 0.0498093 0.308609 0.496983
845 1 0.0618812 0.307348 0.497912
848 1 0.0740027 0.305039 0.498775
921 1 0.0865407 0.301021 0.49867
927 1 0.103093 0.310631 0.500539
923 1 0.101242 0.298868 0.499996
924 1 0.112619 0.295094 0.499656
859 1 0.128012 0.306904 0.499172
860 1 0.140155 0.303201 0.497923
865 1 0.164624 0.296877 0.496702
863 1 0.151104 0.301746 0.497276
864 1 0.155212 0.312468 0.498449
935 1 0.166809 0.311057 0.497795
866 1 0.180219 0.308241 0.497762
869 1 0.19199 0.306139 0.498539
874 1 0.21674 0.303465 0.499265
871 1 0.202986 0.305876 0.49909
945 1 0.230648 0.311705 0.499821
887 1 0.30491 0.299117 0.49962
888 1 0.321195 0.308408 0.498593
1031 1 0.333544 0.305816 0.499536
1099 1 0.346516 0.303099 0.497913
1242 1 0.35951 0.314351 0.495873
960 1 0.360106 0.30176 0.497418
1101 1 0.384931 0.296301 0.4943
1103 1 0.371648 0.299532 0.495811
1319 1 0.375223 0.310733 0.495685
1317 1 0.3874 0.308577 0.493705
894 1 0.399548 0.306566 0.493568
1106 1 0.412783 0.302739 0.493871
1249 1 0.425657 0.300422 0.492909
1036 1 0.438396 0.297332 0.493623
1180 1 0.426611 0.311944 0.49389
1181 1 0.43953 0.311316 0.494216
1255 1 0.452256 0.307685 0.495582
1176 1 0.466025 0.30654 0.494249
1111 1 0.47622 0.30166 0.495931
1117 1 0.48852 0.299321 0.494786
1108 1 0.491019 0.312525 0.495204
838 1 0.499367 0.296 0.495413
3850 1 0.0131674 0.317372 0.496628
3780 1 0.014038 0.329965 0.498067
981 1 0.00245522 0.332562 0.496872
983 1 0.0252083 0.327736 0.49913
918 1 0.0511162 0.322219 0.497457
985 1 0.0403056 0.326574 0.497953
917 1 0.0645753 0.318733 0.497947
920 1 0.0672348 0.330911 0.498229
919 1 0.0757278 0.318228 0.49947
993 1 0.0794887 0.329631 0.499712
929 1 0.12821 0.32035 0.499492
858 1 0.115818 0.321692 0.500545
931 1 0.145022 0.327927 0.497921
862 1 0.141884 0.317025 0.496863
930 1 0.13118 0.332176 0.498302
933 1 0.157506 0.326333 0.497349
868 1 0.182403 0.321246 0.498753
934 1 0.169328 0.324185 0.499263
940 1 0.197802 0.33254 0.496944
872 1 0.194762 0.318495 0.497805
943 1 0.219991 0.314442 0.499122
870 1 0.20767 0.318813 0.49827
942 1 0.209156 0.330309 0.498373
941 1 0.221332 0.328123 0.499964
957 1 0.310638 0.322419 0.49917
964 1 0.322733 0.321877 0.49889
1032 1 0.335305 0.318401 0.49905
1030 1 0.347088 0.315588 0.498145
1244 1 0.337807 0.330979 0.497676
1028 1 0.349795 0.328519 0.495518
1169 1 0.364938 0.324645 0.495559
1251 1 0.375666 0.322924 0.494393
1393 1 0.388906 0.320575 0.493996
1178 1 0.39119 0.333514 0.493509
1171 1 0.402629 0.319295 0.493265
1100 1 0.406229 0.328986 0.492951
1104 1 0.415197 0.316385 0.493243
1250 1 0.417692 0.32762 0.493745
1175 1 0.430324 0.326086 0.493107
1173 1 0.441961 0.32253 0.496056
1038 1 0.445789 0.33704 0.494489
1182 1 0.453037 0.320591 0.495153
1112 1 0.478189 0.317812 0.496532
1397 1 0.463652 0.320827 0.494933
1188 1 0.470734 0.330548 0.495517
1114 1 0.484312 0.330256 0.497268
976 1 0.495314 0.327393 0.497112
3920 1 0.00632791 0.343586 0.4971
1053 1 0.0170573 0.341548 0.498122
984 1 0.029854 0.339202 0.49833
1055 1 0.0314466 0.35159 0.496958
986 1 0.0412236 0.337835 0.496833
988 1 0.0436361 0.348871 0.499259
987 1 0.05388 0.334109 0.498022
991 1 0.0688641 0.344792 0.498557
989 1 0.0562617 0.347249 0.498307
992 1 0.0819311 0.342141 0.500644
1003 1 0.146488 0.339752 0.498572
932 1 0.158237 0.33981 0.499432
937 1 0.184498 0.334192 0.496981
936 1 0.171609 0.336753 0.498595
1007 1 0.175348 0.349853 0.498334
1077 1 0.201257 0.344893 0.497124
1009 1 0.187913 0.346251 0.497484
944 1 0.212238 0.343132 0.498731
1085 1 0.225711 0.339257 0.499436
1015 1 0.225737 0.350446 0.499668
1026 1 0.304393 0.35016 0.499485
1097 1 0.329138 0.346616 0.500258
893 1 0.324969 0.333592 0.498717
1098 1 0.340557 0.342968 0.498532
1389 1 0.353611 0.34195 0.495945
1247 1 0.365248 0.338252 0.495362
1387 1 0.369896 0.352668 0.496137
1243 1 0.377225 0.335069 0.493695
1316 1 0.380394 0.34683 0.494173
1323 1 0.392422 0.346727 0.492976
1185 1 0.402807 0.339233 0.493056
1257 1 0.418525 0.340817 0.493234
1395 1 0.422678 0.351821 0.49051
1177 1 0.432993 0.336317 0.491794
1392 1 0.433713 0.350314 0.493245
1386 1 0.456301 0.335819 0.494679
1110 1 0.44441 0.346412 0.494146
1391 1 0.460936 0.346333 0.493261
1186 1 0.472508 0.343423 0.49554
1115 1 0.484377 0.34295 0.496914
977 1 0.497856 0.343335 0.496355
4058 1 0.0106197 0.369116 0.498123
3918 1 0.00832927 0.356501 0.497266
1121 1 0.0208893 0.354472 0.497653
1052 1 0.0244418 0.367533 0.498972
1054 1 0.0357147 0.365036 0.499682
1057 1 0.0457615 0.36226 0.49895
990 1 0.060619 0.357177 0.499071
1063 1 0.0849169 0.353523 0.50033
1000 1 0.138974 0.370486 0.499747
1005 1 0.16187 0.350482 0.498245
1071 1 0.164071 0.361948 0.498056
1002 1 0.147564 0.353947 0.498831
1075 1 0.151745 0.367307 0.498469
938 1 0.178709 0.360358 0.49776
1011 1 0.202532 0.357019 0.498116
939 1 0.191209 0.359198 0.499554
1012 1 0.203876 0.368303 0.498368
1013 1 0.214179 0.354589 0.498875
1083 1 0.217554 0.367468 0.498674
1090 1 0.228757 0.362816 0.500276
1024 1 0.267347 0.356447 0.500553
1092 1 0.268328 0.369496 0.498116
1095 1 0.27939 0.352851 0.499803
1093 1 0.279312 0.365648 0.499157
1167 1 0.290792 0.364056 0.499637
1385 1 0.303832 0.361496 0.49878
1241 1 0.330052 0.358868 0.499337
1172 1 0.316661 0.359322 0.498415
1388 1 0.346061 0.367691 0.496935
1383 1 0.341977 0.355524 0.497654
1320 1 0.356008 0.352954 0.497554
1179 1 0.360852 0.363871 0.496437
1322 1 0.370797 0.363067 0.493333
1252 1 0.38685 0.358866 0.492362
1325 1 0.405569 0.353216 0.491376
1318 1 0.420018 0.363212 0.490821
1190 1 0.435608 0.362028 0.493826
1245 1 0.450555 0.358048 0.494399
1324 1 0.461503 0.363255 0.49627
1116 1 0.469482 0.355609 0.495071
1258 1 0.479594 0.361802 0.49622
1113 1 0.487307 0.353589 0.496744
1040 1 0.498061 0.355366 0.497925
1184 1 0.490421 0.366909 0.4976
3985 1 -0.00030599 0.371707 0.500857
1058 1 0.0506829 0.373061 0.499332
1060 1 0.0611502 0.370763 0.499264
1068 1 0.104521 0.38671 0.500227
1143 1 0.142089 0.382676 0.499291
1136 1 0.130733 0.383726 0.500359
1006 1 0.155488 0.380096 0.500051
1086 1 0.18278 0.384668 0.499043
1079 1 0.180111 0.371967 0.498658
1076 1 0.193919 0.37136 0.499417
1080 1 0.194778 0.383436 0.499454
1158 1 0.206527 0.381751 0.49982
1164 1 0.219172 0.378545 0.498638
1157 1 0.230323 0.378742 0.498715
1094 1 0.246357 0.386832 0.499934
1163 1 0.255601 0.370522 0.499651
1165 1 0.25783 0.383124 0.499154
1166 1 0.269259 0.38361 0.498737
1027 1 0.294935 0.376014 0.497271
1096 1 0.283418 0.37938 0.498339
1384 1 0.305669 0.373438 0.496519
1170 1 0.309785 0.384976 0.494781
1248 1 0.330698 0.371222 0.497442
1321 1 0.318643 0.370639 0.496577
1315 1 0.323012 0.383476 0.494644
1256 1 0.446952 0.374665 0.494203
1118 1 0.472929 0.374633 0.496908
1064 1 0.0926063 0.402009 0.500163
1133 1 0.120361 0.399922 0.500309
1138 1 0.133874 0.396056 0.500106
1140 1 0.147778 0.407029 0.498901
1074 1 0.160876 0.403242 0.500439
1004 1 0.15853 0.392606 0.499438
1082 1 0.185467 0.399425 0.499832
1162 1 0.23368 0.389198 0.500791
1014 1 0.222244 0.39138 0.499741
1081 1 0.225298 0.404371 0.499171
1088 1 0.250663 0.400291 0.499396
1307 1 0.275181 0.393981 0.499354
1237 1 0.260585 0.395141 0.498739
1168 1 0.276902 0.406758 0.498725
1235 1 0.289654 0.403164 0.498083
1311 1 0.286759 0.391116 0.497673
1240 1 0.301385 0.4006 0.496219
1239 1 0.299099 0.388744 0.496146
1238 1 0.316451 0.398187 0.496204
1134 1 0.122638 0.411877 0.49864
1209 1 0.125492 0.424336 0.499179
1211 1 0.135189 0.408132 0.499749
1141 1 0.163165 0.416504 0.498118
1146 1 0.151643 0.41993 0.499069
1148 1 0.176123 0.413948 0.499383
1084 1 0.201451 0.407094 0.500839
1145 1 0.187843 0.411849 0.500597
1226 1 0.202953 0.421373 0.499952
1153 1 0.190238 0.424258 0.499091
1228 1 0.214997 0.419659 0.49938
1373 1 0.254447 0.424093 0.499254
1236 1 0.26967 0.420779 0.497932
1459 1 0.287269 0.419188 0.497154
1246 1 0.303771 0.413025 0.496454
1205 1 0.100754 0.429406 0.501047
1279 1 0.103293 0.441077 0.500008
1277 1 0.112722 0.425627 0.499619
1282 1 0.115197 0.438798 0.498477
1210 1 0.139247 0.434418 0.499953
1213 1 0.16579 0.428678 0.498624
1214 1 0.155241 0.444614 0.498135
1147 1 0.180672 0.439692 0.498148
1149 1 0.178933 0.427056 0.498057
1215 1 0.168099 0.44266 0.498095
1155 1 0.194123 0.437189 0.497622
1227 1 0.203886 0.434408 0.499486
1223 1 0.219333 0.44459 0.497049
1297 1 0.216019 0.431811 0.498576
1230 1 0.228859 0.429678 0.49914
1232 1 0.231858 0.441768 0.497688
1305 1 0.253488 0.436547 0.498816
1299 1 0.242286 0.424096 0.500828
1302 1 0.243663 0.439624 0.499361
1379 1 0.270756 0.44432 0.496706
1309 1 0.266917 0.432848 0.498188
1463 1 0.292488 0.434779 0.493726
1312 1 0.281322 0.440127 0.496385
1308 1 0.279209 0.427886 0.49617
1281 1 0.129824 0.451096 0.499268
1142 1 0.143377 0.447879 0.500446
1286 1 0.146322 0.460108 0.499292
1288 1 0.158721 0.45842 0.497706
1154 1 0.182283 0.452802 0.497255
1151 1 0.170613 0.455807 0.497228
1225 1 0.194605 0.451141 0.497349
1152 1 0.196782 0.461604 0.49829
1295 1 0.221195 0.456791 0.496242
1220 1 0.205617 0.447568 0.496983
1224 1 0.210559 0.459423 0.498077
1301 1 0.234144 0.454462 0.496977
1304 1 0.245432 0.453728 0.496702
1303 1 0.257178 0.449324 0.498058
1381 1 0.27194 0.456583 0.49628
1314 1 0.26171 0.462346 0.49711
1306 1 0.286375 0.452524 0.494954
1280 1 0.107417 0.467667 0.500249
1350 1 0.108717 0.480731 0.498576
1351 1 0.122533 0.478276 0.496942
1355 1 0.119943 0.465622 0.498895
1358 1 0.147218 0.471408 0.499404
1357 1 0.135446 0.475716 0.499422
1285 1 0.133427 0.46322 0.499172
1216 1 0.158974 0.470432 0.497205
1150 1 0.174822 0.479343 0.497789
1219 1 0.186217 0.465123 0.498361
1221 1 0.174083 0.468064 0.497455
1289 1 0.197219 0.474544 0.498745
1217 1 0.187664 0.47862 0.497813
1292 1 0.208945 0.472403 0.498247
1367 1 0.226355 0.482474 0.497268
1298 1 0.239438 0.478771 0.496721
1371 1 0.234759 0.467315 0.497701
1300 1 0.222208 0.469885 0.497142
1376 1 0.251161 0.47685 0.496913
1451 1 0.249735 0.464546 0.496275
1382 1 0.264736 0.473713 0.497798
1460 1 0.277254 0.46817 0.496926
1338 1 0.0333313 0.482131 0.500824
1407 1 0.0244866 0.495793 0.498993
1405 1 0.0211883 0.486397 0.499502
1346 1 0.0866034 0.498655 0.499178
1348 1 0.0974886 0.483788 0.499964
1349 1 0.10159 0.495399 0.499528
1415 1 0.113273 0.493782 0.499132
1284 1 0.124754 0.489874 0.498928
1353 1 0.138495 0.486979 0.499159
1354 1 0.152162 0.497755 0.49969
1356 1 0.149503 0.485667 0.498748
1287 1 0.162175 0.482648 0.499393
1360 1 0.17722 0.492991 0.497639
1365 1 0.204374 0.487985 0.497732
1222 1 0.190824 0.491316 0.497798
1293 1 0.215035 0.49894 0.498984
1296 1 0.216122 0.484991 0.498433
1294 1 0.227507 0.493971 0.498173
1377 1 0.25315 0.488426 0.498006
1378 1 0.240441 0.492367 0.498284
1523 1 0.266767 0.485313 0.498935
1375 1 0.271062 0.496764 0.499317
1455 1 0.2816 0.495454 0.498774
1310 1 0.281286 0.480773 0.49843
1527 1 0.294618 0.493727 0.499247
3 1 0.00258489 0.0139411 0.500584
2749 1 0.107874 0.0119218 0.500645
2540 1 0.120495 0.0104198 0.500805
2683 1 0.132833 0.00866235 0.501916
2754 1 0.14704 0.0169018 0.501705
2755 1 0.15846 0.0160656 0.502789
2758 1 0.171007 0.0138881 0.50137
35 1 0.184671 0.0103088 0.500146
2684 1 0.168841 0.00201429 0.500152
2622 1 0.196089 0.00533693 0.501569
2762 1 0.198375 0.0185408 0.500702
2766 1 0.210336 0.0155975 0.50044
2694 1 0.20833 0.00288643 0.502343
2768 1 0.222664 0.00160662 0.502166
37 1 0.223636 0.0142601 0.501831
39 1 0.235484 0.0107237 0.501759
40 1 0.248163 0.00808413 0.501055
2777 1 0.274837 0.00351791 0.501493
2706 1 0.261881 0.00716864 0.500926
2710 1 0.27643 0.0164863 0.504212
47 1 0.287787 0.00262456 0.503721
117 1 0.287985 0.0148952 0.502278
2708 1 0.300982 0.0112197 0.501723
49 1 0.313744 0.00799592 0.501293
43 1 0.324907 0.00652754 0.501557
51 1 0.341404 0.015011 0.503162
55 1 0.338258 0.00478589 0.502502
52 1 0.354105 0.0147517 0.50221
53 1 0.351448 0.00329756 0.504171
54 1 0.367779 0.0131755 0.501583
56 1 0.379035 0.00832003 0.501785
59 1 0.39017 0.00639476 0.50155
128 1 0.394274 0.0182279 0.501729
206 1 0.407144 0.0166439 0.501434
143 1 0.00035924 0.0239349 0.501084
2750 1 0.110746 0.0248165 0.501548
2751 1 0.123432 0.0329203 0.503269
2753 1 0.123032 0.0219046 0.502416
2747 1 0.137321 0.0199683 0.5035
88 1 0.13765 0.0328064 0.504456
2760 1 0.162628 0.0284127 0.501951
2680 1 0.15031 0.0291793 0.502717
95 1 0.174493 0.0266864 0.502173
33 1 0.200586 0.0341986 0.501626
2686 1 0.18684 0.0222311 0.500559
30 1 0.188737 0.0345405 0.501148
2764 1 0.211974 0.0295654 0.502841
36 1 0.227245 0.0271644 0.500533
38 1 0.237486 0.0234228 0.5014
110 1 0.248956 0.0201026 0.501566
181 1 0.253341 0.0342793 0.501517
41 1 0.262792 0.0184444 0.502929
42 1 0.26793 0.0313127 0.50272
115 1 0.279843 0.029554 0.50218
48 1 0.29155 0.0269382 0.501103
119 1 0.303979 0.0210756 0.499755
118 1 0.308985 0.0355874 0.50035
2780 1 0.316791 0.020107 0.501697
2779 1 0.330597 0.0178595 0.502351
123 1 0.332502 0.0287289 0.501673
50 1 0.320533 0.0330836 0.501206
125 1 0.345975 0.0286982 0.501799
126 1 0.357806 0.0268859 0.500868
58 1 0.370819 0.0246573 0.501868
130 1 0.383808 0.0222346 0.501056
199 1 0.371779 0.0371304 0.499615
132 1 0.399054 0.0322592 0.501443
272 1 0.411249 0.0290863 0.500243
75 1 0.0327462 0.0541479 0.499634
147 1 0.0488151 0.0483547 0.500204
152 1 0.0755709 0.0489194 0.499492
18 1 0.100458 0.0510919 0.499943
12 1 0.111512 0.0363546 0.501537
161 1 0.113516 0.0493584 0.501871
2742 1 0.12523 0.0469013 0.503739
2752 1 0.139249 0.0459406 0.504292
2759 1 0.162066 0.0409074 0.502068
2756 1 0.150722 0.0436925 0.5017
27 1 0.165096 0.0540316 0.500544
101 1 0.179519 0.050346 0.501315
25 1 0.174356 0.0405627 0.501241
100 1 0.190682 0.0458606 0.501372
104 1 0.205303 0.0454754 0.501602
34 1 0.216888 0.0424847 0.502346
173 1 0.232617 0.0534772 0.501321
109 1 0.229795 0.0407628 0.500338
174 1 0.2415 0.0375255 0.501864
107 1 0.245064 0.0507309 0.502353
182 1 0.257677 0.0472903 0.502028
111 1 0.269544 0.043632 0.501359
116 1 0.297781 0.0382661 0.500853
113 1 0.283411 0.0414582 0.501231
114 1 0.284849 0.0536611 0.501098
187 1 0.298552 0.0515874 0.500704
120 1 0.309078 0.0472545 0.500282
121 1 0.322752 0.0449815 0.50033
124 1 0.346538 0.0409068 0.500873
122 1 0.334413 0.0410856 0.500608
197 1 0.35963 0.0387569 0.49971
3005 1 0.005597 0.0669383 0.500814
225 1 0.0414666 0.0627567 0.501579
148 1 0.0553305 0.0740459 0.500998
287 1 0.0671871 0.0598345 0.499256
83 1 0.0678989 0.072237 0.501215
150 1 0.0802499 0.0708079 0.500191
15 1 0.078835 0.0588712 0.500282
157 1 0.105227 0.0635668 0.501505
20 1 0.0991522 0.0718952 0.501514
158 1 0.115702 0.0633113 0.503011
92 1 0.12606 0.0596696 0.503044
21 1 0.140653 0.0582432 0.502141
24 1 0.134684 0.0689464 0.502371
2682 1 0.146282 0.0705735 0.501733
22 1 0.153205 0.0553725 0.501074
94 1 0.157749 0.0666428 0.50038
29 1 0.16961 0.0655627 0.500564
98 1 0.196583 0.0598189 0.500801
28 1 0.198638 0.0715816 0.500341
245 1 0.221118 0.0555568 0.500691
242 1 0.210602 0.0699598 0.500183
105 1 0.209012 0.0570473 0.501175
106 1 0.223741 0.0680011 0.50114
175 1 0.236045 0.0658962 0.500851
108 1 0.248771 0.0635191 0.501813
112 1 0.273666 0.058239 0.500837
184 1 0.261061 0.0596854 0.501588
171 1 0.262742 0.0747377 0.500231
2938 1 0.00771758 0.0796577 0.501341
73 1 0.0207333 0.0811488 0.500736
212 1 0.0323338 0.0782927 0.500803
297 1 0.0453448 0.088474 0.501311
153 1 0.044327 0.0753027 0.501205
89 1 0.0718576 0.0846585 0.500747
293 1 0.0584484 0.0866725 0.501859
16 1 0.0833192 0.0824703 0.500281
155 1 0.0952152 0.0816154 0.500074
301 1 0.0986207 0.0930099 0.501657
87 1 0.109313 0.0878092 0.501579
85 1 0.107211 0.0784059 0.502088
163 1 0.116783 0.0753573 0.50338
235 1 0.122446 0.0893907 0.503044
231 1 0.13644 0.0855854 0.503735
26 1 0.147659 0.0824974 0.50177
160 1 0.127517 0.077187 0.504569
165 1 0.160569 0.0813299 0.500878
93 1 0.173857 0.0918346 0.500494
96 1 0.186519 0.0876088 0.500098
179 1 0.225999 0.080794 0.500628
178 1 0.254542 0.0872922 0.500387
180 1 0.250771 0.0758142 0.501996
3220 1 0.00788555 0.0945863 0.502666
355 1 0.00732977 0.107213 0.501393
283 1 0.0343379 0.0919436 0.502206
154 1 0.0209665 0.0930527 0.501863
219 1 0.03631 0.105289 0.502473
216 1 0.0217073 0.107724 0.501355
295 1 0.0494353 0.103507 0.501951
228 1 0.0727215 0.0997111 0.501072
223 1 0.0609675 0.098365 0.501949
221 1 0.0848956 0.0959274 0.500494
224 1 0.0888695 0.108547 0.501394
365 1 0.100935 0.105461 0.502535
227 1 0.112717 0.103007 0.501898
305 1 0.126331 0.100792 0.503649
166 1 0.139835 0.112239 0.502743
164 1 0.138097 0.0994221 0.503254
102 1 0.161737 0.0920702 0.502086
91 1 0.147591 0.0951562 0.502853
311 1 0.164509 0.104653 0.502566
167 1 0.15153 0.106251 0.502946
97 1 0.178284 0.103621 0.501662
359 1 0.0110042 0.120027 0.501303
284 1 0.0238513 0.121369 0.500918
220 1 0.0366578 0.116757 0.500283
360 1 0.0522013 0.126737 0.501276
369 1 0.050014 0.1153 0.501566
298 1 0.0633704 0.111614 0.502709
294 1 0.0650199 0.126023 0.501287
363 1 0.0760609 0.111186 0.501796
299 1 0.0919954 0.122394 0.502101
292 1 0.080273 0.121686 0.502313
156 1 0.101935 0.117779 0.502848
162 1 0.128148 0.11362 0.50253
86 1 0.115734 0.115538 0.502035
296 1 0.117837 0.127466 0.50331
232 1 0.130373 0.125187 0.503646
237 1 0.144938 0.123058 0.503555
376 1 0.15614 0.117393 0.502152
313 1 0.168217 0.116808 0.50075
306 1 0.182043 0.12901 0.500745
168 1 0.180371 0.115472 0.501444
241 1 0.19345 0.125454 0.499733
484 1 0.476715 0.116811 0.500474
486 1 0.487553 0.112749 0.500761
3365 1 0.492526 0.126321 0.501368
353 1 0.0156859 0.132544 0.501329
3150 1 0.00268383 0.135546 0.502092
222 1 0.0393747 0.128954 0.50049
501 1 0.0664084 0.137903 0.501373
375 1 0.0919742 0.133676 0.502496
361 1 0.0784212 0.135344 0.501437
368 1 0.0808375 0.147052 0.503059
226 1 0.10659 0.130851 0.503411
230 1 0.0946456 0.144501 0.501868
229 1 0.108704 0.143598 0.502969
364 1 0.120728 0.140204 0.504709
302 1 0.145877 0.135574 0.504887
234 1 0.133822 0.137244 0.504653
233 1 0.145958 0.146787 0.503924
307 1 0.15758 0.132665 0.503298
511 1 0.160166 0.145067 0.50409
372 1 0.169976 0.130914 0.500874
443 1 0.171396 0.143309 0.502444
310 1 0.18563 0.140336 0.501336
449 1 0.197643 0.137019 0.499569
559 1 0.479091 0.128899 0.500309
556 1 0.472024 0.146337 0.501648
555 1 0.466776 0.134037 0.501924
627 1 0.483992 0.141423 0.501756
354 1 0.0431178 0.156938 0.499753
433 1 0.0674237 0.150525 0.501665
428 1 0.0541405 0.152335 0.501303
425 1 0.0572949 0.166198 0.501862
432 1 0.0714541 0.160854 0.501592
434 1 0.0840085 0.158834 0.502235
371 1 0.108211 0.154601 0.50431
505 1 0.0949257 0.156491 0.503158
436 1 0.111656 0.166051 0.504351
300 1 0.12149 0.152836 0.504096
431 1 0.124061 0.165266 0.505755
366 1 0.136464 0.163395 0.504153
435 1 0.134654 0.14919 0.504567
373 1 0.148818 0.158272 0.503295
444 1 0.162466 0.156796 0.503059
370 1 0.175618 0.153574 0.501421
374 1 0.177757 0.165713 0.501917
309 1 0.187985 0.152324 0.502213
447 1 0.190292 0.164264 0.50202
547 1 0.457138 0.150684 0.500695
3361 1 0.473378 0.157716 0.502384
624 1 0.489604 0.165339 0.502038
560 1 0.486283 0.152789 0.500882
769 1 0.499397 0.150147 0.501776
427 1 0.0457582 0.169757 0.499591
499 1 0.0477795 0.181093 0.500056
498 1 0.0609033 0.178032 0.50058
500 1 0.0729227 0.174417 0.501586
503 1 0.0867031 0.171858 0.503059
573 1 0.100892 0.182241 0.502737
429 1 0.0995085 0.168007 0.50331
507 1 0.114438 0.179316 0.503102
437 1 0.127175 0.17842 0.503032
439 1 0.140728 0.174617 0.502487
303 1 0.151424 0.171167 0.503269
446 1 0.164546 0.169043 0.502096
442 1 0.155393 0.183918 0.502777
515 1 0.169098 0.181386 0.503544
585 1 0.180664 0.179334 0.501709
448 1 0.192161 0.174435 0.500785
445 1 0.206222 0.173978 0.500288
699 1 0.477541 0.170343 0.500624
3362 1 0.49695 0.177663 0.502398
700 1 0.482062 0.180957 0.500211
569 1 0.0642257 0.190534 0.500774
367 1 0.0894782 0.183792 0.502622
571 1 0.0771228 0.186141 0.501239
575 1 0.0921584 0.196876 0.502764
504 1 0.0790783 0.199046 0.500318
576 1 0.10423 0.19472 0.503012
441 1 0.117928 0.191045 0.500862
506 1 0.129906 0.189308 0.500368
509 1 0.132215 0.202541 0.4999
440 1 0.145416 0.186751 0.501608
508 1 0.144876 0.200158 0.499521
513 1 0.156619 0.196414 0.501063
584 1 0.180444 0.190871 0.501583
517 1 0.167692 0.193309 0.502003
514 1 0.184669 0.201811 0.50142
770 1 0.50077 0.189537 0.5035
3503 1 0.488773 0.194256 0.500883
566 1 0.0442368 0.221678 0.49812
574 1 0.0938164 0.207702 0.500788
438 1 0.107862 0.205362 0.500415
512 1 0.146384 0.213239 0.500701
577 1 0.134058 0.213929 0.500978
583 1 0.158794 0.207605 0.501789
582 1 0.162505 0.21862 0.501199
656 1 0.174996 0.217255 0.501347
653 1 0.17245 0.204425 0.502133
655 1 0.186557 0.21509 0.501126
672 1 0.308106 0.220324 0.500581
676 1 0.318803 0.217962 0.50104
3501 1 0.495229 0.205619 0.50113
839 1 0.499126 0.217264 0.501331
647 1 0.125412 0.229773 0.500019
579 1 0.136912 0.226968 0.500585
717 1 0.12961 0.240639 0.49983
581 1 0.150549 0.223877 0.501808
651 1 0.164779 0.232844 0.499946
650 1 0.153089 0.236703 0.501173
721 1 0.176515 0.230713 0.500586
726 1 0.204198 0.237635 0.499648
731 1 0.188365 0.227623 0.500026
670 1 0.308761 0.232564 0.501261
673 1 0.323238 0.231877 0.501241
716 1 0.117692 0.25524 0.498999
719 1 0.129885 0.252907 0.500789
722 1 0.16785 0.247251 0.499487
724 1 0.177761 0.244497 0.500546
729 1 0.193278 0.252968 0.500526
732 1 0.205045 0.250279 0.500506
733 1 0.218258 0.248225 0.501468
664 1 0.232321 0.246999 0.50016
738 1 0.24713 0.25717 0.500576
735 1 0.259626 0.254194 0.50072
740 1 0.273219 0.25257 0.499613
668 1 0.285161 0.25095 0.501099
743 1 0.308964 0.246255 0.501023
741 1 0.296764 0.247714 0.501224
742 1 0.312931 0.257978 0.501192
674 1 0.324129 0.243752 0.501154
818 1 0.324768 0.256899 0.499318
745 1 0.336189 0.242419 0.498914
817 1 0.339103 0.25425 0.499947
793 1 0.131023 0.266937 0.500424
792 1 0.157122 0.260084 0.499795
728 1 0.198386 0.266706 0.501302
801 1 0.210075 0.263999 0.501797
802 1 0.210764 0.279002 0.50163
803 1 0.222449 0.262473 0.500406
734 1 0.233642 0.258786 0.500777
805 1 0.224474 0.275153 0.500773
736 1 0.239279 0.271841 0.502516
807 1 0.250183 0.268374 0.501955
809 1 0.275278 0.264062 0.501852
808 1 0.263113 0.267269 0.500741
813 1 0.291134 0.274085 0.502012
811 1 0.288787 0.262612 0.501038
814 1 0.303344 0.2731 0.502602
815 1 0.300175 0.259889 0.500667
816 1 0.31402 0.270761 0.500004
823 1 0.327807 0.269333 0.500221
889 1 0.340771 0.266537 0.499436
730 1 0.200108 0.279935 0.500203
875 1 0.215205 0.291119 0.500176
804 1 0.228166 0.286025 0.500925
806 1 0.240312 0.284043 0.501708
879 1 0.251699 0.281853 0.50303
877 1 0.255734 0.294257 0.501804
947 1 0.241773 0.295821 0.500954
812 1 0.279057 0.278263 0.50306
883 1 0.265167 0.277885 0.503237
810 1 0.266547 0.29266 0.502749
881 1 0.277812 0.289878 0.503916
885 1 0.29216 0.288145 0.502386
890 1 0.305039 0.287175 0.501378
959 1 0.318002 0.285164 0.501297
892 1 0.329868 0.280198 0.500372
1033 1 0.331172 0.294411 0.500672
825 1 0.343926 0.278752 0.499672
922 1 0.0897587 0.313537 0.500744
925 1 0.115695 0.308773 0.500397
876 1 0.228561 0.298893 0.499448
951 1 0.243929 0.308568 0.501699
949 1 0.256397 0.307746 0.501585
880 1 0.267273 0.304947 0.503054
882 1 0.279165 0.30138 0.502104
952 1 0.291041 0.299047 0.501496
1021 1 0.28221 0.313004 0.501751
886 1 0.29496 0.311967 0.50122
953 1 0.307535 0.310457 0.50019
955 1 0.317122 0.296583 0.499849
926 1 0.0910697 0.326393 0.500836
928 1 0.104167 0.322205 0.50124
946 1 0.233816 0.324074 0.500149
948 1 0.257139 0.318982 0.50247
878 1 0.245295 0.322223 0.500949
1020 1 0.272264 0.330616 0.501651
950 1 0.270675 0.317469 0.50232
1019 1 0.259805 0.332708 0.500823
884 1 0.282586 0.325483 0.501701
954 1 0.297118 0.324697 0.500342
998 1 0.105012 0.335206 0.501182
1067 1 0.10758 0.348219 0.501818
995 1 0.0935004 0.339431 0.502341
1070 1 0.121686 0.347207 0.501314
997 1 0.118391 0.334057 0.500631
999 1 0.132362 0.34336 0.500322
1087 1 0.239145 0.347856 0.500887
1016 1 0.236633 0.335888 0.50144
1018 1 0.251748 0.345806 0.500773
1017 1 0.248705 0.33427 0.501027
1089 1 0.263782 0.344683 0.500398
1022 1 0.274663 0.342409 0.499833
1023 1 0.28768 0.339289 0.501177
956 1 0.300795 0.338313 0.501059
1025 1 0.312646 0.334933 0.5008
1035 1 0.315917 0.347397 0.500457
1061 1 0.0737716 0.356337 0.500721
1059 1 0.073727 0.368784 0.500992
994 1 0.0844889 0.366724 0.501128
1062 1 0.100831 0.362772 0.500783
996 1 0.0958499 0.350395 0.50217
1065 1 0.111599 0.359706 0.501231
1001 1 0.122818 0.359733 0.500219
1139 1 0.13768 0.357141 0.500701
1161 1 0.240448 0.361812 0.501374
1091 1 0.254048 0.359089 0.501912
1029 1 0.291228 0.35086 0.500317
4054 1 0.013502 0.381797 0.499934
3848 1 0.0013588 0.385976 0.500914
1125 1 0.0262626 0.380576 0.499336
1056 1 0.0529438 0.387915 0.500915
1127 1 0.0388577 0.378157 0.501141
1129 1 0.0640621 0.383886 0.500295
1131 1 0.0776317 0.379839 0.500126
1066 1 0.090939 0.377152 0.501184
1069 1 0.102205 0.375085 0.500974
1137 1 0.125356 0.372258 0.499147
1135 1 0.114007 0.372178 0.50059
1207 1 0.11712 0.387985 0.500951
1008 1 0.169222 0.37588 0.500197
1073 1 0.170767 0.389592 0.500321
1160 1 0.243879 0.374762 0.499021
1328 1 0.489411 0.378742 0.499909
4059 1 0.016099 0.394379 0.501471
4053 1 0.00488831 0.397485 0.500398
3982 1 0.0181586 0.406183 0.502536
3986 1 0.0287247 0.391575 0.500324
4126 1 0.0289556 0.40533 0.502869
1124 1 0.0402176 0.390183 0.501133
1197 1 0.0428042 0.404669 0.502017
1126 1 0.0556999 0.400732 0.501246
1128 1 0.0677825 0.397067 0.500687
1204 1 0.0832187 0.406938 0.500107
1195 1 0.0815557 0.393494 0.500437
1202 1 0.0939758 0.389428 0.500543
1132 1 0.105288 0.400126 0.500106
1072 1 0.146053 0.393596 0.499753
1078 1 0.17381 0.401481 0.500825
1010 1 0.197095 0.396417 0.500615
1156 1 0.211804 0.406582 0.500461
1229 1 0.210148 0.393622 0.500036
1231 1 0.237753 0.401303 0.500401
1191 1 0.0112522 0.423683 0.502267
1261 1 0.00763792 0.412841 0.502132
3988 1 0.0223688 0.419113 0.502938
1122 1 0.0339107 0.415325 0.502257
1123 1 0.0464774 0.415816 0.503349
1130 1 0.059102 0.41327 0.501525
1200 1 0.0722845 0.409471 0.501416
1201 1 0.0861974 0.419219 0.501115
1199 1 0.0751164 0.422808 0.500681
1206 1 0.109794 0.4132 0.500155
1203 1 0.0969571 0.416316 0.501335
1144 1 0.136845 0.422937 0.499752
1159 1 0.228772 0.418615 0.5004
1234 1 0.238846 0.413977 0.500747
1233 1 0.253087 0.412492 0.500515
1313 1 0.266516 0.41055 0.500011
4060 1 0.0118393 0.435526 0.501885
1336 1 0.0261349 0.444446 0.50214
1262 1 0.0240244 0.431173 0.502352
1192 1 0.0364046 0.428925 0.504484
1269 1 0.0507217 0.441356 0.504572
1265 1 0.0371784 0.441628 0.504842
1196 1 0.048954 0.428338 0.504165
1271 1 0.075842 0.434555 0.502222
1273 1 0.0624528 0.438446 0.50279
1198 1 0.0627393 0.426371 0.502113
1275 1 0.0873487 0.432785 0.502244
1208 1 0.127234 0.438905 0.50013
1212 1 0.153274 0.433746 0.500048
1331 1 0.0167366 0.461269 0.502076
4192 1 0.0148329 0.447781 0.502344
1194 1 0.0043187 0.462992 0.501436
4197 1 0.00402384 0.451095 0.503002
1333 1 0.0281963 0.45806 0.5023
1267 1 0.0537914 0.454174 0.504154
1264 1 0.0402705 0.456469 0.504331
1268 1 0.0664975 0.451517 0.503204
1270 1 0.0813728 0.4618 0.502303
1272 1 0.0785505 0.447326 0.502372
1343 1 0.0901201 0.44718 0.501632
1274 1 0.0911245 0.458709 0.500762
1276 1 0.104056 0.455369 0.500441
1283 1 0.116899 0.450167 0.500021
1332 1 0.00631314 0.47602 0.50049
4200 1 0.0184577 0.474044 0.500182
1409 1 0.0317374 0.470461 0.500552
1342 1 0.0466295 0.479866 0.502798
1266 1 0.0434556 0.4665 0.502141
1337 1 0.0712665 0.475852 0.50197
1335 1 0.0564932 0.466128 0.502849
1411 1 0.0587662 0.477876 0.503529
1339 1 0.069624 0.463858 0.503167
1341 1 0.0842835 0.473046 0.501995
1278 1 0.095204 0.471443 0.501388
4130 1 0.00940004 0.486792 0.500371
1408 1 0.0355297 0.493594 0.499624
1412 1 0.0478546 0.490573 0.50107
1345 1 0.0605505 0.489562 0.503158
1340 1 0.0734833 0.488156 0.501367
1421 1 0.0866147 0.48634 0.500436
1290 1 0.163286 0.493728 0.499246
1481 1 0.0368375 0.507083 0.498973
1410 1 0.0509107 0.517824 0.500672
1414 1 0.090409 0.510388 0.499691
1485 1 0.0792217 0.512713 0.499559
1418 1 0.116712 0.506997 0.500371
1417 1 0.129047 0.5033 0.499522
1352 1 0.139749 0.499697 0.499721
1359 1 0.166005 0.507158 0.500105
1361 1 0.181446 0.5174 0.497302
1218 1 0.17876 0.504638 0.499396
1364 1 0.192118 0.515854 0.498671
1363 1 0.192672 0.503489 0.497434
1291 1 0.20325 0.499827 0.49794
1366 1 0.205284 0.513042 0.49937
1370 1 0.218006 0.509246 0.49993
1449 1 0.23073 0.506101 0.499221
1372 1 0.243339 0.504033 0.498596
1458 1 0.257388 0.501678 0.499801
1374 1 0.247092 0.515244 0.49846
1454 1 0.260125 0.513625 0.50006
1519 1 0.271137 0.509797 0.49893
1531 1 0.283277 0.506999 0.498368
1482 1 0.0370438 0.518468 0.499758
1487 1 0.0794732 0.525679 0.499734
1486 1 0.0816021 0.538321 0.499146
1419 1 0.105542 0.521028 0.500481
1488 1 0.0937863 0.535018 0.499763
1430 1 0.160013 0.534245 0.500454
1429 1 0.170078 0.518619 0.500078
1362 1 0.184047 0.529969 0.498439
1431 1 0.171551 0.532013 0.498581
1437 1 0.195747 0.52803 0.500128
1368 1 0.207147 0.524802 0.500175
1441 1 0.209373 0.5366 0.500761
1445 1 0.224353 0.533397 0.500146
1447 1 0.236417 0.530796 0.499605
1452 1 0.233952 0.51679 0.499175
1380 1 0.248107 0.528536 0.499651
1457 1 0.273585 0.522262 0.499507
1448 1 0.276819 0.535986 0.498199
1591 1 0.262402 0.53768 0.498623
1456 1 0.261858 0.526743 0.49817
1450 1 0.28664 0.520391 0.500671
1553 1 0.0691087 0.539268 0.499143
1557 1 0.0721953 0.550376 0.4987
1490 1 0.0568455 0.542801 0.499912
1556 1 0.0585391 0.555613 0.498696
1559 1 0.0837161 0.549396 0.49888
1561 1 0.0976598 0.546595 0.499728
1497 1 0.161397 0.546707 0.499659
1433 1 0.173427 0.544848 0.497446
1440 1 0.198175 0.540937 0.500103
1439 1 0.202078 0.551385 0.50049
1438 1 0.189763 0.55371 0.499616
1435 1 0.185622 0.542988 0.500004
1509 1 0.214768 0.547978 0.500091
1443 1 0.226294 0.546224 0.498687
1533 1 0.239178 0.544031 0.499387
1461 1 0.251171 0.539556 0.498112
1446 1 0.252448 0.551498 0.496614
1442 1 0.241338 0.556285 0.497751
1532 1 0.265041 0.550292 0.497234
1444 1 0.275815 0.548217 0.496319
1621 1 0.0463363 0.556817 0.500571
1625 1 0.0724506 0.563485 0.499934
1558 1 0.0606727 0.567008 0.500518
1434 1 0.163394 0.560156 0.499965
1513 1 0.215783 0.562173 0.499044
1515 1 0.22976 0.559397 0.498628
1597 1 0.232207 0.571176 0.498223
1517 1 0.246232 0.568118 0.49753
1453 1 0.257597 0.564863 0.495736
1521 1 0.272065 0.566247 0.496086
1688 1 0.0105209 0.576543 0.500246
1685 1 0.00159607 0.591443 0.498372
1686 1 0.0130906 0.588611 0.498344
1618 1 0.0251193 0.587157 0.499181
1691 1 0.0368478 0.58464 0.49972
1510 1 0.195454 0.580807 0.501631
1581 1 0.207066 0.578446 0.499495
1585 1 0.235366 0.583417 0.498873
1516 1 0.24731 0.581268 0.496819
1526 1 0.259896 0.581486 0.493993
1524 1 0.271151 0.577671 0.494333
1690 1 0.00273978 0.604899 0.498296
1759 1 0.0146945 0.602 0.498461
1684 1 0.0268486 0.600592 0.499116
1514 1 0.233598 0.597369 0.497725
1587 1 0.235681 0.610532 0.496136
1528 1 0.246381 0.606653 0.497129
1520 1 0.247729 0.595135 0.495934
1534 1 0.260727 0.594764 0.49586
1525 1 0.275201 0.592089 0.49519
1599 1 0.260303 0.607317 0.496511
1733 1 0.273712 0.609856 0.498036
1763 1 0.00524043 0.61658 0.499389
1754 1 0.00804384 0.62847 0.500536
1518 1 0.225719 0.611597 0.499082
1660 1 0.238297 0.624677 0.496651
1655 1 0.226835 0.622393 0.499966
1661 1 0.255669 0.617698 0.496945
1663 1 0.266502 0.624001 0.49649
1731 1 0.28618 0.62407 0.497228
1751 1 0.00957545 0.643231 0.499547
1703 1 0.0740944 0.644852 0.499478
1706 1 0.0987339 0.638694 0.499431
1727 1 0.219669 0.640111 0.500389
1657 1 0.23245 0.637431 0.499511
1797 1 0.258 0.630208 0.497473
1589 1 0.246402 0.634958 0.498233
1593 1 0.259105 0.647153 0.499325
1594 1 0.267694 0.640212 0.498366
1592 1 0.276708 0.633902 0.496005
1871 1 0.286599 0.643563 0.497521
1891 1 0.000403736 0.657401 0.497726
1821 1 0.0126529 0.655287 0.499614
1840 1 0.0906968 0.655186 0.499444
1767 1 0.077419 0.656968 0.499728
1863 1 0.232145 0.660633 0.500721
1664 1 0.232516 0.649518 0.499526
1659 1 0.246137 0.648772 0.499035
1865 1 0.278131 0.652344 0.499411
1595 1 0.265881 0.656827 0.501181
1665 1 0.295606 0.659147 0.500218
1827 1 0.00301604 0.670708 0.498475
1829 1 0.00249233 0.684957 0.497192
1758 1 0.0145767 0.668106 0.499044
1828 1 0.0140322 0.682588 0.498374
1901 1 0.0253775 0.680808 0.500215
1837 1 0.0668183 0.671476 0.499892
1839 1 0.079221 0.670151 0.498385
1764 1 0.0911581 0.668669 0.498797
1838 1 0.082962 0.682941 0.498678
1776 1 0.0947395 0.682085 0.499078
1658 1 0.237153 0.669363 0.499346
1745 1 0.487392 0.680782 0.498967
1963 1 0.00297413 0.697498 0.499397
1774 1 0.0858064 0.693792 0.50052
1855 1 0.178941 0.70128 0.50086
1867 1 0.228738 0.68912 0.500513
1811 1 0.406873 0.703249 0.494965
1607 1 0.476281 0.687258 0.497705
1675 1 0.464259 0.699884 0.498644
1606 1 0.493403 0.692099 0.499235
1743 1 0.48512 0.70129 0.499525
1917 1 0.140192 0.711234 0.501218
1718 1 0.154727 0.709012 0.499797
1921 1 0.158404 0.720136 0.499104
1922 1 0.171296 0.716521 0.500102
1953 1 0.345163 0.719942 0.500231
1881 1 0.364999 0.720606 0.500064
1739 1 0.383293 0.722309 0.500136
1598 1 0.391221 0.710953 0.498224
1601 1 0.400016 0.720454 0.496666
1676 1 0.412742 0.713011 0.494563
1744 1 0.428569 0.707989 0.495372
1674 1 0.443472 0.715799 0.495922
1818 1 0.453629 0.709573 0.497181
1884 1 0.461733 0.717472 0.498772
2026 1 0.469968 0.709517 0.499107
1815 1 0.480763 0.719656 0.500183
1993 1 0.151202 0.733383 0.49972
2063 1 0.163212 0.734086 0.498928
1859 1 0.175761 0.727945 0.499711
1942 1 0.345217 0.736995 0.499731
1810 1 0.364344 0.736813 0.499719
1880 1 0.381098 0.739543 0.49957
2092 1 0.390859 0.730325 0.498134
2019 1 0.398649 0.73825 0.49828
1668 1 0.407431 0.730908 0.496813
2091 1 0.42333 0.734137 0.496014
1885 1 0.417658 0.723301 0.495349
2024 1 0.413562 0.741548 0.4966
1954 1 0.434734 0.724854 0.497496
2023 1 0.442241 0.733507 0.498223
1813 1 0.458853 0.736028 0.500044
1529 1 0.451032 0.725021 0.497562
1886 1 0.467814 0.729111 0.500677
2130 1 0.170315 0.745343 0.499414
1878 1 0.35456 0.746577 0.499632
2013 1 0.381535 0.755666 0.499231
1672 1 0.405819 0.747975 0.498814
1946 1 0.397501 0.756873 0.499299
2021 1 0.389787 0.746981 0.498367
1955 1 0.421503 0.7479 0.498441
1882 1 0.432411 0.74237 0.498151
1956 1 0.449251 0.744136 0.499736
2054 1 0.180091 0.774288 0.500817
2150 1 0.325319 0.774142 0.498718
2080 1 0.318804 0.765311 0.5001
2083 1 0.344392 0.773365 0.499475
2079 1 0.335555 0.765147 0.499194
2082 1 0.35558 0.764191 0.499456
2155 1 0.361363 0.773906 0.498815
2228 1 0.38117 0.773736 0.497279
2085 1 0.371784 0.766262 0.499266
2087 1 0.389145 0.768199 0.499283
2018 1 0.397898 0.777399 0.500032
2190 1 0.163909 0.7949 0.49969
2057 1 0.182602 0.792447 0.500031
2205 1 0.198602 0.7914 0.500804
2067 1 0.234532 0.790075 0.500545
2078 1 0.30834 0.79244 0.499819
2148 1 0.325699 0.792745 0.498868
2152 1 0.343797 0.791249 0.497298
2220 1 0.334453 0.783424 0.498521
2151 1 0.354057 0.782293 0.498457
2153 1 0.360505 0.792074 0.497639
2156 1 0.370438 0.785054 0.497733
2157 1 0.386966 0.786104 0.498304
2227 1 0.379389 0.796875 0.49806
2088 1 0.39681 0.796514 0.499497
2058 1 0.165145 0.814485 0.499114
2207 1 0.182502 0.81163 0.498647
2127 1 0.172467 0.804346 0.499271
2200 1 0.191271 0.803163 0.498949
2206 1 0.200773 0.812876 0.499253
2068 1 0.253876 0.807973 0.498858
2070 1 0.271891 0.809577 0.500408
2213 1 0.30818 0.809416 0.499805
2146 1 0.317354 0.800947 0.499065
2217 1 0.327043 0.809685 0.498223
2219 1 0.334071 0.800222 0.497391
2221 1 0.344959 0.809563 0.496861
2084 1 0.352859 0.800719 0.496583
2154 1 0.36152 0.811633 0.497488
2230 1 0.369606 0.802064 0.498368
2225 1 0.388574 0.802837 0.497927
2294 1 0.37842 0.811287 0.49874
2226 1 0.407305 0.805048 0.499448
2299 1 0.397606 0.810825 0.498448
2231 1 0.424834 0.805632 0.498682
2232 1 0.415735 0.812409 0.498132
2159 1 0.43359 0.813467 0.498774
2161 1 0.431937 0.795727 0.500173
2094 1 0.441133 0.803777 0.498586
2187 1 0.0751828 0.832168 0.499889
2320 1 0.0941884 0.830805 0.501229
2193 1 0.147194 0.828851 0.499746
2196 1 0.16623 0.830564 0.499135
2061 1 0.173886 0.821554 0.498312
2128 1 0.185104 0.830284 0.499019
2198 1 0.192857 0.82194 0.498793
2211 1 0.300178 0.818545 0.500077
2287 1 0.309871 0.825018 0.498512
2215 1 0.317867 0.817473 0.497121
2289 1 0.326359 0.826141 0.496038
2291 1 0.335196 0.817973 0.496906
2224 1 0.34266 0.827207 0.495599
2222 1 0.352423 0.818959 0.497411
2295 1 0.360274 0.827511 0.495936
2223 1 0.369638 0.821451 0.496502
2296 1 0.378931 0.829194 0.496528
2297 1 0.387554 0.82058 0.498262
2298 1 0.406042 0.82204 0.498713
2367 1 0.398373 0.830328 0.498411
2234 1 0.423748 0.821849 0.499565
2303 1 0.414068 0.831073 0.497699
2229 1 0.441932 0.823829 0.500047
2250 1 0.0393469 0.848968 0.49755
2386 1 0.0482844 0.839886 0.4992
2247 1 0.0663911 0.840073 0.500591
2387 1 0.0584202 0.849272 0.499644
2252 1 0.0725011 0.850947 0.499592
2046 1 0.112137 0.848208 0.49988
2260 1 0.130517 0.847813 0.499608
2195 1 0.165888 0.849008 0.499555
2129 1 0.174497 0.839016 0.498672
2126 1 0.184595 0.848432 0.498919
2285 1 0.307977 0.844215 0.498531
2218 1 0.317057 0.835421 0.497484
2359 1 0.324355 0.846492 0.496795
2293 1 0.333674 0.836165 0.494797
2361 1 0.342625 0.846092 0.493711
2292 1 0.352897 0.836056 0.495729
2365 1 0.361381 0.84637 0.49464
2366 1 0.36992 0.837565 0.49544
2300 1 0.388325 0.836953 0.497405
2435 1 0.379248 0.845797 0.495062
2302 1 0.405227 0.840817 0.496941
2439 1 0.396433 0.848032 0.496413
2369 1 0.420792 0.841132 0.497248
2370 1 0.416474 0.849999 0.498029
2304 1 0.440399 0.842266 0.49863
2373 1 0.432185 0.852724 0.498333
2233 1 0.430967 0.833377 0.498315
2377 1 0.450253 0.851487 0.498037
2306 1 0.459885 0.841793 0.498262
2379 1 0.467617 0.85058 0.499772
5320 1 0.0126718 0.861632 0.50029
2315 1 0.0296732 0.860866 0.497969
2317 1 0.0213934 0.851674 0.50031
2391 1 0.0472322 0.859962 0.496823
2319 1 0.0402316 0.869213 0.496965
2454 1 0.0577372 0.868584 0.497583
2394 1 0.0649482 0.859852 0.498146
2323 1 0.0754242 0.870004 0.498028
2253 1 0.0831557 0.858715 0.498901
2248 1 0.0919588 0.867812 0.497039
2186 1 0.103417 0.859697 0.498656
2327 1 0.112605 0.865615 0.498071
2191 1 0.121972 0.85749 0.499235
2332 1 0.1317 0.866295 0.497679
2325 1 0.148022 0.863465 0.500041
2197 1 0.17581 0.856636 0.499313
2339 1 0.167943 0.865879 0.498394
2331 1 0.185181 0.865909 0.499331
2269 1 0.194373 0.856444 0.499202
2342 1 0.222877 0.865936 0.499252
2286 1 0.308833 0.864685 0.499153
2357 1 0.315949 0.855362 0.498008
2288 1 0.325272 0.863873 0.497752
2290 1 0.332284 0.854055 0.494713
2362 1 0.343022 0.864082 0.49505
2364 1 0.351431 0.854231 0.493776
2360 1 0.360565 0.864671 0.494906
2434 1 0.368888 0.856705 0.494973
2433 1 0.378963 0.866044 0.495995
2437 1 0.386196 0.857191 0.495276
2436 1 0.39615 0.866751 0.496894
2368 1 0.405169 0.858151 0.495464
2371 1 0.422784 0.859988 0.498305
2440 1 0.412562 0.867237 0.497541
2374 1 0.438806 0.860824 0.498373
2375 1 0.457203 0.860672 0.497544
2445 1 0.448056 0.870701 0.497601
2378 1 0.474118 0.860516 0.499569
2376 1 0.465222 0.869114 0.497709
5319 1 0.0140312 0.881069 0.499665
2453 1 0.0306711 0.877699 0.498899
2455 1 0.0197617 0.869781 0.49867
2388 1 0.0489186 0.878556 0.496729
2384 1 0.0400962 0.885885 0.497808
2390 1 0.0570233 0.886312 0.497214
2322 1 0.0672496 0.87681 0.496137
2399 1 0.0854977 0.877256 0.496208
2395 1 0.0759944 0.888432 0.496837
2400 1 0.0948152 0.884893 0.49494
2324 1 0.103944 0.875489 0.494409
2330 1 0.12179 0.875148 0.497529
2402 1 0.113395 0.883761 0.495805
2263 1 0.140965 0.873367 0.498577
2405 1 0.130649 0.884008 0.49652
2264 1 0.148077 0.882241 0.498061
2265 1 0.157825 0.874574 0.499149
2479 1 0.168955 0.884201 0.498617
2403 1 0.175889 0.873519 0.499649
2266 1 0.186017 0.88412 0.499006
2267 1 0.203621 0.883813 0.500099
2409 1 0.193711 0.873515 0.499393
2412 1 0.222119 0.883451 0.501632
2411 1 0.241435 0.882799 0.500228
2425 1 0.304836 0.879448 0.500681
2424 1 0.313901 0.888261 0.498988
2354 1 0.316547 0.873191 0.497639
2427 1 0.323646 0.879933 0.497669
2363 1 0.333772 0.872558 0.496051
2430 1 0.350241 0.87244 0.494909
2426 1 0.343648 0.881388 0.497287
2500 1 0.367812 0.874918 0.495988
2429 1 0.358088 0.882372 0.495088
2507 1 0.37681 0.883058 0.496342
2505 1 0.386544 0.87599 0.496429
2577 1 0.402797 0.876539 0.497629
2511 1 0.394087 0.884689 0.499254
2441 1 0.421029 0.876292 0.496332
2372 1 0.411709 0.884733 0.497842
2443 1 0.43211 0.870293 0.496557
2444 1 0.438469 0.879665 0.496631
2513 1 0.43006 0.887741 0.496543
2447 1 0.456703 0.878684 0.496695
2446 1 0.44813 0.888314 0.495651
2449 1 0.473793 0.878714 0.495985
5111 1 0.482209 0.869643 0.498182
2450 1 0.492193 0.877026 0.49952
2525 1 0.0220616 0.88822 0.497882
2523 1 0.0220453 0.905722 0.498328
2246 1 0.0312309 0.896334 0.49882
2456 1 0.041729 0.904742 0.49819
2457 1 0.0485548 0.896377 0.498184
2458 1 0.0596626 0.901941 0.495889
2393 1 0.0670169 0.894847 0.496093
2401 1 0.0775532 0.903685 0.495775
2396 1 0.0878789 0.893458 0.49511
2398 1 0.0966024 0.903211 0.495526
2468 1 0.104541 0.893625 0.493083
2407 1 0.121679 0.89315 0.494805
2603 1 0.112321 0.903485 0.495012
2333 1 0.131221 0.900994 0.496218
2326 1 0.139999 0.891578 0.497954
2545 1 0.149812 0.899086 0.496734
2329 1 0.158984 0.892145 0.496985
2328 1 0.167875 0.900196 0.497504
2337 1 0.177814 0.893753 0.497547
2477 1 0.177555 0.907774 0.49644
2268 1 0.186676 0.901861 0.497964
2194 1 0.193981 0.8919 0.499452
2413 1 0.202962 0.900724 0.498797
2493 1 0.311634 0.906277 0.49997
2356 1 0.320219 0.898224 0.498449
2428 1 0.332345 0.889784 0.497743
2495 1 0.329445 0.906489 0.498459
2431 1 0.349424 0.891938 0.496611
2497 1 0.340975 0.900731 0.497907
2501 1 0.367317 0.89327 0.498067
2502 1 0.357428 0.901211 0.49755
2509 1 0.38566 0.89455 0.498522
2503 1 0.375446 0.902745 0.496962
2581 1 0.403319 0.894115 0.498836
2432 1 0.393639 0.903335 0.498944
2510 1 0.42005 0.897065 0.497391
2578 1 0.410311 0.904405 0.497207
2515 1 0.43768 0.896782 0.4962
2583 1 0.428655 0.905369 0.495895
2514 1 0.454345 0.898209 0.496989
2517 1 0.462991 0.890188 0.495583
2586 1 0.472413 0.896911 0.49623
2655 1 0.46345 0.908083 0.495293
2659 1 0.481493 0.907346 0.49563
2518 1 0.499273 0.906653 0.499611
2519 1 0.480938 0.889241 0.498179
2516 1 0.490849 0.897039 0.498186
5388 1 0.00552954 0.907646 0.499822
5390 1 0.0129254 0.916926 0.498475
2521 1 0.0240189 0.923732 0.4981
2524 1 0.0341132 0.915308 0.498861
2527 1 0.0432125 0.920827 0.498222
2461 1 0.0523509 0.911721 0.497549
2463 1 0.0688495 0.91132 0.495263
2392 1 0.0621196 0.920367 0.495747
2464 1 0.0866636 0.911921 0.494602
2459 1 0.0781535 0.919273 0.495882
2533 1 0.0961976 0.919655 0.495338
2469 1 0.103999 0.912322 0.494939
2472 1 0.11171 0.920532 0.495392
2406 1 0.122252 0.909552 0.49563
2404 1 0.140138 0.908186 0.49697
2474 1 0.12924 0.91961 0.496192
2478 1 0.147722 0.917458 0.497119
2334 1 0.159515 0.908585 0.495606
2336 1 0.167896 0.918154 0.497405
2335 1 0.183497 0.917963 0.497274
2484 1 0.194034 0.910727 0.497589
2556 1 0.200674 0.918485 0.499035
2487 1 0.211477 0.908592 0.4996
2481 1 0.230236 0.9098 0.500484
2557 1 0.256079 0.921335 0.49949
2565 1 0.310326 0.924737 0.501196
2566 1 0.31925 0.915733 0.498946
2564 1 0.337031 0.918071 0.499065
2499 1 0.348215 0.909944 0.497776
2498 1 0.355953 0.919765 0.499594
2506 1 0.365731 0.911723 0.497367
2508 1 0.381969 0.91399 0.497713
2504 1 0.372441 0.921896 0.499357
2576 1 0.390239 0.921917 0.499031
2438 1 0.400272 0.913121 0.49713
2442 1 0.418134 0.913704 0.496884
2575 1 0.408432 0.921569 0.498362
2580 1 0.437119 0.914487 0.496758
2790 1 0.42668 0.922441 0.496371
2648 1 0.444086 0.926055 0.496655
2585 1 0.446374 0.9057 0.495193
2584 1 0.451899 0.916369 0.495243
2652 1 0.462477 0.92257 0.493104
2657 1 0.475115 0.920285 0.492562
5391 1 0.49284 0.916199 0.497412
2730 1 0.486015 0.924444 0.494938
5460 1 0.0063633 0.943937 0.498035
2522 1 0.0154891 0.935579 0.49675
5459 1 0.0052696 0.924888 0.497527
2593 1 0.033166 0.933263 0.497271
2595 1 0.0251759 0.94399 0.496468
2460 1 0.0511774 0.927673 0.497418
2526 1 0.0427413 0.943742 0.498298
2529 1 0.0527541 0.939191 0.498049
2462 1 0.0684393 0.929477 0.496761
2534 1 0.0647804 0.940823 0.495461
2465 1 0.0867117 0.927096 0.496185
2670 1 0.0829252 0.936471 0.495565
2471 1 0.0969382 0.93113 0.49616
2605 1 0.0942329 0.941591 0.496546
2480 1 0.108446 0.930698 0.49628
2539 1 0.122172 0.927991 0.496889
2547 1 0.113752 0.939591 0.496802
2615 1 0.138643 0.926395 0.497753
2473 1 0.129026 0.93904 0.497389
2410 1 0.140415 0.941202 0.498282
2685 1 0.151513 0.935761 0.49835
2619 1 0.157247 0.925363 0.496453
2475 1 0.163401 0.937891 0.497431
2621 1 0.183866 0.937125 0.497857
2476 1 0.172146 0.930429 0.497764
2554 1 0.202009 0.937263 0.497747
2550 1 0.193636 0.928789 0.497608
2625 1 0.218674 0.936233 0.49925
2552 1 0.20972 0.927496 0.499033
2486 1 0.236395 0.938201 0.499903
2418 1 0.228382 0.927519 0.498784
2496 1 0.346001 0.926329 0.499305
2647 1 0.382386 0.931831 0.500051
2512 1 0.400798 0.930379 0.500133
2646 1 0.389041 0.942085 0.5
2579 1 0.415269 0.930999 0.49832
2788 1 0.408298 0.940932 0.499643
2719 1 0.42421 0.941047 0.497027
2723 1 0.433138 0.93273 0.496759
2793 1 0.443938 0.938497 0.495408
2729 1 0.456632 0.934096 0.493807
2727 1 0.470003 0.932778 0.492356
2725 1 0.476185 0.943374 0.494009
5464 1 0.498697 0.931972 0.496729
2654 1 0.485773 0.936408 0.494636
2591 1 0.0164258 0.951823 0.49649
2597 1 0.0343545 0.954695 0.497549
2599 1 0.0261315 0.961405 0.497629
2602 1 0.0437083 0.958561 0.498575
2528 1 0.053375 0.955207 0.498222
2600 1 0.0705614 0.958389 0.495719
2530 1 0.0622671 0.952133 0.496071
2466 1 0.076424 0.946169 0.496212
2531 1 0.082438 0.955958 0.497252
2606 1 0.0929501 0.952492 0.494992
2542 1 0.105981 0.947172 0.496693
2543 1 0.100012 0.962559 0.496044
2679 1 0.112297 0.958565 0.496546
2689 1 0.122479 0.947159 0.497314
2538 1 0.123369 0.956982 0.498518
2687 1 0.136162 0.954316 0.498542
2482 1 0.16439 0.949331 0.497887
2544 1 0.149812 0.952379 0.498095
2623 1 0.178268 0.96325 0.497086
2620 1 0.177043 0.949103 0.497941
2548 1 0.187157 0.956289 0.498129
2551 1 0.195271 0.946382 0.497688
2698 1 0.205385 0.961933 0.498262
2693 1 0.219356 0.963276 0.498757
2627 1 0.216183 0.949395 0.498971
2624 1 0.205482 0.95044 0.498765
2629 1 0.228234 0.947116 0.498847
2563 1 0.263061 0.950583 0.500629
2783 1 0.385202 0.956447 0.499905
2720 1 0.416576 0.948413 0.49986
2644 1 0.410268 0.956979 0.499627
2724 1 0.427561 0.959026 0.496368
2649 1 0.435178 0.947792 0.495131
2792 1 0.4394 0.958659 0.496273
2794 1 0.457123 0.961232 0.494507
2726 1 0.461725 0.94775 0.493359
61 1 0.448664 0.949991 0.495292
2653 1 0.482442 0.952901 0.494827
2795 1 0.469737 0.956481 0.494345
2656 1 0.493231 0.94731 0.495758
2728 1 0.49857 0.961342 0.496256
2661 1 0.017032 0.968838 0.497569
2592 1 0.00711627 0.962092 0.497558
2663 1 0.00816724 0.981499 0.49722
2594 1 0.0232319 0.979149 0.497637
2596 1 0.0341796 0.971904 0.497102
2739 1 0.0448189 0.969612 0.497885
2672 1 0.0599604 0.979645 0.497617
2601 1 0.05863 0.966919 0.496982
2604 1 0.0709925 0.96992 0.497486
2746 1 0.0816715 0.979717 0.497259
2532 1 0.0870778 0.968342 0.496791
2537 1 0.103376 0.975536 0.496057
2674 1 0.0941423 0.979265 0.497558
2609 1 0.112104 0.970562 0.497684
2470 1 0.125843 0.970158 0.498508
2546 1 0.141871 0.979872 0.499403
2611 1 0.13918 0.966722 0.497607
2757 1 0.152969 0.964587 0.498738
2541 1 0.1559 0.97861 0.500038
2617 1 0.179859 0.973966 0.49776
2690 1 0.165679 0.963574 0.497467
2607 1 0.167993 0.975432 0.499345
2618 1 0.19198 0.975019 0.499218
2612 1 0.195036 0.965044 0.49821
2763 1 0.200974 0.980242 0.499023
2761 1 0.210284 0.973844 0.499901
2782 1 0.412385 0.968622 0.498789
65 1 0.42386 0.97326 0.499236
2582 1 0.433969 0.969987 0.4975
63 1 0.450885 0.978261 0.496661
2796 1 0.447706 0.966698 0.496846
2798 1 0.462933 0.973876 0.495861
2801 1 0.473243 0.968828 0.496206
138 1 0.490049 0.977016 0.497645
2797 1 0.486196 0.964218 0.498304
7 1 0.01347 0.999545 0.497409
11 1 0.0317004 0.994069 0.497825
9 1 0.0363454 0.984095 0.498171
2598 1 0.0174688 0.989779 0.497175
2668 1 0.046465 0.983009 0.497468
2667 1 0.0496576 0.996799 0.498122
2677 1 0.0611615 0.994563 0.498276
2673 1 0.0712684 0.987604 0.497144
2675 1 0.0890447 0.991328 0.498031
2669 1 0.103005 0.989655 0.498557
2549 1 0.11431 0.9847 0.49807
2535 1 0.132861 0.994135 0.500882
31 1 0.170067 0.990314 0.499328
2691 1 0.181907 0.99837 0.500671
2688 1 0.196863 0.993974 0.500374
276 1 0.415152 0.99067 0.499643
133 1 0.438569 0.982045 0.496218
2786 1 0.424905 0.984837 0.498336
134 1 0.442015 0.993929 0.497469
2803 1 0.430768 0.997248 0.4981
2871 1 0.454446 0.990651 0.497123
2941 1 0.467405 0.985879 0.496553
67 1 0.477788 0.980217 0.497485
279 1 0.47073 0.997684 0.496713
3012 1 0.494829 0.989642 0.49835
3015 1 0.483815 0.992838 0.498039
1404 1 0.0124465 0.513127 0.503133
1472 1 -0.00180758 0.515224 0.502175
1477 1 0.0112136 0.500549 0.50153
1402 1 0.0219385 0.507067 0.500622
1406 1 0.0506652 0.502982 0.499972
1413 1 0.0625269 0.502202 0.500378
1484 1 0.0639289 0.514905 0.501833
1344 1 0.074553 0.500344 0.500993
1347 1 0.105446 0.508491 0.500371
1423 1 0.128567 0.515409 0.500252
1425 1 0.142075 0.514364 0.50106
1427 1 0.153695 0.510271 0.500459
1473 1 0.00126111 0.528603 0.501644
1479 1 0.0128905 0.52404 0.501174
1480 1 0.0253567 0.523211 0.501005
1549 1 0.028926 0.534988 0.501008
1551 1 0.0412777 0.533712 0.500455
1483 1 0.0542408 0.529889 0.499948
1555 1 0.0673475 0.526439 0.500233
1489 1 0.108471 0.533044 0.500133
1416 1 0.0932137 0.522004 0.500657
1420 1 0.120053 0.529178 0.500928
1422 1 0.117185 0.51829 0.500142
1495 1 0.132857 0.527858 0.500503
1428 1 0.144872 0.526925 0.500578
1426 1 0.155776 0.522376 0.501211
1369 1 0.220094 0.521027 0.500241
1474 1 0.0147807 0.536923 0.502631
1545 1 0.00393663 0.540474 0.502207
1546 1 0.004381 0.551755 0.500885
1478 1 0.0200035 0.550317 0.501604
1550 1 0.0307225 0.547148 0.500765
1552 1 0.0433766 0.544973 0.500001
1491 1 0.109119 0.545505 0.499222
1492 1 0.123106 0.544208 0.500732
1499 1 0.13887 0.553908 0.50195
1567 1 0.135038 0.540592 0.500226
1424 1 0.14773 0.539044 0.50069
1432 1 0.149178 0.550049 0.500396
1614 1 0.0084948 0.564776 0.500472
1548 1 0.0199955 0.561863 0.501168
1623 1 0.0333119 0.559918 0.501433
1616 1 0.0353759 0.572077 0.500244
1617 1 0.0480228 0.570108 0.50045
1562 1 0.0853815 0.561163 0.500401
1631 1 0.0890576 0.574375 0.500983
1563 1 0.0981447 0.559393 0.500859
1564 1 0.101332 0.57263 0.50189
1493 1 0.125782 0.554662 0.499853
1494 1 0.113916 0.57059 0.500718
1498 1 0.126337 0.567695 0.500985
1496 1 0.112515 0.558193 0.500211
1501 1 0.140346 0.566812 0.500954
1503 1 0.152006 0.563179 0.500526
1505 1 0.165461 0.572256 0.500792
1508 1 0.179239 0.570485 0.500624
1436 1 0.17694 0.558499 0.500495
1507 1 0.191051 0.56689 0.499747
1511 1 0.204929 0.564025 0.499963
1687 1 0.0229033 0.573783 0.500252
1554 1 0.051415 0.582153 0.499828
1630 1 0.0629052 0.579398 0.500472
1560 1 0.0659582 0.592449 0.501546
1622 1 0.0784316 0.589494 0.500937
1566 1 0.0911448 0.587201 0.501923
1629 1 0.0750054 0.575641 0.501727
1565 1 0.10521 0.585272 0.501506
1568 1 0.117234 0.582346 0.502504
1639 1 0.130446 0.579145 0.502193
1569 1 0.144251 0.591851 0.503303
1500 1 0.142191 0.579872 0.502447
1641 1 0.131091 0.59189 0.501764
1502 1 0.153739 0.575328 0.500705
1504 1 0.156793 0.588048 0.502777
1506 1 0.169404 0.583464 0.502022
1579 1 0.181545 0.582824 0.501017
1580 1 0.195705 0.592227 0.501604
1582 1 0.20855 0.588835 0.501026
1583 1 0.220957 0.585908 0.499799
1512 1 0.218612 0.572514 0.500007
1626 1 0.0418001 0.598227 0.500832
1624 1 0.0411228 0.6095 0.501803
1620 1 0.0534765 0.595295 0.500687
1628 1 0.0556862 0.607241 0.501468
1619 1 0.0680801 0.604186 0.500877
1697 1 0.081187 0.603202 0.500922
1637 1 0.10848 0.610724 0.499793
1634 1 0.10645 0.596948 0.501018
1633 1 0.0927005 0.600057 0.501464
1635 1 0.119876 0.595273 0.501696
1570 1 0.121346 0.60831 0.501317
1571 1 0.144606 0.602378 0.502158
1572 1 0.132435 0.603244 0.502673
1575 1 0.15738 0.599607 0.502727
1577 1 0.169588 0.596169 0.503703
1578 1 0.183589 0.594927 0.500903
1647 1 0.172782 0.610266 0.502651
1649 1 0.185071 0.607062 0.501766
1651 1 0.198496 0.604579 0.501415
1584 1 0.212694 0.601412 0.499784
1586 1 0.223234 0.598182 0.500151
1689 1 0.0171403 0.615474 0.499953
1757 1 0.0298018 0.613352 0.500519
1755 1 0.019666 0.628247 0.501115
1694 1 0.0319043 0.625939 0.501007
1698 1 0.045776 0.623121 0.502361
1627 1 0.0718016 0.618439 0.500751
1769 1 0.0588856 0.619777 0.502828
1701 1 0.0833102 0.616331 0.501288
1699 1 0.0853831 0.629211 0.501555
1632 1 0.09674 0.612853 0.49967
1636 1 0.110578 0.624103 0.500668
1705 1 0.0987795 0.626033 0.501247
1638 1 0.12463 0.619404 0.501102
1711 1 0.136345 0.619262 0.502634
1573 1 0.146908 0.616184 0.503471
1648 1 0.160812 0.61395 0.503542
1643 1 0.150237 0.629825 0.503841
1576 1 0.162989 0.626215 0.504047
1717 1 0.176379 0.624338 0.502186
1654 1 0.200128 0.61575 0.500973
1719 1 0.187155 0.619727 0.501562
1656 1 0.200812 0.629245 0.501103
1590 1 0.21658 0.627869 0.500616
1653 1 0.212739 0.614071 0.501452
1693 1 0.0352253 0.638925 0.501974
1825 1 0.0231298 0.639762 0.50008
1700 1 0.0487483 0.649409 0.50073
1696 1 0.0511079 0.634155 0.50271
1765 1 0.0615721 0.632699 0.501735
1702 1 0.0741102 0.631066 0.501378
1695 1 0.061186 0.647142 0.501131
1704 1 0.0871245 0.641786 0.499903
1640 1 0.108737 0.637809 0.502686
1709 1 0.123373 0.633526 0.502988
1707 1 0.12559 0.646912 0.503691
1642 1 0.136899 0.63178 0.503479
1644 1 0.139181 0.643166 0.503111
1645 1 0.15207 0.642052 0.503984
1716 1 0.16462 0.639042 0.503424
1723 1 0.177213 0.636459 0.502216
1793 1 0.18088 0.648295 0.500982
1725 1 0.193838 0.643749 0.502239
1650 1 0.190071 0.631712 0.50188
1652 1 0.205387 0.640696 0.500877
1831 1 0.0247518 0.654531 0.500367
1770 1 0.0369516 0.651247 0.501167
1760 1 0.0380399 0.663747 0.500019
1762 1 0.0505094 0.662793 0.500433
1766 1 0.0646374 0.659067 0.499758
1775 1 0.103804 0.664513 0.499772
1771 1 0.101775 0.651013 0.50091
1841 1 0.11605 0.650087 0.501816
1773 1 0.116943 0.662489 0.500992
1781 1 0.128349 0.659675 0.503035
1574 1 0.140043 0.656883 0.503161
1713 1 0.152675 0.653704 0.502808
1782 1 0.159445 0.666354 0.503415
1646 1 0.167201 0.6527 0.502623
1721 1 0.18306 0.660057 0.501666
1715 1 0.17114 0.66347 0.500525
1722 1 0.198026 0.657306 0.501731
1726 1 0.207999 0.653255 0.500818
1724 1 0.218875 0.65173 0.500928
1794 1 0.220979 0.662501 0.502356
1800 1 0.257133 0.664081 0.500447
1728 1 0.24614 0.66051 0.500467
1522 1 0.282296 0.665407 0.501969
1729 1 0.311048 0.661432 0.501691
1735 1 0.324104 0.666943 0.502435
1761 1 0.0267678 0.667966 0.500643
1756 1 0.0369313 0.683622 0.500583
1830 1 0.0542517 0.673917 0.500243
1835 1 0.0422826 0.673783 0.500278
1902 1 0.0723 0.682006 0.500482
1845 1 0.107678 0.67735 0.500859
1708 1 0.120082 0.675501 0.50125
1712 1 0.133108 0.671603 0.502394
1780 1 0.146011 0.669868 0.503525
1779 1 0.136014 0.684724 0.501967
1785 1 0.160171 0.678855 0.500816
1710 1 0.148952 0.682428 0.502135
1714 1 0.174292 0.675585 0.500335
1790 1 0.186578 0.671684 0.501955
1791 1 0.198724 0.669387 0.50209
1862 1 0.20163 0.68318 0.50176
1795 1 0.214003 0.680579 0.500835
1799 1 0.210307 0.668182 0.502355
2009 1 0.237237 0.682474 0.500575
1858 1 0.224914 0.674359 0.500758
1796 1 0.256632 0.685317 0.502271
1588 1 0.249788 0.673712 0.501296
1870 1 0.272831 0.684689 0.501017
1802 1 0.262178 0.674612 0.501832
1801 1 0.270785 0.667706 0.500895
1808 1 0.289367 0.684323 0.50153
1732 1 0.279286 0.675325 0.502513
1600 1 0.293898 0.673144 0.50156
1873 1 0.305662 0.674856 0.50183
1876 1 0.318623 0.676826 0.501252
1736 1 0.327898 0.685495 0.503392
1666 1 0.335202 0.676389 0.50154
1670 1 0.349496 0.671162 0.502995
2031 1 0.016057 0.694735 0.500796
1893 1 0.0281915 0.695563 0.500521
1971 1 0.0410258 0.700519 0.502471
1968 1 0.0467324 0.690519 0.501498
1904 1 0.052127 0.702166 0.502275
1970 1 0.0737409 0.695984 0.499243
1833 1 0.0571164 0.687349 0.501912
1973 1 0.0634949 0.698577 0.501128
1846 1 0.110134 0.691659 0.501112
1768 1 0.0971425 0.692549 0.501198
1777 1 0.123385 0.689669 0.50173
1849 1 0.127281 0.701217 0.501389
1852 1 0.139441 0.698389 0.501164
1784 1 0.164928 0.693973 0.4996
1778 1 0.151125 0.695602 0.499657
1783 1 0.175216 0.68847 0.500937
1720 1 0.190257 0.686264 0.501322
1789 1 0.19136 0.700453 0.500621
1792 1 0.205081 0.696879 0.5015
1861 1 0.218182 0.691985 0.501056
1868 1 0.236754 0.699517 0.500647
1803 1 0.254096 0.703058 0.501978
1866 1 0.245641 0.690362 0.500768
1662 1 0.272788 0.703155 0.500787
1730 1 0.264341 0.693394 0.502432
1874 1 0.281131 0.694012 0.501351
1667 1 0.291366 0.702274 0.501393
1804 1 0.308845 0.702178 0.502681
1738 1 0.29815 0.691631 0.502019
1596 1 0.308855 0.68703 0.50264
1740 1 0.325455 0.702502 0.502818
2017 1 0.318336 0.693635 0.502641
1602 1 0.343197 0.684416 0.50196
1806 1 0.33548 0.693854 0.501728
1737 1 0.344416 0.702187 0.501033
1673 1 0.353354 0.69265 0.50284
1883 1 0.362384 0.702422 0.502066
1965 1 0.0140671 0.707141 0.500669
2037 1 0.00507162 0.716963 0.501248
2035 1 0.0219117 0.716884 0.501715
1832 1 0.0266342 0.707016 0.502734
1906 1 0.0384405 0.715519 0.503489
1772 1 0.0506135 0.714022 0.502494
1842 1 0.0637905 0.711304 0.500916
1896 1 0.0749937 0.708485 0.500662
1919 1 0.0891834 0.718596 0.501591
1903 1 0.0882153 0.706413 0.50048
1834 1 0.0777976 0.720652 0.501596
1836 1 0.101866 0.705408 0.501506
1897 1 0.102604 0.71668 0.501064
1916 1 0.117045 0.71683 0.500911
1850 1 0.113841 0.70483 0.502021
1914 1 0.12783 0.714948 0.500562
1853 1 0.183869 0.713618 0.500229
1923 1 0.167279 0.704897 0.499925
1856 1 0.199449 0.71015 0.50119
1786 1 0.197066 0.721473 0.500217
1864 1 0.212373 0.706349 0.50193
2136 1 0.215838 0.71756 0.501865
1933 1 0.235313 0.718981 0.502632
1860 1 0.226423 0.7066 0.500845
1798 1 0.244823 0.710988 0.501097
1935 1 0.253944 0.719063 0.502124
1734 1 0.262415 0.711721 0.50154
1943 1 0.270793 0.719247 0.502655
1947 1 0.291031 0.720652 0.502824
1805 1 0.280784 0.712884 0.50301
1875 1 0.29909 0.710474 0.503
1941 1 0.307663 0.720002 0.503408
1669 1 0.317529 0.713626 0.502194
1877 1 0.32637 0.72143 0.501332
1807 1 0.335923 0.711039 0.501067
1945 1 0.354493 0.71114 0.501409
1809 1 0.371678 0.710762 0.499809
1530 1 0.496224 0.709241 0.500655
4900 1 0.0140481 0.724983 0.501721
2101 1 0.00814015 0.735139 0.502247
1898 1 0.0312909 0.724667 0.503682
1972 1 0.0248072 0.73484 0.503282
2043 1 0.0434784 0.729388 0.503994
2108 1 0.0564264 0.728299 0.503002
1967 1 0.0663154 0.724676 0.502499
1969 1 0.0597675 0.740547 0.503577
2038 1 0.0708973 0.73855 0.50264
1847 1 0.0813084 0.733545 0.502255
1843 1 0.0924573 0.730058 0.502856
1844 1 0.106315 0.728887 0.501252
1979 1 0.107487 0.739843 0.503126
2047 1 0.116417 0.729874 0.502062
1918 1 0.130285 0.7272 0.500851
1912 1 0.143542 0.723573 0.499879
1857 1 0.198375 0.739159 0.502725
1854 1 0.187835 0.728764 0.502678
1924 1 0.20576 0.728955 0.502059
1997 1 0.21488 0.735581 0.50176
1869 1 0.224411 0.727045 0.502989
1931 1 0.234479 0.737088 0.502165
1939 1 0.253192 0.737714 0.503075
1927 1 0.243806 0.727449 0.50209
1938 1 0.271433 0.737341 0.501713
1872 1 0.261433 0.728638 0.501885
1879 1 0.28 0.728504 0.50211
2007 1 0.290442 0.738323 0.501031
2011 1 0.29923 0.729267 0.501739
1940 1 0.308828 0.737685 0.502123
2012 1 0.327356 0.73773 0.500817
1944 1 0.317289 0.729096 0.501735
1948 1 0.335135 0.728144 0.500863
1812 1 0.354358 0.729114 0.499966
1950 1 0.373554 0.728351 0.499769
4691 1 0.477738 0.735135 0.50056
4833 1 0.490777 0.736687 0.500508
1889 1 0.492102 0.725988 0.50134
2033 1 0.0164053 0.743922 0.504076
2034 1 0.00951655 0.753088 0.504539
2039 1 0.0343298 0.743008 0.503758
2105 1 0.0273753 0.754224 0.505113
2036 1 0.0492289 0.744034 0.504428
2040 1 0.0452228 0.753526 0.504547
2113 1 0.0630469 0.751318 0.504747
1975 1 0.0756698 0.750283 0.504917
2044 1 0.0866778 0.747739 0.503864
1991 1 0.0971509 0.744453 0.502496
1981 1 0.102532 0.755693 0.50447
1977 1 0.126956 0.74464 0.501372
1992 1 0.113358 0.757253 0.503087
1907 1 0.116863 0.74789 0.50328
1913 1 0.140334 0.740962 0.499831
1915 1 0.131125 0.757107 0.501626
1911 1 0.147099 0.757113 0.500359
2064 1 0.152725 0.746119 0.499315
1990 1 0.163976 0.756286 0.501158
1787 1 0.180989 0.741717 0.500829
2060 1 0.180781 0.757308 0.500585
2133 1 0.198868 0.754848 0.501508
2062 1 0.189636 0.747576 0.503212
1788 1 0.216597 0.753868 0.500624
2131 1 0.208431 0.748093 0.501596
1925 1 0.223793 0.744845 0.50156
1932 1 0.234654 0.756388 0.501729
1934 1 0.242693 0.747078 0.502374
2003 1 0.252774 0.755945 0.502183
1937 1 0.262152 0.746677 0.503113
2004 1 0.271619 0.756063 0.50154
1936 1 0.280961 0.745901 0.501653
2005 1 0.289237 0.756955 0.502181
2015 1 0.300558 0.746697 0.50094
2008 1 0.309615 0.756078 0.50006
2010 1 0.318771 0.746195 0.500548
2081 1 0.325309 0.755562 0.50067
2086 1 0.345006 0.757131 0.499815
2014 1 0.336343 0.748073 0.501345
2016 1 0.364214 0.756667 0.500367
1949 1 0.371838 0.747517 0.500068
1742 1 0.413241 0.75804 0.498678
4761 1 0.440182 0.753309 0.499035
1951 1 0.429373 0.761953 0.498746
4971 1 0.458393 0.755491 0.49959
1958 1 0.478044 0.757871 0.500918
1959 1 0.474354 0.746314 0.500123
2095 1 0.464065 0.745762 0.500583
2025 1 0.498569 0.753715 0.501754
4695 1 0.48707 0.749381 0.501269
2171 1 0.0010872 0.763578 0.503676
2103 1 0.0115267 0.770814 0.503409
1978 1 0.0185665 0.762624 0.504793
2109 1 0.0269858 0.770697 0.506334
1976 1 0.0366602 0.760412 0.505136
2117 1 0.0536019 0.762099 0.505016
2042 1 0.0453163 0.77218 0.505962
2114 1 0.0693817 0.761479 0.504822
2111 1 0.0633892 0.769719 0.505479
2112 1 0.0742546 0.77745 0.503776
1900 1 0.0874986 0.759413 0.503106
2049 1 0.0807039 0.769008 0.502401
1909 1 0.0917154 0.775328 0.5032
1980 1 0.0974745 0.766934 0.505173
2050 1 0.107642 0.766353 0.504039
1905 1 0.112465 0.775111 0.502711
1910 1 0.121185 0.764905 0.503678
2059 1 0.126644 0.774316 0.501779
1985 1 0.147689 0.773813 0.500657
1988 1 0.138227 0.769895 0.499893
1920 1 0.163682 0.77574 0.499359
1851 1 0.155695 0.764593 0.50133
1989 1 0.170698 0.765626 0.500602
2273 1 0.188886 0.766515 0.501056
1996 1 0.200051 0.774249 0.500504
1930 1 0.217428 0.773226 0.501408
1994 1 0.208076 0.764047 0.501363
1929 1 0.22481 0.764466 0.499718
1928 1 0.233727 0.773881 0.499829
1999 1 0.252693 0.772426 0.501468
2001 1 0.243303 0.763231 0.500269
2002 1 0.262362 0.764723 0.500718
2073 1 0.270516 0.775112 0.500934
2075 1 0.279373 0.766529 0.502179
2076 1 0.28934 0.773301 0.50139
2006 1 0.299486 0.763957 0.501657
2077 1 0.309633 0.773593 0.500581
2020 1 0.405765 0.766803 0.499959
2090 1 0.421049 0.770524 0.500941
2022 1 0.412639 0.778236 0.502009
2167 1 0.439634 0.770083 0.499805
1952 1 0.44781 0.76366 0.500342
2239 1 0.45716 0.769578 0.501696
2169 1 0.467988 0.761559 0.500326
4622 1 0.467274 0.771938 0.501823
2028 1 0.478493 0.777323 0.500096
4837 1 0.497696 0.766056 0.502049
2029 1 0.485378 0.767346 0.501371
2102 1 0.00330619 0.781417 0.50388
2104 1 0.0106085 0.790151 0.505593
2107 1 0.0191642 0.781511 0.505407
2106 1 0.0297976 0.789185 0.505806
2041 1 0.0372364 0.780422 0.506034
2181 1 0.04524 0.788549 0.506246
2110 1 0.0554853 0.779194 0.505876
2045 1 0.064664 0.788296 0.506112
1848 1 0.0828459 0.787298 0.502912
2257 1 0.0932305 0.794434 0.503407
1982 1 0.103142 0.784194 0.503867
1986 1 0.110605 0.793231 0.5027
1908 1 0.11876 0.784245 0.502539
1987 1 0.127541 0.792965 0.502338
2053 1 0.137238 0.782626 0.50122
1983 1 0.14539 0.793171 0.501348
2051 1 0.153964 0.783586 0.500608
2055 1 0.172554 0.785252 0.499947
1995 1 0.189983 0.7828 0.501025
2065 1 0.217324 0.791647 0.50048
2135 1 0.208192 0.782606 0.500958
1998 1 0.226256 0.781842 0.500424
2071 1 0.254495 0.790706 0.499856
2069 1 0.244472 0.781865 0.501558
2000 1 0.261986 0.780267 0.500892
2072 1 0.272994 0.791464 0.49992
2074 1 0.280447 0.782479 0.500966
2145 1 0.289001 0.792283 0.50096
2147 1 0.29717 0.782407 0.500493
2149 1 0.314116 0.782797 0.498817
2089 1 0.40467 0.786142 0.500255
2158 1 0.422918 0.786923 0.50164
2301 1 0.413779 0.795074 0.500146
2097 1 0.439987 0.787819 0.500898
2160 1 0.431711 0.776359 0.499808
2093 1 0.451295 0.781459 0.500516
2096 1 0.464041 0.782558 0.501413
4831 1 0.478338 0.787814 0.501561
2098 1 0.464923 0.796112 0.502997
2170 1 0.493437 0.778058 0.501934
1957 1 0.488641 0.792343 0.503063
2241 1 0.00193763 0.798551 0.505283
2243 1 0.0116932 0.807611 0.504994
2174 1 0.0198862 0.797716 0.506481
2177 1 0.0296086 0.80695 0.505215
2175 1 0.0379458 0.798571 0.506141
1974 1 0.0487325 0.806335 0.504564
2180 1 0.0402287 0.813823 0.502979
2116 1 0.0547486 0.796567 0.506327
2115 1 0.0669672 0.805921 0.504535
2183 1 0.05839 0.814016 0.503291
2118 1 0.0751756 0.796669 0.504067
2188 1 0.0851243 0.805473 0.503053
2254 1 0.0948898 0.812086 0.500932
1984 1 0.11037 0.812356 0.501196
2189 1 0.100985 0.802505 0.5016
2048 1 0.119895 0.802876 0.501893
2119 1 0.129265 0.810984 0.50134
2056 1 0.136364 0.800775 0.501017
2258 1 0.145986 0.810489 0.500966
2125 1 0.154338 0.800561 0.500697
2066 1 0.219497 0.81065 0.499762
2132 1 0.208831 0.800743 0.500384
2134 1 0.237497 0.80764 0.499606
1926 1 0.22747 0.800358 0.501189
2137 1 0.245913 0.799607 0.501668
2142 1 0.263729 0.799837 0.500381
2214 1 0.28966 0.812379 0.499805
2143 1 0.28156 0.801632 0.500483
2144 1 0.299405 0.801671 0.500065
2163 1 0.450999 0.795402 0.501131
2162 1 0.458962 0.806898 0.502517
2165 1 0.473043 0.802484 0.503264
5041 1 0.494346 0.810013 0.503175
5043 1 0.484654 0.803848 0.504224
2312 1 0.0015517 0.817162 0.505134
2242 1 0.0108999 0.825946 0.50214
2176 1 0.0201197 0.816643 0.504173
2179 1 0.0299211 0.821701 0.503884
2185 1 0.0486167 0.824652 0.503041
2249 1 0.0398061 0.83178 0.502501
2251 1 0.0594534 0.829982 0.50123
2184 1 0.0685269 0.820986 0.501517
2182 1 0.0770735 0.813462 0.502757
2259 1 0.083382 0.823658 0.500887
2389 1 0.102551 0.82144 0.501006
2256 1 0.119897 0.821426 0.500264
2123 1 0.129529 0.829439 0.500856
2261 1 0.109524 0.831156 0.500939
2052 1 0.138455 0.820029 0.500124
2124 1 0.154208 0.820606 0.499172
2203 1 0.203153 0.830347 0.500586
2204 1 0.220035 0.828202 0.500956
2272 1 0.210601 0.819598 0.500576
2347 1 0.236466 0.826446 0.500369
2202 1 0.229375 0.818112 0.5011
2139 1 0.253301 0.825932 0.500164
2138 1 0.245538 0.818323 0.500831
2208 1 0.26171 0.834512 0.501472
2210 1 0.272255 0.827077 0.501483
2140 1 0.260193 0.817013 0.501121
2283 1 0.291929 0.826352 0.500449
2141 1 0.280146 0.817362 0.500736
2235 1 0.450224 0.815556 0.50063
2236 1 0.460498 0.824023 0.500806
2164 1 0.468472 0.814456 0.503298
2238 1 0.478833 0.830331 0.503057
4901 1 0.4793 0.817601 0.502697
2237 1 0.492469 0.820608 0.501226
5113 1 0.490288 0.83301 0.501385
2313 1 0.00393774 0.83461 0.503738
2314 1 0.0117639 0.845377 0.502016
2245 1 0.0202591 0.835194 0.501521
2318 1 0.0304478 0.841563 0.500842
2321 1 0.0827289 0.842743 0.50089
2178 1 0.093447 0.851235 0.50064
2120 1 0.102002 0.84109 0.500601
2255 1 0.120295 0.838284 0.500864
2122 1 0.138225 0.838375 0.500304
2121 1 0.149551 0.84721 0.50026
2192 1 0.156518 0.837879 0.500326
2199 1 0.19317 0.839469 0.49956
2201 1 0.20232 0.848101 0.500003
2275 1 0.220581 0.846356 0.501242
2271 1 0.211943 0.837781 0.500231
2345 1 0.236479 0.847052 0.501512
2343 1 0.228468 0.836935 0.500788
2277 1 0.253434 0.842262 0.500859
2209 1 0.242813 0.835004 0.501753
2279 1 0.269893 0.843365 0.503598
2212 1 0.28145 0.836393 0.501874
2281 1 0.289609 0.84496 0.499826
2216 1 0.299577 0.835921 0.499209
2305 1 0.449339 0.834348 0.499809
2309 1 0.476659 0.843893 0.502054
2307 1 0.467732 0.834555 0.501441
2240 1 0.486808 0.847011 0.501608
2310 1 0.498382 0.84392 0.500711
2244 1 0.00363016 0.853255 0.502804
2397 1 0.139711 0.855608 0.500589
2262 1 0.157027 0.857067 0.499817
2340 1 0.203345 0.864677 0.499654
2270 1 0.212266 0.857182 0.501709
2276 1 0.231161 0.856358 0.501359
2274 1 0.241317 0.865122 0.501377
2348 1 0.245884 0.85307 0.501507
2346 1 0.255791 0.862175 0.501465
2350 1 0.272378 0.863098 0.502653
2278 1 0.262061 0.851622 0.502507
2355 1 0.291388 0.861197 0.500975
2349 1 0.281219 0.852632 0.501987
2282 1 0.280696 0.869718 0.502538
2284 1 0.299351 0.85435 0.500418
2308 1 0.485236 0.858184 0.499776
2380 1 0.495841 0.863255 0.500667
2385 1 0.00528235 0.871451 0.501339
2341 1 0.211428 0.874983 0.50131
2338 1 0.231845 0.874944 0.499672
2408 1 0.259665 0.88601 0.50252
2344 1 0.252167 0.874648 0.500866
2415 1 0.26897 0.875543 0.502113
2488 1 0.276956 0.886235 0.502851
2280 1 0.288075 0.878109 0.502426
2358 1 0.298681 0.871503 0.500356
2351 1 0.294996 0.888771 0.501253
2448 1 0.496539 0.889635 0.500336
5318 1 0.00339818 0.890788 0.501328
2452 1 0.0123886 0.897601 0.499498
2483 1 0.21384 0.891594 0.499946
2414 1 0.2215 0.902005 0.50199
2421 1 0.239754 0.900402 0.499709
2485 1 0.228656 0.893007 0.500648
2417 1 0.251011 0.893484 0.500704
2490 1 0.258474 0.905454 0.500176
2420 1 0.267854 0.894154 0.500896
2353 1 0.277175 0.903827 0.501409
2422 1 0.285984 0.89743 0.501239
2699 1 0.296464 0.905463 0.500858
2631 1 0.303573 0.896022 0.500657
2489 1 0.219572 0.919537 0.50031
2553 1 0.238073 0.91903 0.500567
2352 1 0.247953 0.909563 0.500279
2416 1 0.266366 0.913101 0.500449
2561 1 0.275368 0.922988 0.499922
2423 1 0.292123 0.92397 0.500584
2559 1 0.284769 0.914407 0.500319
2492 1 0.301514 0.915306 0.499153
2633 1 0.327953 0.925364 0.499026
2555 1 0.24664 0.929511 0.499975
2628 1 0.256795 0.942034 0.500917
2701 1 0.265448 0.931858 0.499648
2419 1 0.27276 0.941892 0.50089
2562 1 0.282269 0.931574 0.501604
2771 1 0.291188 0.9399 0.501904
2491 1 0.308889 0.942933 0.501863
2630 1 0.300952 0.933314 0.500575
2570 1 0.318649 0.934673 0.500719
2643 1 0.335494 0.934949 0.50038
2641 1 0.363778 0.930164 0.500093
2573 1 0.353468 0.938682 0.50112
2714 1 0.371835 0.94039 0.501458
2695 1 0.232039 0.958841 0.500425
2558 1 0.245396 0.947525 0.500035
2560 1 0.243326 0.957938 0.500516
2704 1 0.254524 0.95843 0.500991
2697 1 0.277628 0.959092 0.501229
2636 1 0.283842 0.950354 0.502047
2776 1 0.293853 0.958293 0.504332
44 1 0.305884 0.959612 0.503194
2632 1 0.299628 0.949855 0.502061
2568 1 0.316758 0.957183 0.504141
2642 1 0.333547 0.955098 0.501965
2494 1 0.324958 0.943763 0.501851
2574 1 0.342982 0.944669 0.500683
2651 1 0.349935 0.95385 0.502978
2645 1 0.360986 0.948517 0.501053
2569 1 0.364442 0.96038 0.500925
2787 1 0.375651 0.958753 0.500995
2637 1 0.378999 0.947176 0.501502
2721 1 0.3992 0.945995 0.499421
2718 1 0.397526 0.95706 0.501253
2702 1 0.219839 0.977922 0.500507
2769 1 0.229533 0.971143 0.501327
2770 1 0.254742 0.969085 0.501863
2626 1 0.241732 0.972194 0.502016
2774 1 0.272118 0.977757 0.501925
2634 1 0.26871 0.966256 0.5021
2767 1 0.286405 0.966181 0.503214
2635 1 0.296184 0.974312 0.503428
2709 1 0.284038 0.977478 0.501577
2707 1 0.307262 0.971871 0.504383
2781 1 0.324404 0.979569 0.502966
2717 1 0.322614 0.967375 0.504286
2711 1 0.350066 0.979258 0.502646
2567 1 0.348289 0.966262 0.502569
2639 1 0.335065 0.979891 0.502946
2571 1 0.335761 0.966686 0.503053
2722 1 0.360748 0.970072 0.502612
2650 1 0.386868 0.969512 0.501305
2572 1 0.3728 0.971653 0.500842
131 1 0.400829 0.968716 0.500498
2784 1 0.410636 0.979899 0.500036
2610 1 0.118198 0.99798 0.500111
2467 1 0.128345 0.981692 0.499505
2616 1 0.14548 0.991067 0.499359
2614 1 0.15927 0.989062 0.50068
32 1 0.178231 0.985654 0.499936
2681 1 0.188997 0.987362 0.500694
2692 1 0.207897 0.988765 0.501082
2765 1 0.219065 0.989048 0.502535
2775 1 0.235005 0.998036 0.502315
2696 1 0.230989 0.985204 0.50184
2705 1 0.244723 0.982064 0.502329
45 1 0.259515 0.995187 0.500698
2772 1 0.245406 0.994431 0.501019
2773 1 0.258667 0.981402 0.501738
2703 1 0.272988 0.991657 0.501186
46 1 0.28548 0.989747 0.501998
2700 1 0.312543 0.982204 0.502446
2715 1 0.299068 1.00014 0.500774
2778 1 0.31348 0.993305 0.502719
2640 1 0.297826 0.987954 0.502341
2638 1 0.324503 0.992303 0.502656
2713 1 0.336834 0.992675 0.502895
2712 1 0.3502 0.99092 0.50414
57 1 0.361159 0.985577 0.502504
127 1 0.363154 0.998506 0.502852
136 1 0.388146 0.992968 0.500894
2791 1 0.37469 0.984635 0.501684
2785 1 0.37541 0.996127 0.502637
2716 1 0.387918 0.981833 0.502083
64 1 0.402307 0.993538 0.500357
2789 1 0.400078 0.981001 0.500978
3083 1 0.503994 0.0111298 0.49864
2849 1 0.848617 0.00426813 0.500687
2921 1 0.861084 -0.00182608 0.500608
3087 1 0.507971 0.0231948 0.498725
3017 1 0.511017 0.0354742 0.498309
3156 1 0.504148 0.0531718 0.497064
3158 1 0.515795 0.0479401 0.499044
3223 1 0.508605 0.0651249 0.49703
3227 1 0.521407 0.0605976 0.49875
3297 1 0.52627 0.0726484 0.498814
3049 1 0.784287 0.070645 0.500807
3058 1 0.828902 0.0740517 0.499442
3152 1 0.501834 0.0827603 0.497752
3295 1 0.514205 0.0774945 0.498285
3298 1 0.529264 0.0862475 0.49966
3053 1 0.817907 0.0788341 0.499864
3056 1 0.835818 0.0856676 0.498797
3293 1 0.504942 0.0932906 0.499208
3368 1 0.522196 0.10068 0.500066
3296 1 0.537151 0.108188 0.50086
3125 1 0.831222 0.101316 0.499394
3196 1 0.842236 0.0955526 0.499228
3131 1 0.84749 0.10813 0.498668
3195 1 0.827658 0.119227 0.499953
3198 1 0.844047 0.125964 0.49941
3127 1 0.838658 0.113666 0.499282
3265 1 0.810992 0.144004 0.498921
3192 1 0.804289 0.133163 0.499023
3194 1 0.821432 0.140375 0.497979
3267 1 0.831048 0.131539 0.498502
3269 1 0.837668 0.14405 0.497947
3200 1 0.85028 0.137795 0.499482
3203 1 0.860401 0.132363 0.500539
3270 1 0.856009 0.148733 0.498916
3271 1 0.86599 0.142847 0.498585
3204 1 0.876548 0.136685 0.499777
3257 1 0.768292 0.154187 0.501015
3329 1 0.773945 0.163544 0.498851
3259 1 0.786303 0.156815 0.500185
3331 1 0.804471 0.16227 0.49845
3264 1 0.816344 0.155574 0.498288
3263 1 0.797395 0.14995 0.498928
3266 1 0.827702 0.14939 0.497643
3273 1 0.832861 0.161136 0.498305
3272 1 0.844582 0.154445 0.497421
3339 1 0.850409 0.166103 0.498532
3202 1 0.862235 0.160208 0.498441
3278 1 0.879294 0.165427 0.498724
3275 1 0.873116 0.15501 0.498763
3280 1 0.889625 0.159027 0.499044
3349 1 0.933661 0.161589 0.499865
3216 1 0.956913 0.159702 0.499131
3286 1 0.944731 0.15345 0.499429
3360 1 0.970168 0.157566 0.498956
3217 1 0.981616 0.151207 0.500138
421 1 0.982403 0.164935 0.497842
3218 1 0.993415 0.16147 0.49782
422 1 0.993194 0.149564 0.499376
3328 1 0.771697 0.181361 0.499522
3260 1 0.792692 0.166262 0.499718
3399 1 0.788279 0.185255 0.498681
3258 1 0.781931 0.173297 0.498313
3262 1 0.799458 0.176547 0.498725
3334 1 0.810846 0.170983 0.498847
3268 1 0.821623 0.167948 0.497409
3274 1 0.828446 0.178906 0.496819
3335 1 0.815891 0.183202 0.497961
3343 1 0.844182 0.184466 0.498216
3337 1 0.83992 0.173233 0.497711
3350 1 0.868144 0.171782 0.4993
3276 1 0.854733 0.17686 0.497618
3348 1 0.875023 0.182303 0.499503
3419 1 0.886084 0.17662 0.49839
3417 1 0.903338 0.179399 0.497485
3346 1 0.896439 0.168874 0.498787
3212 1 0.914426 0.173227 0.499136
3284 1 0.926835 0.170402 0.500206
3353 1 0.921257 0.183522 0.498336
3491 1 0.937246 0.176476 0.498097
3354 1 0.944386 0.166657 0.497907
3288 1 0.954738 0.170174 0.49746
3425 1 0.952573 0.182734 0.497978
3147 1 0.964662 0.177119 0.496976
3423 1 0.9721 0.170371 0.498403
3289 1 0.982723 0.177596 0.497183
491 1 0.994208 0.176679 0.496663
3393 1 0.735836 0.201896 0.499252
3324 1 0.741778 0.189282 0.499369
3396 1 0.752402 0.191427 0.498968
3397 1 0.765046 0.196724 0.499182
3400 1 0.776748 0.191681 0.498043
3473 1 0.785991 0.198221 0.497701
3401 1 0.796618 0.197604 0.497618
3330 1 0.803193 0.188143 0.498993
3332 1 0.809338 0.198429 0.497941
3333 1 0.821791 0.194937 0.497964
3407 1 0.832896 0.18978 0.497087
3405 1 0.8384 0.20038 0.497733
3341 1 0.850513 0.1947 0.497707
3347 1 0.861431 0.186611 0.498565
3410 1 0.869268 0.197106 0.498033
3345 1 0.880924 0.191058 0.496702
3342 1 0.88628 0.203659 0.496278
3415 1 0.893248 0.186127 0.498517
3413 1 0.897521 0.197649 0.496508
3559 1 0.915931 0.200386 0.498223
3416 1 0.907198 0.190866 0.49807
3355 1 0.926274 0.194037 0.499367
3487 1 0.939059 0.188213 0.497994
3282 1 0.945474 0.199459 0.497761
3356 1 0.957556 0.194543 0.497506
3358 1 0.977198 0.19726 0.49794
3290 1 0.968075 0.188356 0.496391
3359 1 0.998028 0.18797 0.496494
3357 1 0.985674 0.190656 0.496544
3642 1 0.526592 0.222294 0.501022
3467 1 0.748794 0.218463 0.499303
3395 1 0.759611 0.210595 0.499334
3535 1 0.771973 0.21875 0.497504
3470 1 0.769372 0.206802 0.497876
3398 1 0.759865 0.220656 0.49823
3468 1 0.782341 0.209553 0.497388
3471 1 0.790421 0.215109 0.498145
3402 1 0.798566 0.207813 0.498342
3404 1 0.806999 0.217119 0.498068
3406 1 0.816631 0.210152 0.498423
3340 1 0.827274 0.206661 0.497837
3338 1 0.835039 0.21654 0.498682
3336 1 0.845362 0.210636 0.497136
3409 1 0.857385 0.202627 0.497455
3549 1 0.851883 0.221185 0.497537
3476 1 0.864568 0.215388 0.497961
3411 1 0.874491 0.206481 0.497038
3481 1 0.878546 0.221249 0.496339
3420 1 0.904497 0.206313 0.497091
3344 1 0.89177 0.213166 0.495516
3485 1 0.910552 0.21747 0.495534
3418 1 0.922611 0.212399 0.497575
3703 1 0.937221 0.21833 0.496711
3489 1 0.932162 0.205868 0.498754
3427 1 0.949767 0.211579 0.497063
3426 1 0.961167 0.206169 0.496618
3430 1 0.977506 0.21697 0.496395
3421 1 0.972402 0.205947 0.496807
3428 1 0.965524 0.221671 0.496597
3495 1 0.990386 0.203892 0.496069
3429 1 0.990184 0.217393 0.498983
903 1 0.502968 0.229238 0.499545
905 1 0.514711 0.224443 0.499029
904 1 0.504152 0.241065 0.496591
909 1 0.517843 0.236105 0.49808
3644 1 0.530185 0.235475 0.498589
3729 1 0.608417 0.238098 0.499092
3466 1 0.717683 0.237263 0.500312
3665 1 0.744903 0.231194 0.499503
3534 1 0.758205 0.234127 0.497856
3679 1 0.770448 0.231775 0.498178
3539 1 0.782806 0.226348 0.497383
3537 1 0.788424 0.235959 0.498201
3472 1 0.796813 0.222368 0.498594
3538 1 0.801258 0.233997 0.498593
3474 1 0.812628 0.228307 0.499016
3403 1 0.823686 0.222649 0.498853
3475 1 0.830854 0.234409 0.498928
3540 1 0.819494 0.240241 0.49793
3478 1 0.840591 0.228223 0.498397
3543 1 0.844424 0.239142 0.497651
3480 1 0.857979 0.233425 0.497377
3555 1 0.86841 0.227916 0.497054
3482 1 0.875994 0.238764 0.495939
3408 1 0.885863 0.231283 0.495124
3479 1 0.898973 0.223996 0.49627
3488 1 0.904296 0.235057 0.496852
3483 1 0.91634 0.229194 0.498462
3412 1 0.921137 0.238465 0.498779
3422 1 0.926508 0.224188 0.497118
3633 1 0.933964 0.2336 0.49862
3424 1 0.94419 0.228951 0.496367
3492 1 0.954648 0.224962 0.496368
3493 1 0.958188 0.237175 0.496274
3497 1 0.969801 0.234251 0.496179
632 1 0.981542 0.229886 0.495667
3499 1 0.993151 0.22804 0.498448
3572 1 0.507667 0.252463 0.495169
906 1 0.520588 0.249392 0.496007
910 1 0.533105 0.246855 0.497028
3646 1 0.546311 0.243401 0.498209
3651 1 0.548641 0.253462 0.497393
3584 1 0.561536 0.248991 0.499465
3653 1 0.575778 0.257216 0.50001
3658 1 0.604982 0.257135 0.498863
3662 1 0.624752 0.244459 0.498467
3728 1 0.616105 0.252525 0.499122
3801 1 0.648561 0.255228 0.498644
3803 1 0.658783 0.258692 0.49778
3740 1 0.674446 0.249355 0.498942
3598 1 0.690289 0.241852 0.500334
3669 1 0.699216 0.259974 0.499324
3604 1 0.712262 0.248637 0.499426
3600 1 0.726186 0.253895 0.500163
3673 1 0.740513 0.256 0.496959
3601 1 0.754197 0.24656 0.495719
3597 1 0.741949 0.243528 0.498932
3751 1 0.752404 0.256925 0.497235
3675 1 0.770085 0.25676 0.496382
3607 1 0.765396 0.245848 0.497145
3605 1 0.782173 0.255438 0.498177
3606 1 0.780614 0.244281 0.49767
3541 1 0.795574 0.250309 0.498314
3542 1 0.805776 0.244417 0.498424
3615 1 0.812265 0.257949 0.498081
3546 1 0.82235 0.251977 0.498076
3477 1 0.832981 0.245932 0.497323
3552 1 0.839403 0.256901 0.497363
3484 1 0.851617 0.250281 0.497639
3623 1 0.862262 0.244016 0.496895
3625 1 0.868691 0.254661 0.496627
3695 1 0.880248 0.250425 0.496817
3556 1 0.889586 0.258735 0.49676
3554 1 0.893897 0.241431 0.496473
3629 1 0.90246 0.254244 0.498004
3563 1 0.909085 0.245513 0.497678
3557 1 0.920929 0.24888 0.498116
3486 1 0.932932 0.246786 0.497935
3565 1 0.945226 0.241264 0.496767
3562 1 0.947847 0.253186 0.496497
3494 1 0.959571 0.250665 0.496075
3500 1 0.972523 0.247314 0.496803
702 1 0.996794 0.241234 0.496775
701 1 0.985863 0.243452 0.496691
3496 1 0.98832 0.256757 0.497139
836 1 0.508723 0.264422 0.493683
1043 1 0.5129 0.276459 0.494897
840 1 0.536086 0.258398 0.496259
1045 1 0.527384 0.274403 0.49428
908 1 0.522957 0.2609 0.494865
3647 1 0.551425 0.266819 0.497556
3719 1 0.538868 0.272332 0.497173
3655 1 0.565034 0.272459 0.498279
3513 1 0.562776 0.261374 0.499372
3652 1 0.575691 0.275404 0.498874
3723 1 0.585537 0.268212 0.499666
3726 1 0.622059 0.2621 0.497772
3798 1 0.627631 0.274167 0.498104
3725 1 0.615924 0.271477 0.497859
3800 1 0.642576 0.265373 0.4979
3797 1 0.631612 0.261061 0.498181
3869 1 0.638982 0.278793 0.496793
3799 1 0.656111 0.269775 0.496281
3802 1 0.668299 0.273404 0.49697
3873 1 0.670035 0.261324 0.499634
3805 1 0.682551 0.264983 0.498938
3872 1 0.677957 0.276231 0.497088
3738 1 0.694072 0.270251 0.499629
3875 1 0.71034 0.27286 0.498571
3743 1 0.721043 0.277522 0.497941
3599 1 0.737395 0.268849 0.497272
3674 1 0.725017 0.266084 0.498495
3603 1 0.750202 0.271016 0.497079
3681 1 0.775223 0.275986 0.496437
3677 1 0.761686 0.264765 0.497517
3609 1 0.764084 0.27659 0.497079
3608 1 0.780378 0.26648 0.498138
3536 1 0.790642 0.269367 0.49754
3611 1 0.800591 0.262907 0.49724
3685 1 0.809732 0.269648 0.499244
3616 1 0.820454 0.270409 0.497472
3545 1 0.82993 0.263068 0.499354
3548 1 0.832545 0.276611 0.499416
3544 1 0.845787 0.26581 0.499012
3617 1 0.851097 0.274359 0.50048
3551 1 0.858994 0.261968 0.498399
3622 1 0.86453 0.272041 0.499828
3626 1 0.875909 0.265308 0.49738
3558 1 0.883741 0.275713 0.499346
3696 1 0.892228 0.269414 0.498384
3771 1 0.90391 0.268104 0.498723
3490 1 0.918109 0.259802 0.497841
3631 1 0.921619 0.270772 0.497428
3566 1 0.935433 0.259154 0.498114
3560 1 0.933866 0.271264 0.497854
3634 1 0.948772 0.266283 0.497226
3567 1 0.962791 0.262408 0.497425
3636 1 0.953159 0.277512 0.49764
3564 1 0.9744 0.260474 0.496686
3569 1 0.976818 0.272417 0.496018
3640 1 0.965302 0.273176 0.497075
3639 1 0.99122 0.270034 0.496884
1047 1 0.500292 0.280915 0.494873
975 1 0.515655 0.288461 0.495143
973 1 0.532574 0.286317 0.494648
3645 1 0.547033 0.283319 0.497623
978 1 0.544552 0.293145 0.496822
3718 1 0.572958 0.287115 0.498069
3721 1 0.556806 0.277612 0.49658
3648 1 0.562547 0.287532 0.496315
3720 1 0.5837 0.289611 0.498626
3722 1 0.589562 0.278967 0.498788
3793 1 0.598067 0.291072 0.500408
3794 1 0.609178 0.295543 0.498871
3795 1 0.612482 0.282449 0.498815
3796 1 0.625102 0.286945 0.496429
3867 1 0.636118 0.291254 0.495988
3868 1 0.647554 0.293589 0.496081
3870 1 0.663698 0.285176 0.496529
3871 1 0.651542 0.282064 0.495969
3874 1 0.676385 0.291208 0.496843
3806 1 0.6919 0.280994 0.497829
3876 1 0.688703 0.293425 0.495877
3742 1 0.704927 0.286864 0.497499
3815 1 0.718762 0.290331 0.497118
3672 1 0.734518 0.281036 0.497196
3737 1 0.731232 0.29364 0.497198
3741 1 0.742456 0.295079 0.498637
3745 1 0.746656 0.282155 0.496596
3749 1 0.757989 0.287525 0.495962
3748 1 0.770924 0.289361 0.496459
3680 1 0.793734 0.280009 0.496879
3619 1 0.782591 0.284576 0.497381
3686 1 0.796537 0.296407 0.497181
3682 1 0.784786 0.296853 0.497201
3755 1 0.804887 0.28031 0.498969
3610 1 0.807449 0.293188 0.49792
3612 1 0.814786 0.285747 0.499525
3620 1 0.823605 0.281522 0.498837
3758 1 0.82814 0.292148 0.498316
3550 1 0.840475 0.286062 0.499456
3764 1 0.848797 0.295095 0.499826
3547 1 0.866923 0.294763 0.499726
3414 1 0.893588 0.280708 0.49873
3632 1 0.906374 0.27997 0.49786
3627 1 0.920007 0.292832 0.498458
3774 1 0.907404 0.292997 0.499428
3692 1 0.918225 0.282124 0.497265
3700 1 0.931597 0.295753 0.499631
3635 1 0.943194 0.28044 0.499119
3630 1 0.930881 0.284093 0.497882
3628 1 0.944598 0.293767 0.498726
3773 1 0.955751 0.290635 0.498113
912 1 0.979952 0.285001 0.495676
3637 1 0.96794 0.287144 0.49666
3498 1 0.992431 0.281472 0.495502
3710 1 0.995054 0.294084 0.495292
907 1 0.514877 0.302045 0.496268
1183 1 0.503595 0.311105 0.496824
980 1 0.530305 0.298717 0.496812
1119 1 0.523838 0.311934 0.497075
3717 1 0.540863 0.30392 0.49675
3712 1 0.553169 0.308332 0.497535
3715 1 0.555462 0.296525 0.49692
3716 1 0.567134 0.311133 0.498762
3789 1 0.570653 0.299507 0.497952
3787 1 0.578495 0.314133 0.497761
3791 1 0.582829 0.302973 0.498841
3792 1 0.595726 0.30406 0.498378
3863 1 0.606762 0.307859 0.49887
3865 1 0.62151 0.299135 0.497682
3864 1 0.618536 0.310422 0.49886
3866 1 0.63249 0.302329 0.496071
3937 1 0.645158 0.306591 0.495927
3939 1 0.656866 0.309002 0.494036
3941 1 0.659246 0.297369 0.495181
3940 1 0.673112 0.302101 0.495918
3942 1 0.685237 0.307789 0.495008
3804 1 0.697727 0.30972 0.495253
3807 1 0.7012 0.297397 0.496375
3744 1 0.713982 0.302723 0.496908
3808 1 0.709926 0.314825 0.495943
3813 1 0.726503 0.304721 0.496902
3671 1 0.738683 0.309357 0.497125
3676 1 0.75436 0.298479 0.496715
3886 1 0.751024 0.311298 0.497983
3818 1 0.767337 0.301091 0.497982
3819 1 0.762606 0.313723 0.498453
3823 1 0.782063 0.306594 0.498402
3614 1 0.795368 0.30685 0.499311
3753 1 0.810694 0.309144 0.498164
3684 1 0.819666 0.300611 0.497864
3613 1 0.829609 0.310061 0.49915
3756 1 0.839523 0.30265 0.501212
3779 1 0.920811 0.310202 0.497576
3702 1 0.932055 0.307576 0.498656
3704 1 0.957909 0.302987 0.497873
3706 1 0.946618 0.306399 0.498143
3709 1 0.969592 0.299565 0.496294
915 1 0.972754 0.313005 0.496727
3568 1 0.981688 0.297232 0.495486
3708 1 0.984922 0.310341 0.49567
3570 1 0.996597 0.308578 0.49511
4062 1 0.509768 0.328236 0.497018
3781 1 0.515095 0.319351 0.495806
1046 1 0.536638 0.316232 0.497926
3784 1 0.522512 0.328196 0.496461
979 1 0.534039 0.32782 0.496609
3783 1 0.547922 0.319633 0.496939
3711 1 0.546468 0.33353 0.497887
3785 1 0.57375 0.325826 0.498304
3714 1 0.561714 0.324049 0.498193
3786 1 0.587573 0.329309 0.49792
3790 1 0.589556 0.316887 0.49813
3861 1 0.602734 0.32134 0.499007
3788 1 0.599708 0.332695 0.49822
3935 1 0.630628 0.315178 0.49689
3933 1 0.626494 0.327181 0.497547
3862 1 0.613406 0.322649 0.498366
3936 1 0.640938 0.318761 0.49555
3934 1 0.637958 0.331333 0.495177
3938 1 0.653582 0.31951 0.49465
4010 1 0.666059 0.326764 0.494414
4009 1 0.66786 0.312778 0.493347
4012 1 0.681468 0.318415 0.494595
4011 1 0.681643 0.330475 0.493913
3943 1 0.694286 0.32209 0.496194
3809 1 0.705989 0.325107 0.497192
3949 1 0.717273 0.330677 0.495994
3670 1 0.724667 0.319752 0.495938
3884 1 0.735285 0.322773 0.4963
3881 1 0.745891 0.326011 0.497346
3747 1 0.756594 0.32499 0.498571
3814 1 0.769167 0.332204 0.498361
3817 1 0.773141 0.320799 0.497962
3754 1 0.786969 0.316716 0.498682
3746 1 0.80117 0.320281 0.49906
3678 1 0.814852 0.326612 0.499714
3750 1 0.819276 0.316016 0.499431
3683 1 0.829011 0.326513 0.498714
3897 1 0.838211 0.317994 0.500221
3760 1 0.85479 0.320384 0.499864
3836 1 0.895019 0.321219 0.500186
3624 1 0.903434 0.315523 0.499936
3843 1 0.936872 0.333796 0.498612
3698 1 0.948535 0.331812 0.498709
3707 1 0.946114 0.318405 0.497946
913 1 0.959683 0.315788 0.497008
3705 1 0.962832 0.327554 0.498109
982 1 0.975722 0.325441 0.497042
3919 1 0.998392 0.320941 0.495168
3917 1 0.986701 0.32449 0.495836
1187 1 0.508125 0.34055 0.497138
1326 1 0.515087 0.349266 0.498174
1050 1 0.520284 0.338983 0.495994
1049 1 0.527931 0.345752 0.497576
3851 1 0.53671 0.33996 0.496865
4061 1 0.54458 0.34823 0.498335
3921 1 0.55428 0.346954 0.497603
3853 1 0.557716 0.335707 0.498689
3855 1 0.571325 0.338579 0.498359
3857 1 0.58257 0.342413 0.498617
3859 1 0.59478 0.346156 0.499149
3929 1 0.60611 0.348406 0.497701
3860 1 0.613614 0.334072 0.497934
3931 1 0.62199 0.340373 0.497117
3932 1 0.635646 0.34347 0.498059
4005 1 0.647746 0.347197 0.495446
4007 1 0.649771 0.33426 0.494718
4006 1 0.664065 0.338279 0.494177
4004 1 0.660134 0.349882 0.495573
4008 1 0.676411 0.341469 0.494309
4013 1 0.692935 0.334651 0.494502
4079 1 0.687744 0.346597 0.494342
3947 1 0.703654 0.338459 0.495954
4080 1 0.700147 0.351918 0.494768
4081 1 0.715483 0.341994 0.496085
3880 1 0.731984 0.33416 0.495328
3879 1 0.72773 0.346865 0.496586
3951 1 0.740836 0.34896 0.495913
3811 1 0.757029 0.337091 0.497555
3810 1 0.744123 0.338679 0.497788
3812 1 0.759899 0.347663 0.497713
3820 1 0.770172 0.352224 0.497612
3885 1 0.7736 0.342105 0.498563
3816 1 0.78508 0.341397 0.497941
3893 1 0.805187 0.350991 0.498778
3895 1 0.807834 0.337799 0.499489
3894 1 0.819475 0.346158 0.499216
3824 1 0.822414 0.336443 0.498927
3833 1 0.84602 0.339406 0.499164
3825 1 0.833548 0.340382 0.498331
3763 1 0.876427 0.348456 0.499839
3844 1 0.940033 0.346943 0.499785
3849 1 0.952381 0.344621 0.498032
3776 1 0.976955 0.338563 0.498919
3777 1 0.964621 0.340476 0.499599
3846 1 0.979016 0.349321 0.499935
3775 1 0.990827 0.336335 0.496556
1051 1 0.99276 0.348124 0.499146
1120 1 0.508957 0.35854 0.497856
4132 1 0.523536 0.367238 0.498964
1189 1 0.527958 0.356835 0.49734
3782 1 0.538383 0.359015 0.497653
3922 1 0.550247 0.360031 0.498306
3854 1 0.565969 0.350752 0.499199
3852 1 0.56299 0.363911 0.500053
3858 1 0.590823 0.357847 0.498812
3856 1 0.579146 0.356102 0.499678
3927 1 0.603548 0.359487 0.4997
3930 1 0.617471 0.351434 0.497323
3928 1 0.614987 0.364716 0.498368
4001 1 0.626802 0.367401 0.498516
4002 1 0.629605 0.355085 0.497122
4003 1 0.642808 0.358464 0.498524
4075 1 0.654333 0.36188 0.496092
4145 1 0.666238 0.364888 0.496917
4076 1 0.680462 0.360188 0.494109
4077 1 0.670324 0.354522 0.494319
4085 1 0.693684 0.361883 0.495486
3878 1 0.707514 0.368184 0.496275
3877 1 0.712222 0.354146 0.495804
3945 1 0.724366 0.359008 0.49697
4019 1 0.734452 0.363007 0.495792
3891 1 0.751416 0.355387 0.49816
3889 1 0.74635 0.366036 0.498001
3950 1 0.760606 0.370279 0.497182
3882 1 0.777059 0.360139 0.497388
3954 1 0.762888 0.360168 0.498449
3959 1 0.787807 0.366764 0.496837
3822 1 0.797359 0.357632 0.498648
3888 1 0.799877 0.369359 0.49707
3898 1 0.832247 0.351324 0.498579
3896 1 0.815093 0.358773 0.497678
3892 1 0.827331 0.365052 0.498691
3899 1 0.837757 0.369118 0.497818
3829 1 0.843623 0.355633 0.499045
3971 1 0.853585 0.363341 0.499087
3915 1 0.996561 0.359844 0.498959
1259 1 0.509778 0.37072 0.499378
3991 1 0.538642 0.372229 0.498984
3993 1 0.555534 0.372237 0.500065
1327 1 0.545959 0.384895 0.498342
1329 1 0.558619 0.383339 0.499644
3926 1 0.586786 0.371369 0.499636
3995 1 0.595563 0.387987 0.501008
3999 1 0.609933 0.375969 0.49982
4074 1 0.622793 0.380366 0.498311
4000 1 0.638708 0.371087 0.497785
4072 1 0.635026 0.383725 0.497899
4144 1 0.664274 0.378505 0.496653
4073 1 0.650359 0.374565 0.496418
4078 1 0.677131 0.371075 0.49664
4148 1 0.673966 0.384793 0.496298
4082 1 0.691085 0.375562 0.495734
4086 1 0.685768 0.388954 0.494107
4083 1 0.703074 0.379588 0.494945
3944 1 0.719897 0.369959 0.496272
3946 1 0.714601 0.383245 0.496095
3948 1 0.730676 0.375079 0.497508
4158 1 0.726044 0.387494 0.496346
4018 1 0.757039 0.382331 0.496309
4021 1 0.744277 0.378877 0.497626
3887 1 0.772441 0.375793 0.497469
3955 1 0.767631 0.387383 0.495974
4027 1 0.784396 0.377148 0.497756
3960 1 0.794884 0.382072 0.497598
3890 1 0.810065 0.371796 0.498647
3961 1 0.80721 0.384597 0.499074
3963 1 0.821656 0.376876 0.498854
3901 1 0.847355 0.373967 0.499152
3968 1 0.845131 0.386078 0.497581
3969 1 0.833216 0.380485 0.498836
3900 1 0.858882 0.376574 0.498217
4065 1 0.561643 0.398696 0.500146
4135 1 0.590967 0.398689 0.498792
4067 1 0.602099 0.401445 0.499374
3998 1 0.606936 0.387797 0.498835
4070 1 0.613983 0.404273 0.498823
3996 1 0.619167 0.392797 0.49966
4143 1 0.644984 0.389143 0.498398
4071 1 0.631256 0.395792 0.498074
4141 1 0.641742 0.402082 0.497781
4139 1 0.656902 0.390896 0.498316
4140 1 0.653644 0.405001 0.497851
4146 1 0.667298 0.407157 0.496978
4149 1 0.68293 0.39963 0.495874
4147 1 0.669593 0.39642 0.497158
4219 1 0.696395 0.40316 0.494313
4014 1 0.698529 0.391908 0.495323
4151 1 0.709432 0.394112 0.496754
4015 1 0.722222 0.3987 0.496079
4088 1 0.73975 0.390868 0.496407
4087 1 0.735065 0.400681 0.495555
3957 1 0.753041 0.395197 0.495258
4094 1 0.777711 0.402685 0.497302
3883 1 0.765407 0.398888 0.496095
4030 1 0.791852 0.394227 0.497571
3952 1 0.779842 0.389518 0.496861
3958 1 0.803823 0.397997 0.499741
4034 1 0.82835 0.405539 0.498655
3962 1 0.818027 0.390776 0.499428
3967 1 0.831541 0.391713 0.497859
4035 1 0.842928 0.396141 0.497519
3964 1 0.855463 0.390509 0.498521
1398 1 0.57285 0.414528 0.497874
4134 1 0.587433 0.414366 0.498962
4069 1 0.598714 0.415937 0.499539
4202 1 0.609283 0.418938 0.497238
4068 1 0.625494 0.410632 0.498409
4205 1 0.621961 0.42078 0.497373
4207 1 0.638226 0.415336 0.497379
4138 1 0.651307 0.417642 0.496734
4215 1 0.664542 0.420564 0.498091
4142 1 0.677888 0.412839 0.496268
4217 1 0.675992 0.423242 0.499267
4084 1 0.689929 0.414372 0.497248
4214 1 0.703506 0.41932 0.495929
4016 1 0.707897 0.407933 0.496547
4155 1 0.720351 0.411105 0.495052
4224 1 0.715198 0.423157 0.494965
4020 1 0.733028 0.416444 0.49523
4089 1 0.747476 0.408118 0.496584
4095 1 0.743238 0.421147 0.496554
4023 1 0.754882 0.425082 0.49694
4091 1 0.759782 0.410622 0.496429
4017 1 0.771513 0.413598 0.49771
4026 1 0.788008 0.408514 0.500057
3953 1 0.782789 0.420108 0.498759
4103 1 0.82511 0.418957 0.499674
4105 1 0.836869 0.42038 0.499903
4175 1 0.841485 0.407886 0.49875
1260 1 0.577941 0.427522 0.49796
1330 1 0.590168 0.43671 0.495406
3992 1 0.594558 0.426763 0.497176
4063 1 0.606958 0.431227 0.496604
4273 1 0.619882 0.434267 0.495703
4206 1 0.630962 0.437979 0.49656
4137 1 0.636805 0.426165 0.49701
4208 1 0.643016 0.442425 0.497558
4211 1 0.650091 0.430716 0.497135
4209 1 0.660285 0.431896 0.498463
4281 1 0.656386 0.443891 0.496957
4212 1 0.684555 0.440852 0.496965
4210 1 0.672466 0.435949 0.49854
4213 1 0.687078 0.428776 0.498005
4280 1 0.700355 0.431784 0.496269
4153 1 0.712097 0.435436 0.496469
4152 1 0.729309 0.427929 0.495804
4282 1 0.724677 0.438763 0.493378
4159 1 0.740407 0.433403 0.494479
4090 1 0.753853 0.436913 0.495059
4093 1 0.765992 0.439899 0.497638
4022 1 0.767374 0.427346 0.498935
4024 1 0.776778 0.442754 0.500088
4025 1 0.780633 0.43147 0.500041
4099 1 0.802921 0.437442 0.500504
4031 1 0.809162 0.427027 0.500986
4178 1 0.830846 0.434295 0.499422
4171 1 0.814766 0.441428 0.49968
4203 1 0.604041 0.444348 0.494732
4131 1 0.610806 0.459107 0.493897
1400 1 0.617729 0.447469 0.494339
4133 1 0.627617 0.452735 0.495594
1390 1 0.639342 0.453372 0.496053
4275 1 0.651298 0.45531 0.495171
4345 1 0.664996 0.461159 0.496309
4277 1 0.680955 0.452284 0.497464
4279 1 0.666863 0.448248 0.497196
4150 1 0.695719 0.445499 0.49764
4220 1 0.692809 0.457594 0.496768
4221 1 0.704549 0.463304 0.49446
4225 1 0.719813 0.451148 0.492802
4216 1 0.706723 0.448984 0.494116
4154 1 0.736596 0.444336 0.494581
4157 1 0.732554 0.457462 0.494349
4229 1 0.745428 0.459794 0.495485
4162 1 0.749016 0.448324 0.495102
4096 1 0.761166 0.450635 0.495762
4170 1 0.77217 0.45485 0.498034
4243 1 0.788303 0.447857 0.499277
4169 1 0.783965 0.459604 0.497769
4098 1 0.800882 0.450475 0.499764
4247 1 0.840215 0.450957 0.500793
1540 1 0.629478 0.477784 0.492191
4136 1 0.625233 0.464214 0.494552
4271 1 0.638542 0.465872 0.494112
4419 1 0.661322 0.472943 0.494001
1470 1 0.649824 0.467761 0.494418
4351 1 0.676381 0.465233 0.495642
4278 1 0.671356 0.479286 0.494254
4343 1 0.686929 0.469439 0.496063
4218 1 0.699169 0.472617 0.493408
4226 1 0.71767 0.46452 0.493346
4289 1 0.712694 0.47681 0.494748
4156 1 0.730697 0.469785 0.494399
4160 1 0.724712 0.481377 0.494097
4163 1 0.75829 0.463701 0.496068
4164 1 0.753125 0.478381 0.495922
4092 1 0.743356 0.472514 0.495325
4167 1 0.768686 0.46724 0.496848
4234 1 0.766072 0.481733 0.496627
4313 1 0.795734 0.464596 0.499365
4174 1 0.792793 0.476073 0.497018
4237 1 0.778751 0.471943 0.496261
4242 1 0.805253 0.480024 0.498732
4100 1 0.809115 0.467414 0.498951
4244 1 0.821367 0.472294 0.500346
4245 1 0.834146 0.474124 0.499905
4272 1 0.642199 0.482916 0.492755
4276 1 0.65652 0.485773 0.493255
4204 1 0.652184 0.49878 0.493446
4293 1 0.683647 0.482397 0.496314
4344 1 0.667831 0.490822 0.493735
4417 1 0.680099 0.495608 0.494538
4353 1 0.703676 0.5008 0.495804
4287 1 0.695124 0.48494 0.49412
4283 1 0.691741 0.498496 0.496678
4288 1 0.721776 0.493504 0.495524
4223 1 0.709277 0.489743 0.494013
4227 1 0.733157 0.497733 0.495244
4165 1 0.737558 0.485746 0.49591
4235 1 0.749476 0.489589 0.4972
4236 1 0.77242 0.496969 0.497362
4232 1 0.76148 0.494557 0.496571
4097 1 0.776597 0.483884 0.496989
4166 1 0.787773 0.487164 0.495789
4240 1 0.814389 0.49393 0.497447
4314 1 0.800187 0.493347 0.497049
4383 1 0.818102 0.483697 0.499259
4315 1 0.830558 0.48567 0.49932
2942 1 0.517027 0.00684241 0.500869
3021 1 0.53161 0.016034 0.501853
2874 1 0.528069 0.00199901 0.501169
2952 1 0.547427 0.0078567 0.501535
2953 1 0.56656 0.0125578 0.502547
2880 1 0.561482 -0.000123442 0.50162
2878 1 0.57711 0.00575229 0.50311
3024 1 0.582305 0.0170903 0.501862
2810 1 0.59376 0.012117 0.502978
2947 1 0.605666 0.00677147 0.504217
5477 1 0.623098 0.0168216 0.504911
5542 1 0.617829 0.00309872 0.504691
2817 1 0.633503 0.00984856 0.504842
2812 1 0.643092 0.00282697 0.506804
2883 1 0.660228 0.00835327 0.506613
5550 1 0.649619 0.0148229 0.505812
2826 1 0.671712 0.00160015 0.507898
2965 1 0.680299 0.0119695 0.507129
2828 1 0.690738 0.00603471 0.507478
2829 1 0.700344 0.00204749 0.505547
2902 1 0.718363 0.00559714 0.50511
5557 1 0.708096 0.0142174 0.506332
2833 1 0.734612 0.0104659 0.504391
5562 1 0.746542 0.00328051 0.504125
5563 1 0.764959 0.00858768 0.503533
5566 1 0.775332 0.00186878 0.501768
2909 1 0.782112 0.0134266 0.501565
2837 1 0.794067 0.00876024 0.500993
2842 1 0.810682 0.0105203 0.499689
2840 1 0.801639 0.0187104 0.501418
2918 1 0.821813 0.00578188 0.500524
2844 1 0.827721 0.0168967 0.501047
2841 1 0.839006 0.0101643 0.500424
5587 1 0.866621 0.00861449 0.502431
5510 1 0.855841 0.0161239 0.501355
5586 1 0.885887 0.0109927 0.503953
5579 1 0.879239 0.00240189 0.50396
2860 1 0.905109 0.00107291 0.502886
5516 1 0.896594 0.00801351 0.50259
2933 1 0.921461 0.00211866 0.501169
2 1 0.912658 0.0112756 0.502036
5592 1 0.936786 0.00197446 0.499633
5524 1 0.930486 0.0138267 0.500721
2866 1 0.947757 0.00802063 0.501174
2939 1 0.964533 0.0103518 0.501569
142 1 0.973773 0.000345699 0.499811
2932 1 0.980992 0.00841017 0.501001
2937 1 0.991281 0.0140526 0.50121
3088 1 0.535089 0.0291689 0.50248
2943 1 0.519277 0.0184999 0.500203
3019 1 0.523417 0.0309512 0.500502
2950 1 0.54728 0.0243151 0.501604
3157 1 0.550496 0.035937 0.502086
3089 1 0.558966 0.0206031 0.502657
3090 1 0.562308 0.0332883 0.503388
2954 1 0.571755 0.0241274 0.501684
2951 1 0.588865 0.0316865 0.501952
3020 1 0.575963 0.0358584 0.502299
2808 1 0.610892 0.0197013 0.503598
3022 1 0.604375 0.0359379 0.501374
2955 1 0.598075 0.0246014 0.503049
2814 1 0.617703 0.0309967 0.503182
2884 1 0.628147 0.0267431 0.502876
2894 1 0.639967 0.0219916 0.504962
2815 1 0.646533 0.0329181 0.50403
3032 1 0.65711 0.0272218 0.505155
5554 1 0.666304 0.0200934 0.507065
2818 1 0.672673 0.0311835 0.507054
2827 1 0.685038 0.0241842 0.507463
5561 1 0.69509 0.0191356 0.506872
2972 1 0.68833 0.0363838 0.507423
2966 1 0.700204 0.0303851 0.506709
2901 1 0.713199 0.0259763 0.505946
2904 1 0.720038 0.0336948 0.505228
3033 1 0.726168 0.0180325 0.504273
2975 1 0.73263 0.0294056 0.504303
2831 1 0.75695 0.0168689 0.503305
2834 1 0.742748 0.0222229 0.50507
2908 1 0.751149 0.0327498 0.50477
2836 1 0.763412 0.0259174 0.503225
2905 1 0.772652 0.0180284 0.503327
2835 1 0.765063 0.0358474 0.504281
2839 1 0.787261 0.0242288 0.501517
2910 1 0.77724 0.0295921 0.503048
5564 1 0.792963 0.0357635 0.500901
2912 1 0.803584 0.0295208 0.501654
2917 1 0.816136 0.0226574 0.501489
2987 1 0.821193 0.0356998 0.501061
5580 1 0.844116 0.0220076 0.500927
2850 1 0.850565 0.0336492 0.502325
2919 1 0.833105 0.028351 0.50175
3063 1 0.86079 0.0268526 0.502623
2922 1 0.880863 0.0260809 0.504737
5581 1 0.873005 0.0175862 0.502911
2923 1 0.871019 0.0355098 0.503365
2854 1 0.900799 0.0178128 0.502825
2852 1 0.891122 0.0255907 0.50298
2855 1 0.897121 0.0364286 0.504815
2864 1 0.921342 0.0226771 0.502024
2856 1 0.908635 0.0289334 0.502425
141 1 0.939796 0.0201665 0.501106
5598 1 0.926244 0.033271 0.503276
2865 1 0.937084 0.0302666 0.501651
2863 1 0.95653 0.0176047 0.501697
2867 1 0.949841 0.0264187 0.502247
282 1 0.954907 0.0368906 0.501753
2940 1 0.974024 0.019199 0.501399
78 1 0.966898 0.0300487 0.501646
3009 1 0.982855 0.0354774 0.502074
2936 1 0.983784 0.0238122 0.50259
72 1 0.993401 0.0312544 0.499425
3161 1 0.527567 0.0430002 0.50015
3023 1 0.538944 0.040452 0.501362
3226 1 0.542789 0.052429 0.50318
3160 1 0.556061 0.0453163 0.501438
3093 1 0.567983 0.0438641 0.501394
3026 1 0.58383 0.0511397 0.502754
2949 1 0.592468 0.0425569 0.501887
3091 1 0.599677 0.0535695 0.501074
2957 1 0.609888 0.0488748 0.502046
2888 1 0.620692 0.0437902 0.501697
2887 1 0.62861 0.0559444 0.501741
2816 1 0.63333 0.0376205 0.501918
2819 1 0.638627 0.0496336 0.502279
2892 1 0.661675 0.0379691 0.504851
2896 1 0.652223 0.0448569 0.502791
3031 1 0.658034 0.0537779 0.502863
5558 1 0.677801 0.0432584 0.506402
2897 1 0.668337 0.0505641 0.505221
2962 1 0.686342 0.05337 0.505154
2890 1 0.697365 0.0459114 0.506784
2898 1 0.706079 0.0401615 0.505215
3041 1 0.715689 0.0513955 0.506496
2977 1 0.740059 0.0397264 0.506074
2900 1 0.726464 0.0455092 0.504617
2969 1 0.755364 0.0450131 0.503699
2967 1 0.744109 0.0506374 0.503943
2832 1 0.773776 0.0420076 0.50385
2978 1 0.772983 0.0523636 0.501495
2976 1 0.762712 0.0547589 0.503451
2979 1 0.788248 0.0534906 0.502279
2906 1 0.783979 0.0432474 0.50162
2983 1 0.79886 0.047203 0.501198
2985 1 0.811355 0.040692 0.501359
2984 1 0.816992 0.0512201 0.501934
3057 1 0.829206 0.0463321 0.501235
2988 1 0.845373 0.0517848 0.502618
2914 1 0.839377 0.0387113 0.502977
2991 1 0.866882 0.0441669 0.502102
2989 1 0.855399 0.0435196 0.503162
2924 1 0.873473 0.0527454 0.505667
2995 1 0.885951 0.0433641 0.504369
2925 1 0.903917 0.0488087 0.504196
3064 1 0.891782 0.0543404 0.506051
2927 1 0.914593 0.0424767 0.503435
2868 1 0.932603 0.0485762 0.504936
2934 1 0.942692 0.0412987 0.503357
3004 1 0.951313 0.0528916 0.504937
3007 1 0.963081 0.0459649 0.504403
288 1 0.972317 0.0410797 0.502661
74 1 0.976954 0.0522826 0.503846
285 1 0.988449 0.0472818 0.501535
3006 1 0.999617 0.04265 0.5008
3159 1 0.532319 0.0560786 0.500673
3231 1 0.536131 0.0687628 0.501953
3233 1 0.55012 0.0646782 0.502425
3092 1 0.571961 0.0549458 0.502271
3163 1 0.559925 0.0597591 0.502876
3097 1 0.56606 0.072214 0.502585
3028 1 0.58979 0.0611035 0.501405
3095 1 0.575412 0.0673883 0.503041
3099 1 0.595111 0.0715109 0.501165
3027 1 0.605442 0.0667233 0.501754
2959 1 0.617681 0.060408 0.500736
3100 1 0.622848 0.0740026 0.501545
5474 1 0.6451 0.0616395 0.502172
3169 1 0.634211 0.0677758 0.501456
2885 1 0.650589 0.0714583 0.503965
2830 1 0.661901 0.0649783 0.504813
2886 1 0.67454 0.0612535 0.50462
3035 1 0.678711 0.0721072 0.505542
3034 1 0.690229 0.0653608 0.506545
3037 1 0.701535 0.0579287 0.507163
3029 1 0.72071 0.0628533 0.505748
2970 1 0.707745 0.0677696 0.505704
3038 1 0.731861 0.0581496 0.504395
2968 1 0.738562 0.0683218 0.505571
2973 1 0.751022 0.0626925 0.505634
2974 1 0.756493 0.0729736 0.503984
3043 1 0.767045 0.0677302 0.501254
2980 1 0.778206 0.0619381 0.501537
3051 1 0.795447 0.0653533 0.500673
2981 1 0.805294 0.0582727 0.501623
2982 1 0.81249 0.0677253 0.500039
3055 1 0.823527 0.0620391 0.500542
2990 1 0.839537 0.0701097 0.501217
2993 1 0.850692 0.0623257 0.503338
2986 1 0.835459 0.0576187 0.502037
2994 1 0.862136 0.0592498 0.503474
3059 1 0.858035 0.0738878 0.502459
2992 1 0.868647 0.0686342 0.505173
3061 1 0.88053 0.0622932 0.504967
2996 1 0.887008 0.0727415 0.504344
2997 1 0.896844 0.0644678 0.50458
2928 1 0.920727 0.0535183 0.504539
2926 1 0.909018 0.0604662 0.504279
3001 1 0.913765 0.0709785 0.504409
3003 1 0.929943 0.0614304 0.50539
2930 1 0.941144 0.0571542 0.505974
2935 1 0.94268 0.0693669 0.506012
214 1 0.953977 0.0657191 0.506185
2931 1 0.964721 0.0570214 0.506094
213 1 0.972986 0.0692477 0.506474
3010 1 0.981727 0.0739379 0.504683
6 1 0.981718 0.0615168 0.503901
145 1 0.993045 0.0595772 0.501286
281 1 0.992656 0.0732674 0.502233
3367 1 0.517849 0.0905734 0.499086
3228 1 0.551582 0.0770221 0.502704
3229 1 0.541322 0.0818601 0.500886
3235 1 0.572382 0.0856486 0.502921
3232 1 0.559798 0.0866585 0.501966
3162 1 0.589862 0.089191 0.50244
3237 1 0.582664 0.0783226 0.500977
3094 1 0.600651 0.0828547 0.502005
2958 1 0.611449 0.0767039 0.50074
3164 1 0.617664 0.0891994 0.500813
3025 1 0.629158 0.0832278 0.502312
2961 1 0.639841 0.0787733 0.502998
3244 1 0.6455 0.0890827 0.504398
3101 1 0.656044 0.0801981 0.505569
3103 1 0.664681 0.0923162 0.505437
3030 1 0.667245 0.0788891 0.506347
2963 1 0.675282 0.087377 0.508286
2889 1 0.696395 0.0764392 0.507204
3171 1 0.686072 0.0813761 0.507029
3109 1 0.692989 0.0907066 0.507877
2960 1 0.705296 0.0864265 0.507017
3173 1 0.715775 0.0807256 0.506625
3039 1 0.722771 0.090238 0.506907
2964 1 0.727318 0.0741059 0.505061
3040 1 0.734031 0.0855887 0.504554
2971 1 0.745393 0.0781188 0.504751
3044 1 0.751825 0.0897701 0.504009
3045 1 0.763558 0.0841756 0.502394
3047 1 0.77356 0.0778391 0.502204
3048 1 0.779925 0.0889734 0.500985
3050 1 0.790099 0.0817729 0.501402
3052 1 0.80108 0.0752095 0.500098
3123 1 0.808261 0.0850859 0.500683
3054 1 0.825168 0.0901163 0.499336
3129 1 0.848534 0.0804476 0.499635
3128 1 0.853131 0.0905374 0.500012
3060 1 0.863462 0.0848883 0.502206
3133 1 0.880496 0.090411 0.50216
3062 1 0.875603 0.080504 0.50444
3067 1 0.902169 0.0765775 0.504635
3065 1 0.892799 0.0832354 0.503955
2999 1 0.920902 0.0816835 0.504467
3000 1 0.90959 0.0877216 0.504181
3075 1 0.936084 0.0845204 0.506111
2998 1 0.930395 0.0736897 0.505452
3002 1 0.925958 0.0926668 0.504957
3072 1 0.960465 0.0767556 0.505421
3071 1 0.94683 0.0827457 0.506318
3141 1 0.956436 0.0891088 0.505815
3145 1 0.970084 0.0860226 0.506637
211 1 0.98141 0.0870449 0.504006
3073 1 0.996647 0.0841238 0.502715
3363 1 0.510419 0.105823 0.500121
3299 1 0.534516 0.0972521 0.499472
3166 1 0.548768 0.0940249 0.500981
3300 1 0.551335 0.107932 0.50096
3234 1 0.563071 0.0988037 0.501787
3098 1 0.578775 0.0963405 0.502034
3239 1 0.58664 0.107352 0.501546
3096 1 0.596113 0.0980778 0.501742
3167 1 0.606918 0.0937589 0.500959
3378 1 0.603123 0.111391 0.502623
3241 1 0.613071 0.105183 0.501939
3170 1 0.623606 0.102093 0.501951
3165 1 0.633295 0.0943886 0.503662
3102 1 0.63914 0.103081 0.503344
3317 1 0.659507 0.108277 0.503587
3168 1 0.651325 0.0980432 0.505033
3174 1 0.68069 0.0965528 0.506078
3036 1 0.668694 0.102696 0.505271
3105 1 0.688061 0.106494 0.506945
3108 1 0.699235 0.0997759 0.50726
3110 1 0.718766 0.106636 0.504918
3107 1 0.711553 0.0958274 0.506213
3111 1 0.705497 0.111403 0.504467
3112 1 0.729443 0.101436 0.505299
3042 1 0.741106 0.095239 0.50531
3115 1 0.757765 0.101069 0.502715
3113 1 0.747688 0.106233 0.504402
3046 1 0.768575 0.0950439 0.501287
3117 1 0.774431 0.10636 0.501336
3122 1 0.792951 0.111239 0.501793
3119 1 0.78573 0.100403 0.501796
3193 1 0.803514 0.104192 0.499611
3121 1 0.799141 0.0936859 0.501307
3124 1 0.814179 0.0963494 0.500412
3126 1 0.820758 0.10901 0.500367
3197 1 0.859705 0.10246 0.500265
3130 1 0.869577 0.0971657 0.500619
3134 1 0.876702 0.108377 0.501154
3135 1 0.886177 0.100339 0.502798
3066 1 0.898061 0.0944768 0.504245
3068 1 0.903111 0.105301 0.503041
3069 1 0.916315 0.0997797 0.504298
3070 1 0.922798 0.111324 0.502981
3077 1 0.934379 0.103159 0.504937
3008 1 0.943782 0.0974557 0.506403
3143 1 0.956281 0.100368 0.506002
3078 1 0.969487 0.0996159 0.503532
286 1 0.995754 0.109714 0.503748
3079 1 0.99468 0.0969987 0.503869
3080 1 0.98284 0.0994828 0.505285
3434 1 0.503642 0.123056 0.500962
3294 1 0.516449 0.117019 0.500153
557 1 0.49945 0.11142 0.500939
489 1 0.531725 0.124964 0.501072
3369 1 0.527814 0.113476 0.500116
3304 1 0.543813 0.122149 0.501723
3371 1 0.559162 0.125919 0.502282
3230 1 0.561487 0.113849 0.501499
3377 1 0.570373 0.130016 0.501001
3238 1 0.572328 0.11105 0.500931
3308 1 0.579503 0.121224 0.502698
3306 1 0.592745 0.11826 0.502975
3307 1 0.608473 0.122936 0.502784
3240 1 0.618769 0.117299 0.502382
3172 1 0.624968 0.128156 0.502465
3245 1 0.629875 0.112256 0.502292
3104 1 0.637901 0.121721 0.500921
3243 1 0.648452 0.113375 0.502926
3313 1 0.655433 0.126015 0.50111
3246 1 0.6667 0.120149 0.502025
3318 1 0.683151 0.125287 0.503361
3247 1 0.676747 0.113166 0.503847
3175 1 0.695114 0.118909 0.505446
3177 1 0.713824 0.125251 0.506126
3181 1 0.722067 0.118293 0.50395
3184 1 0.741068 0.123453 0.502781
3183 1 0.734361 0.114808 0.50471
3114 1 0.752211 0.117183 0.504397
3116 1 0.765012 0.112793 0.50373
3187 1 0.76968 0.124493 0.502353
3189 1 0.78748 0.128596 0.500598
3118 1 0.781285 0.118029 0.502431
3191 1 0.810728 0.113839 0.500695
3120 1 0.798937 0.123425 0.500596
3190 1 0.814342 0.126535 0.499068
3201 1 0.864491 0.114912 0.500668
3199 1 0.853847 0.119468 0.500153
3132 1 0.869432 0.125707 0.500132
3136 1 0.880921 0.118396 0.500093
3205 1 0.88812 0.129106 0.50102
3137 1 0.892009 0.110919 0.502079
3138 1 0.896759 0.121721 0.501713
3139 1 0.910637 0.115467 0.502249
3140 1 0.915758 0.126456 0.501972
3074 1 0.939629 0.116361 0.504081
3142 1 0.928237 0.121698 0.502845
3213 1 0.94265 0.129893 0.503481
3076 1 0.949509 0.112649 0.504001
3146 1 0.956191 0.123352 0.503642
3352 1 0.967031 0.113993 0.504065
3219 1 0.97271 0.127003 0.503503
3148 1 0.983594 0.111679 0.502741
144 1 0.99813 0.122788 0.501324
356 1 0.985343 0.12426 0.501735
626 1 0.511891 0.145081 0.500689
3364 1 0.506922 0.13342 0.500766
488 1 0.520473 0.129224 0.501201
3437 1 0.52324 0.142645 0.500534
3366 1 0.534639 0.136423 0.502174
3370 1 0.549281 0.133875 0.502416
3303 1 0.550692 0.14614 0.502571
3507 1 0.563394 0.140924 0.502256
3301 1 0.574772 0.139293 0.503503
3305 1 0.585844 0.135748 0.503867
3302 1 0.597236 0.127975 0.503043
3373 1 0.60428 0.13903 0.502334
3375 1 0.592613 0.14708 0.502915
3446 1 0.616043 0.135767 0.503509
3176 1 0.62201 0.146122 0.501481
3381 1 0.632854 0.140434 0.502019
3310 1 0.645952 0.131914 0.501753
3385 1 0.647729 0.144529 0.500924
3312 1 0.663857 0.136345 0.500806
3242 1 0.673136 0.130486 0.501424
3316 1 0.678747 0.142368 0.501499
3106 1 0.702272 0.130773 0.505096
3389 1 0.69075 0.137353 0.503607
3320 1 0.694383 0.149259 0.504302
3179 1 0.718685 0.134945 0.504841
3180 1 0.707083 0.14246 0.504064
3249 1 0.724218 0.147504 0.504237
3182 1 0.729122 0.131546 0.504632
3250 1 0.735334 0.14148 0.504092
3185 1 0.758083 0.129853 0.501426
3253 1 0.747454 0.133839 0.502491
3254 1 0.752804 0.145925 0.502171
3255 1 0.765956 0.140423 0.501367
3186 1 0.776482 0.135667 0.500827
3188 1 0.78258 0.146708 0.500398
3261 1 0.79256 0.140171 0.500674
3206 1 0.8816 0.146151 0.499928
3207 1 0.893121 0.139937 0.49988
3209 1 0.904353 0.133302 0.501961
3211 1 0.921476 0.138041 0.501039
3208 1 0.910658 0.143953 0.501353
3281 1 0.938587 0.144467 0.501967
3210 1 0.932635 0.134367 0.502204
3144 1 0.950708 0.138494 0.501516
3215 1 0.961365 0.13356 0.501446
3214 1 0.976953 0.138995 0.501444
3287 1 0.967119 0.145057 0.501817
3149 1 0.989397 0.135764 0.501433
3433 1 0.503478 0.160606 0.50272
3436 1 0.515895 0.156792 0.501535
3439 1 0.528485 0.15326 0.501003
3579 1 0.531009 0.164948 0.500475
3581 1 0.543878 0.163701 0.501602
3435 1 0.539686 0.148551 0.500936
3440 1 0.566856 0.154338 0.503503
3236 1 0.555999 0.156755 0.502556
3374 1 0.580396 0.150249 0.503337
3379 1 0.586106 0.160848 0.502721
3376 1 0.574949 0.164253 0.503549
3511 1 0.597887 0.156689 0.502342
3382 1 0.609904 0.151746 0.502756
3443 1 0.623824 0.158862 0.50284
3445 1 0.613894 0.167289 0.503041
3388 1 0.637535 0.153201 0.501696
3315 1 0.641808 0.163404 0.503439
3387 1 0.655884 0.15079 0.502083
3449 1 0.653302 0.162682 0.502596
3386 1 0.66602 0.148911 0.501629
3519 1 0.672293 0.159034 0.501881
3314 1 0.68206 0.153667 0.502025
3391 1 0.701541 0.159254 0.50406
3521 1 0.689196 0.165894 0.503604
3251 1 0.71456 0.155342 0.504183
3248 1 0.720342 0.165202 0.503631
3321 1 0.733516 0.159125 0.502706
3252 1 0.742754 0.152481 0.503009
3325 1 0.748184 0.164584 0.502195
3256 1 0.757601 0.158098 0.500963
3277 1 0.899778 0.150495 0.500448
3279 1 0.90628 0.162377 0.49977
3351 1 0.917034 0.156075 0.501392
3283 1 0.927241 0.151667 0.50268
3285 1 0.955042 0.149202 0.499424
628 1 0.507283 0.173307 0.503197
3441 1 0.519452 0.169238 0.50267
3438 1 0.52606 0.181104 0.502803
3506 1 0.538063 0.177755 0.502301
3577 1 0.550085 0.174997 0.503077
3372 1 0.561807 0.169152 0.503432
3510 1 0.56779 0.182319 0.503862
3515 1 0.59135 0.174441 0.502384
3447 1 0.578569 0.177525 0.503209
3380 1 0.602602 0.16949 0.50256
3309 1 0.607395 0.183025 0.503555
3444 1 0.617572 0.177487 0.504145
3311 1 0.630309 0.167906 0.504009
3455 1 0.642239 0.176885 0.503716
3585 1 0.632493 0.183621 0.504693
3452 1 0.662281 0.168407 0.502277
3518 1 0.65294 0.176351 0.502984
3529 1 0.667341 0.17892 0.502679
3384 1 0.679188 0.171436 0.50289
3457 1 0.684154 0.182523 0.502999
3459 1 0.697509 0.177301 0.503336
3461 1 0.714178 0.180696 0.504425
3178 1 0.707328 0.171382 0.504285
3319 1 0.736449 0.171609 0.502646
3463 1 0.724621 0.177934 0.502835
3322 1 0.744707 0.179361 0.501594
3326 1 0.755197 0.174459 0.499806
3323 1 0.760402 0.184448 0.50022
3327 1 0.76532 0.168669 0.500547
3641 1 0.517872 0.196723 0.504219
3431 1 0.512215 0.186057 0.503802
3571 1 0.506506 0.200562 0.502941
3502 1 0.528818 0.193231 0.50221
3578 1 0.556408 0.186057 0.505901
3505 1 0.547611 0.201225 0.502893
3432 1 0.541617 0.188474 0.502709
3508 1 0.561475 0.199808 0.503525
3514 1 0.572215 0.193474 0.502679
3582 1 0.584184 0.191934 0.503233
3509 1 0.588891 0.201513 0.502899
3383 1 0.59613 0.184509 0.502532
3442 1 0.599603 0.197888 0.502511
3450 1 0.609843 0.195297 0.503695
3587 1 0.622624 0.192093 0.50437
3589 1 0.645802 0.1929 0.503802
3448 1 0.634723 0.202101 0.504951
3525 1 0.655971 0.186061 0.503071
3451 1 0.662389 0.194759 0.503329
3526 1 0.673207 0.191487 0.502208
3732 1 0.681854 0.19852 0.501829
3458 1 0.690933 0.19479 0.502578
3456 1 0.702127 0.189648 0.502938
3465 1 0.713949 0.191196 0.502969
3533 1 0.705422 0.200384 0.502961
3464 1 0.731213 0.186042 0.50149
3523 1 0.723626 0.196535 0.50198
768 1 0.511217 0.211514 0.501503
3576 1 0.534695 0.205114 0.501745
3573 1 0.522777 0.208351 0.50181
3574 1 0.550312 0.212753 0.502042
3713 1 0.537048 0.218285 0.501764
3643 1 0.56365 0.211066 0.503547
3583 1 0.565734 0.221354 0.502196
3504 1 0.57646 0.205345 0.502125
3657 1 0.580597 0.217752 0.501727
3588 1 0.592798 0.215316 0.501774
3512 1 0.606674 0.209071 0.502174
3517 1 0.623471 0.207784 0.502888
3663 1 0.63094 0.21746 0.502039
3527 1 0.642482 0.21132 0.503861
3392 1 0.652598 0.204978 0.503625
3593 1 0.658907 0.21906 0.502669
3390 1 0.664461 0.208115 0.503256
3591 1 0.675362 0.208169 0.503022
3453 1 0.671398 0.22213 0.501551
3460 1 0.69539 0.206071 0.502326
3596 1 0.696286 0.217572 0.501866
3595 1 0.684532 0.214006 0.501184
3462 1 0.710487 0.208824 0.501392
3532 1 0.708199 0.221258 0.501256
3667 1 0.7225 0.207349 0.501391
3469 1 0.736123 0.214576 0.500994
3394 1 0.749769 0.204203 0.497998
3649 1 0.554516 0.22434 0.501133
3575 1 0.542552 0.23197 0.499902
3580 1 0.570108 0.232893 0.501969
3650 1 0.558648 0.237547 0.500993
3660 1 0.581731 0.229339 0.50172
3516 1 0.591935 0.233067 0.500195
3659 1 0.598735 0.22509 0.502021
3520 1 0.617353 0.223513 0.501068
3661 1 0.624242 0.233684 0.500017
3454 1 0.634619 0.229002 0.502196
3522 1 0.645527 0.223663 0.50256
3664 1 0.641855 0.23884 0.501052
3733 1 0.655444 0.230522 0.501612
3666 1 0.680939 0.225643 0.501998
3592 1 0.667922 0.23537 0.500582
3594 1 0.678694 0.237704 0.501244
3739 1 0.692742 0.228684 0.501483
3528 1 0.721856 0.223515 0.50097
3530 1 0.706455 0.233991 0.500298
3531 1 0.734147 0.228734 0.501707
3586 1 0.573187 0.244154 0.501432
3654 1 0.588604 0.252842 0.500887
3656 1 0.583902 0.242347 0.50192
3590 1 0.598698 0.244942 0.500152
3730 1 0.634574 0.249785 0.500152
3735 1 0.651422 0.243196 0.500424
3734 1 0.662761 0.246824 0.500051
3736 1 0.686989 0.253045 0.499027
3602 1 0.702218 0.245043 0.50146
3524 1 0.730278 0.241133 0.500497
3731 1 0.593911 0.263462 0.49965
3727 1 0.604976 0.268491 0.500035
3668 1 0.712986 0.261256 0.499986
3724 1 0.600891 0.278348 0.500137
3687 1 0.858675 0.285476 0.501276
3561 1 0.877654 0.289853 0.500016
3621 1 0.873396 0.278878 0.49977
3553 1 0.894591 0.291548 0.499119
3618 1 0.848099 0.31075 0.500486
3757 1 0.858264 0.303618 0.500319
3759 1 0.864391 0.313395 0.500692
3697 1 0.883819 0.297966 0.50045
3693 1 0.873923 0.305438 0.500755
3689 1 0.886245 0.310642 0.500379
3766 1 0.89196 0.302987 0.501615
3690 1 0.903775 0.304695 0.4998
3691 1 0.915117 0.302141 0.500696
3821 1 0.784823 0.328314 0.5007
3752 1 0.798461 0.330677 0.500038
3826 1 0.845493 0.328243 0.500328
3827 1 0.85938 0.3308 0.500649
3831 1 0.871442 0.32244 0.499544
3765 1 0.883363 0.321999 0.499716
3701 1 0.91153 0.326255 0.500183
3761 1 0.920774 0.320664 0.500192
3694 1 0.926032 0.332412 0.500334
3772 1 0.934003 0.319594 0.500098
3965 1 0.794935 0.343874 0.500074
3830 1 0.852407 0.348019 0.500532
3828 1 0.862972 0.341368 0.500428
3688 1 0.886628 0.33435 0.500329
3837 1 0.873821 0.335282 0.501514
3835 1 0.88812 0.345929 0.501975
3839 1 0.898866 0.332269 0.500821
3767 1 0.903016 0.344328 0.50152
3699 1 0.917228 0.353155 0.501531
3770 1 0.913863 0.339269 0.50091
3909 1 0.92749 0.348308 0.50083
3925 1 0.573543 0.367757 0.500097
3956 1 0.785888 0.352566 0.499718
3903 1 0.867683 0.366427 0.499473
3762 1 0.863698 0.354585 0.500676
3832 1 0.876821 0.361355 0.500093
3911 1 0.903737 0.35661 0.501508
3768 1 0.891552 0.358086 0.501685
3914 1 0.905311 0.368103 0.50289
3840 1 0.91744 0.365131 0.501631
3769 1 0.928417 0.364112 0.500278
3913 1 0.94216 0.35897 0.500661
3841 1 0.957569 0.367383 0.50144
3984 1 0.954794 0.356692 0.500177
3981 1 0.966814 0.355131 0.499467
4057 1 0.971138 0.366078 0.500721
3847 1 0.981831 0.362848 0.500228
3923 1 0.570055 0.379528 0.499782
3924 1 0.582699 0.382681 0.499477
3997 1 0.598523 0.372635 0.50008
3838 1 0.882267 0.374042 0.501528
3904 1 0.871207 0.378927 0.500384
3834 1 0.885188 0.38729 0.501201
3973 1 0.894752 0.371965 0.501278
3905 1 0.897537 0.384865 0.5018
3976 1 0.909638 0.382637 0.50205
3908 1 0.920038 0.38016 0.501713
3907 1 0.932842 0.375881 0.501237
3842 1 0.943837 0.370075 0.500831
3912 1 0.949055 0.383955 0.501845
4051 1 0.960301 0.381956 0.501216
3989 1 0.973611 0.377686 0.501145
3916 1 0.988241 0.374849 0.50046
3845 1 0.98849 0.386465 0.500242
4064 1 0.57259 0.390349 0.50049
3994 1 0.580816 0.400333 0.501136
4029 1 0.817059 0.40219 0.500749
3966 1 0.852852 0.40258 0.499192
3970 1 0.866575 0.405383 0.501077
4041 1 0.86668 0.392499 0.49977
3902 1 0.877946 0.397036 0.500917
3906 1 0.888712 0.401842 0.500985
3974 1 0.899664 0.400036 0.501968
4049 1 0.916198 0.407323 0.501791
3975 1 0.924215 0.391664 0.503167
3978 1 0.910571 0.396308 0.501642
3910 1 0.937358 0.387036 0.502172
3977 1 0.93815 0.400488 0.502204
3980 1 0.927235 0.404456 0.502343
3979 1 0.950456 0.397277 0.501778
3990 1 0.974789 0.390939 0.501059
4056 1 0.980936 0.403246 0.500767
4128 1 0.964186 0.394524 0.501465
3983 1 0.966338 0.404863 0.50078
3987 1 0.9926 0.401219 0.500828
4033 1 0.81143 0.414153 0.499571
4101 1 0.795876 0.422784 0.5008
4032 1 0.79961 0.40918 0.501531
4037 1 0.864024 0.417841 0.500979
4036 1 0.851174 0.414223 0.500758
3972 1 0.878578 0.408186 0.501593
4038 1 0.878809 0.418715 0.501408
4045 1 0.890172 0.423472 0.503328
4039 1 0.892668 0.412709 0.50129
4043 1 0.90438 0.410574 0.502007
4044 1 0.905844 0.422804 0.503113
4120 1 0.916368 0.418434 0.502623
4119 1 0.929696 0.415682 0.501183
4194 1 0.940321 0.412467 0.501479
4123 1 0.952893 0.408582 0.501802
4122 1 0.958101 0.41932 0.501777
4050 1 0.945495 0.422735 0.500411
4055 1 0.968966 0.41769 0.502312
4129 1 0.98266 0.413933 0.501368
1193 1 0.995332 0.413248 0.501469
4127 1 0.998125 0.424084 0.501806
4028 1 0.792578 0.434655 0.5
4172 1 0.819248 0.429619 0.500022
4107 1 0.846954 0.424478 0.500343
4104 1 0.844104 0.4378 0.501426
4109 1 0.859638 0.43098 0.501598
4106 1 0.856779 0.443327 0.501684
4042 1 0.872778 0.432657 0.501318
4040 1 0.884673 0.436275 0.50302
4048 1 0.89749 0.440915 0.503366
4115 1 0.898333 0.429949 0.503154
4257 1 0.908835 0.442911 0.504595
4046 1 0.924413 0.428512 0.502444
4047 1 0.914335 0.433646 0.502955
4188 1 0.934537 0.43054 0.501605
4187 1 0.934592 0.442453 0.502026
4195 1 0.964122 0.442854 0.501703
4052 1 0.948741 0.435711 0.502511
4199 1 0.960477 0.43043 0.500934
4124 1 0.973165 0.429127 0.500493
4125 1 0.975408 0.442329 0.501185
1263 1 0.998543 0.437182 0.501784
4189 1 0.984376 0.426781 0.500966
4121 1 0.986579 0.441332 0.501594
4102 1 0.811875 0.455394 0.500376
4176 1 0.826092 0.445134 0.500469
4173 1 0.824972 0.457983 0.500964
4108 1 0.869733 0.445461 0.50145
4112 1 0.865205 0.456781 0.502548
4177 1 0.852896 0.453439 0.500019
4116 1 0.880015 0.46077 0.502939
4111 1 0.881292 0.449063 0.503068
4118 1 0.902541 0.462228 0.502112
4113 1 0.894115 0.451506 0.504192
4186 1 0.92341 0.445075 0.502914
4261 1 0.911838 0.453922 0.502171
4335 1 0.941077 0.452933 0.501852
4117 1 0.928335 0.457241 0.502393
4190 1 0.953958 0.459983 0.502344
4191 1 0.953511 0.447159 0.501559
4263 1 0.965953 0.454518 0.50215
4193 1 0.978821 0.453537 0.501649
1334 1 0.990457 0.452247 0.503097
4248 1 0.847326 0.477167 0.500667
4180 1 0.848475 0.464574 0.499481
4246 1 0.83573 0.462954 0.500282
4385 1 0.859201 0.479403 0.501283
4181 1 0.862752 0.46808 0.501971
4183 1 0.886472 0.478314 0.502984
4179 1 0.873849 0.471533 0.504056
4185 1 0.901935 0.47903 0.504164
4114 1 0.891494 0.465882 0.503181
4325 1 0.918653 0.466363 0.503501
4255 1 0.910083 0.472673 0.503471
4327 1 0.942102 0.469114 0.502698
4259 1 0.929481 0.474409 0.502188
4337 1 0.954029 0.470976 0.501574
4339 1 0.980318 0.478044 0.503084
4198 1 0.980658 0.465254 0.502027
1471 1 0.968595 0.480417 0.502472
4264 1 0.96693 0.467386 0.502476
4267 1 0.993544 0.477114 0.502162
1401 1 0.992347 0.465757 0.503123
4249 1 0.84272 0.489488 0.500176
4182 1 0.865525 0.498362 0.500368
4251 1 0.855155 0.491098 0.500154
4184 1 0.884061 0.491435 0.501628
4110 1 0.872265 0.486292 0.501007
4258 1 0.896967 0.495077 0.503588
4323 1 0.908144 0.490185 0.50346
4475 1 0.920753 0.496559 0.502214
4256 1 0.919365 0.482417 0.504494
4329 1 0.933169 0.498185 0.503809
4260 1 0.944666 0.482174 0.501306
4331 1 0.932715 0.485593 0.502503
4405 1 0.944234 0.494732 0.503423
4334 1 0.957423 0.495176 0.503039
4333 1 0.955809 0.483541 0.502328
4268 1 0.969434 0.493281 0.501905
4269 1 0.983865 0.488891 0.503044
1541 1 0.995416 0.488162 0.501734
4066 1 0.505231 0.390451 0.68284
1399 1 0.660999 0.514545 0.492515
4350 1 0.664127 0.503449 0.49219
4285 1 0.675578 0.507802 0.494364
4284 1 0.688087 0.510526 0.49549
4352 1 0.699826 0.513514 0.496365
4422 1 0.717444 0.506186 0.496147
4424 1 0.710787 0.516676 0.496743
4291 1 0.72889 0.509532 0.49442
4296 1 0.739874 0.515061 0.494823
4233 1 0.756286 0.505639 0.496597
4161 1 0.751967 0.517315 0.495364
4297 1 0.744021 0.502441 0.496465
4301 1 0.76848 0.510078 0.496994
4373 1 0.780988 0.512418 0.496566
4239 1 0.791487 0.516246 0.496122
4168 1 0.78547 0.500792 0.496605
4303 1 0.797057 0.505494 0.496146
4230 1 0.809649 0.507012 0.496642
4238 1 0.821709 0.510753 0.498482
4381 1 0.826015 0.498854 0.49872
4380 1 0.833396 0.513948 0.497858
4310 1 0.838505 0.503049 0.498466
4319 1 0.84922 0.505565 0.500074
4274 1 0.656162 0.528169 0.493541
4342 1 0.672596 0.519719 0.49355
4495 1 0.680864 0.535976 0.496248
4201 1 0.667324 0.53218 0.494928
4420 1 0.683382 0.523056 0.496095
1467 1 0.695225 0.527811 0.496946
4349 1 0.708389 0.530496 0.497365
4423 1 0.722402 0.534175 0.494672
4355 1 0.723357 0.52152 0.495137
4222 1 0.738189 0.528395 0.495118
4369 1 0.748792 0.529907 0.495963
4366 1 0.760388 0.532788 0.497027
4231 1 0.763794 0.521149 0.497756
4299 1 0.77774 0.523158 0.496466
4306 1 0.78997 0.528872 0.497569
4371 1 0.801679 0.531007 0.498305
4241 1 0.804867 0.518482 0.497948
4309 1 0.814174 0.534742 0.499591
4312 1 0.818279 0.523474 0.498616
4379 1 0.830265 0.52642 0.49761
4316 1 0.846036 0.517571 0.500053
4427 1 0.653228 0.543399 0.493709
4347 1 0.664918 0.546217 0.495187
1466 1 0.677292 0.548503 0.496172
4421 1 0.693298 0.539495 0.496846
4358 1 0.688898 0.552613 0.497081
4356 1 0.701204 0.554852 0.496962
1610 1 0.705079 0.542367 0.496466
4348 1 0.718178 0.546632 0.496118
4294 1 0.731207 0.538504 0.497405
4354 1 0.729372 0.549734 0.496682
4295 1 0.744684 0.541867 0.496896
4372 1 0.757006 0.546564 0.497883
4228 1 0.773356 0.535925 0.498035
4443 1 0.770288 0.547064 0.497645
4305 1 0.780436 0.55261 0.498357
4300 1 0.784593 0.539886 0.498714
4307 1 0.800317 0.544788 0.498651
4308 1 0.810729 0.547554 0.499223
4453 1 0.827756 0.538428 0.498815
4375 1 0.823163 0.551047 0.499545
4461 1 0.876182 0.552992 0.500658
1469 1 0.661148 0.557389 0.494914
4346 1 0.655856 0.566716 0.493031
4416 1 0.673562 0.561981 0.495817
4497 1 0.68497 0.565768 0.496355
4357 1 0.698772 0.567257 0.497388
4493 1 0.714506 0.557189 0.497257
4360 1 0.71022 0.572091 0.497368
4359 1 0.726474 0.563035 0.497285
4290 1 0.737648 0.566635 0.499006
4368 1 0.741548 0.554252 0.497676
4298 1 0.755456 0.557744 0.497474
4367 1 0.751681 0.567729 0.498944
4445 1 0.76929 0.559942 0.497685
4302 1 0.794913 0.555084 0.499658
4451 1 0.806274 0.560753 0.499931
4374 1 0.803756 0.571811 0.50002
4317 1 0.831039 0.568409 0.500382
4449 1 0.819469 0.562596 0.499112
4384 1 0.843117 0.569647 0.499455
4386 1 0.894842 0.573447 0.499242
1613 1 0.974352 0.570789 0.501024
4286 1 0.650768 0.585307 0.491763
4486 1 0.665674 0.586467 0.494149
4430 1 0.670073 0.572782 0.494897
4491 1 0.679362 0.577218 0.49624
4425 1 0.680104 0.589726 0.495646
4489 1 0.693386 0.578277 0.498343
4365 1 0.690945 0.590505 0.498214
4362 1 0.706399 0.585368 0.497021
4429 1 0.718964 0.587772 0.498418
4364 1 0.720859 0.575458 0.498563
4363 1 0.730991 0.591265 0.499706
4292 1 0.733059 0.580038 0.497521
4370 1 0.800551 0.584562 0.500062
4377 1 0.826242 0.580027 0.499313
4454 1 0.839307 0.584454 0.498799
4528 1 0.850743 0.588755 0.497362
4529 1 0.853005 0.574087 0.499549
4456 1 0.864126 0.576678 0.499561
4390 1 0.882038 0.58284 0.498272
4614 1 0.902552 0.587211 0.499095
4464 1 0.891303 0.587673 0.499796
4466 1 0.917946 0.582021 0.498163
4472 1 0.933948 0.589085 0.49856
4543 1 0.948256 0.585922 0.499447
1683 1 0.987525 0.594673 0.500445
4492 1 0.606412 0.60946 0.495523
1538 1 0.61758 0.600692 0.491689
4341 1 0.642994 0.596412 0.489101
1468 1 0.636099 0.605727 0.492367
4414 1 0.651929 0.597416 0.492646
1539 1 0.664846 0.599181 0.493903
1608 1 0.676705 0.604076 0.495971
4431 1 0.701446 0.596403 0.498602
4499 1 0.687995 0.606543 0.498551
4432 1 0.700656 0.609415 0.498409
4433 1 0.715353 0.599511 0.497951
4361 1 0.728391 0.602625 0.498893
4515 1 0.743544 0.595108 0.499254
4509 1 0.755005 0.597625 0.498902
4452 1 0.764559 0.601302 0.49955
4660 1 0.79236 0.607739 0.499446
4446 1 0.794528 0.596376 0.500188
4378 1 0.778627 0.603208 0.498674
4590 1 0.808083 0.600844 0.499942
4447 1 0.84766 0.600697 0.498845
4376 1 0.835722 0.59645 0.498889
4521 1 0.862483 0.605105 0.49767
4531 1 0.863762 0.591669 0.498039
4388 1 0.874066 0.596122 0.499586
4542 1 0.883987 0.595932 0.497537
4523 1 0.873319 0.608629 0.497344
4527 1 0.888511 0.606259 0.497827
4685 1 0.898878 0.59919 0.496838
4541 1 0.913827 0.594502 0.496809
4617 1 0.908497 0.608136 0.498103
4546 1 0.924351 0.601372 0.496341
4755 1 0.938876 0.600864 0.496174
4618 1 0.951503 0.598925 0.497964
4619 1 0.978657 0.608725 0.499078
4550 1 0.962771 0.597667 0.499016
1682 1 0.966451 0.610141 0.497524
1753 1 0.991067 0.606652 0.498
4563 1 0.610683 0.629211 0.498499
4412 1 0.620058 0.615068 0.493718
1604 1 0.649311 0.610106 0.493225
1394 1 0.632926 0.617655 0.494904
4496 1 0.642248 0.621164 0.496482
1609 1 0.661236 0.610863 0.493588
4413 1 0.653612 0.625576 0.496138
4418 1 0.665668 0.627957 0.497367
4415 1 0.681491 0.619071 0.499154
1679 1 0.671066 0.616822 0.497515
4436 1 0.696057 0.620203 0.498359
4434 1 0.713293 0.613318 0.497932
4505 1 0.707362 0.625323 0.499695
4508 1 0.720144 0.627709 0.499793
4585 1 0.737118 0.620042 0.500703
4591 1 0.775824 0.616046 0.498693
4592 1 0.788313 0.619156 0.498743
4444 1 0.805198 0.613867 0.500022
4530 1 0.84364 0.611343 0.498444
4532 1 0.840455 0.624879 0.496969
4470 1 0.851011 0.624177 0.496591
4613 1 0.865891 0.61865 0.496641
4526 1 0.855634 0.612772 0.497233
4534 1 0.884877 0.618444 0.496932
4469 1 0.87557 0.628121 0.495226
4400 1 0.892035 0.626204 0.496203
4611 1 0.897712 0.61561 0.497858
4610 1 0.909423 0.620842 0.497075
4679 1 0.920931 0.618416 0.496961
4538 1 0.931105 0.617675 0.496574
4540 1 0.940522 0.611936 0.498033
4616 1 0.943281 0.625766 0.497757
4688 1 0.953117 0.613073 0.497488
4548 1 0.955813 0.624808 0.497324
4684 1 0.967575 0.621879 0.497804
4689 1 0.981884 0.620589 0.498435
1752 1 0.993258 0.619592 0.499874
4411 1 0.597389 0.634974 0.500272
4490 1 0.625743 0.629419 0.496778
4485 1 0.637187 0.634019 0.498064
4494 1 0.634894 0.646357 0.499888
4561 1 0.650486 0.636857 0.498851
4488 1 0.679624 0.630998 0.499263
4657 1 0.831041 0.648522 0.49691
4664 1 0.824715 0.633897 0.49972
4601 1 0.837186 0.635284 0.497311
4603 1 0.849401 0.640356 0.49593
4597 1 0.857224 0.63207 0.49502
4525 1 0.867029 0.637024 0.49547
4535 1 0.860926 0.648178 0.494777
4536 1 0.877492 0.644536 0.495532
4533 1 0.885707 0.636125 0.49637
4607 1 0.901497 0.634012 0.495907
4745 1 0.894349 0.643626 0.496466
4751 1 0.920168 0.63268 0.497002
4753 1 0.912798 0.641371 0.496523
4537 1 0.931778 0.631408 0.496335
4683 1 0.933372 0.642282 0.496893
4612 1 0.946399 0.638092 0.497463
4825 1 0.958055 0.638093 0.498102
1824 1 0.969536 0.635197 0.49826
4758 1 0.985933 0.647831 0.498799
1826 1 0.982565 0.633212 0.49921
4687 1 0.997131 0.632037 0.49853
1692 1 0.997836 0.644774 0.498475
1817 1 0.54417 0.660922 0.500993
1537 1 0.554612 0.65135 0.500453
4729 1 0.827025 0.660636 0.497729
4731 1 0.81518 0.657984 0.49973
4600 1 0.838281 0.664064 0.495631
4524 1 0.844169 0.651651 0.496121
4602 1 0.853517 0.658863 0.495289
4667 1 0.864733 0.666441 0.495765
4605 1 0.872889 0.65426 0.496225
4672 1 0.882293 0.662927 0.496199
4606 1 0.888653 0.652651 0.497105
4468 1 0.898719 0.661924 0.497003
4608 1 0.905546 0.650507 0.497153
4609 1 0.921916 0.651595 0.496957
4681 1 0.912871 0.658509 0.495781
4680 1 0.926427 0.665247 0.496139
4817 1 0.935843 0.653512 0.495112
1892 1 0.939171 0.666079 0.497101
4686 1 0.947985 0.650465 0.496863
4682 1 0.961225 0.650237 0.497114
4756 1 0.962734 0.662746 0.496377
4752 1 0.950825 0.665299 0.496103
1822 1 0.973212 0.650109 0.499417
4757 1 0.975413 0.662599 0.497389
1823 1 0.987497 0.660527 0.49848
1677 1 0.505373 0.676572 0.49768
4482 1 0.519264 0.677242 0.499951
4662 1 0.825041 0.673117 0.49891
4661 1 0.827595 0.684619 0.499332
4598 1 0.846817 0.669692 0.49571
4604 1 0.837416 0.676217 0.498011
4665 1 0.843924 0.687048 0.496584
4669 1 0.85583 0.676389 0.496422
4668 1 0.864629 0.681582 0.496698
4671 1 0.873503 0.673293 0.495683
4742 1 0.881976 0.68101 0.497595
4815 1 0.88984 0.67114 0.49744
4675 1 0.898782 0.679892 0.496702
4677 1 0.907121 0.669314 0.496709
4676 1 0.919377 0.677457 0.495687
4747 1 0.9343 0.675696 0.495432
4827 1 0.951969 0.67674 0.495157
4759 1 0.977462 0.674574 0.496384
1962 1 0.964246 0.674448 0.496181
1895 1 0.990695 0.672558 0.496462
1605 1 0.503511 0.686464 0.501085
4743 1 0.83441 0.691925 0.499032
4666 1 0.84882 0.699821 0.498539
4804 1 0.839134 0.703411 0.499005
4674 1 0.866231 0.699342 0.499035
4673 1 0.855524 0.691888 0.498385
4670 1 0.884373 0.698656 0.498914
4746 1 0.873662 0.689353 0.49741
4748 1 0.892439 0.689391 0.49816
4816 1 0.902311 0.69525 0.498777
4818 1 0.920285 0.697097 0.495912
4678 1 0.912431 0.687001 0.49564
4749 1 0.92846 0.687309 0.495961
4829 1 0.939527 0.695429 0.496871
4690 1 0.946021 0.684658 0.497009
4750 1 0.950928 0.70383 0.497026
4754 1 0.956396 0.693921 0.496597
4824 1 0.965976 0.70056 0.496627
4823 1 0.964266 0.685731 0.496059
1964 1 0.978524 0.686236 0.497304
4828 1 0.978503 0.698134 0.496284
1894 1 0.989129 0.699293 0.497513
4830 1 0.99179 0.686275 0.498244
4744 1 0.856038 0.709451 0.499387
4879 1 0.87464 0.708118 0.49987
4813 1 0.894254 0.706924 0.499928
4889 1 0.911818 0.704376 0.498395
4822 1 0.921161 0.714318 0.498563
4887 1 0.913404 0.723057 0.499355
4819 1 0.930011 0.703852 0.497546
4821 1 0.939771 0.710883 0.497407
4892 1 0.949041 0.719316 0.497529
4826 1 0.960373 0.712065 0.498596
1961 1 0.977729 0.709681 0.497103
4760 1 0.969578 0.719541 0.499564
1966 1 0.987607 0.717592 0.49995
1899 1 0.994649 0.708623 0.498951
4812 1 0.903914 0.73108 0.500823
4883 1 0.89385 0.72583 0.500362
4820 1 0.922474 0.732068 0.498447
4896 1 0.932359 0.721922 0.498018
4893 1 0.932911 0.740502 0.499765
4965 1 0.954292 0.738325 0.499875
5157 1 0.844431 0.825259 0.500047
5086 1 0.804136 0.845707 0.499112
5156 1 0.822939 0.84321 0.498682
5088 1 0.831109 0.83369 0.498756
5161 1 0.841308 0.844931 0.49868
5087 1 0.850151 0.835737 0.499782
5217 1 0.796295 0.85432 0.499015
5285 1 0.804872 0.863457 0.498914
5291 1 0.813762 0.852897 0.49873
5225 1 0.82255 0.863341 0.499632
5154 1 0.83158 0.85569 0.498126
5159 1 0.849987 0.852252 0.499639
5227 1 0.840982 0.863214 0.498899
5230 1 0.856882 0.860707 0.499875
5361 1 0.795199 0.885485 0.500351
5223 1 0.814326 0.870944 0.500223
5295 1 0.822296 0.881197 0.499636
5296 1 0.834422 0.886499 0.49797
5226 1 0.842189 0.879129 0.499658
5356 1 0.79559 0.895952 0.499596
5362 1 0.808807 0.898585 0.500016
5363 1 0.814406 0.889231 0.499968
5352 1 0.797711 0.906404 0.499344
5438 1 0.823259 0.898492 0.498086
5228 1 0.851425 0.889302 0.500452
5300 1 0.842026 0.89533 0.499401
5298 1 0.835712 0.905583 0.499163
5435 1 0.852497 0.902969 0.498951
2660 1 0.503288 0.919433 0.498439
2658 1 0.511273 0.911382 0.499629
5353 1 0.791334 0.91381 0.50012
5288 1 0.780302 0.915694 0.498975
5429 1 0.807257 0.911879 0.499432
5434 1 0.806738 0.923185 0.499609
5366 1 0.817975 0.908039 0.500009
5437 1 0.824713 0.917684 0.499125
5506 1 0.843798 0.915348 0.499297
5440 1 0.834022 0.924394 0.497764
5507 1 0.854673 0.921507 0.498094
5436 1 0.860995 0.913867 0.499324
5443 1 0.87193 0.922035 0.499132
5445 1 0.887912 0.921034 0.500652
5457 1 0.994644 0.917797 0.4997
5461 1 0.515208 0.937907 0.498854
5392 1 0.513323 0.92613 0.498441
5462 1 0.504153 0.944913 0.497364
5425 1 0.74058 0.929861 0.500631
5358 1 0.790884 0.935055 0.500665
5430 1 0.799578 0.942357 0.499565
5505 1 0.808181 0.9354 0.498763
5575 1 0.817346 0.926018 0.498917
5504 1 0.820392 0.942585 0.498283
5578 1 0.826586 0.933548 0.498238
5577 1 0.842235 0.931263 0.497284
5509 1 0.85262 0.940012 0.497879
5439 1 0.835202 0.94088 0.498872
5511 1 0.87063 0.940953 0.499274
5367 1 0.862054 0.932025 0.498352
5442 1 0.880706 0.932083 0.498458
5515 1 0.898115 0.928676 0.500029
5527 1 0.977911 0.935105 0.499224
5526 1 0.988582 0.943627 0.499297
5456 1 0.987741 0.927618 0.499232
5458 1 0.997095 0.936248 0.497974
2800 1 0.509777 0.955317 0.496596
2799 1 0.520096 0.948852 0.499809
5502 1 0.794228 0.960537 0.499064
5359 1 0.78783 0.950797 0.499097
2838 1 0.8028 0.955294 0.497509
5433 1 0.811709 0.948553 0.4991
2845 1 0.819378 0.960539 0.498455
5508 1 0.827067 0.95104 0.49903
2913 1 0.835735 0.959166 0.497967
5444 1 0.844122 0.950656 0.497623
5513 1 0.853396 0.958754 0.497596
5512 1 0.862067 0.948726 0.497163
2857 1 0.872766 0.958696 0.499816
5441 1 0.880139 0.947806 0.499682
5597 1 0.981184 0.952732 0.500826
5525 1 0.971725 0.94441 0.500364
5528 1 0.988349 0.961541 0.497302
5529 1 0.998253 0.954495 0.497739
5531 1 0.501832 0.972544 0.498026
5503 1 0.782407 0.969949 0.499908
5364 1 0.798886 0.972141 0.498549
5499 1 0.808581 0.966812 0.498374
5573 1 0.8275 0.969763 0.498746
5574 1 0.817416 0.978026 0.499388
5514 1 0.843337 0.968628 0.499423
2843 1 0.839755 0.98333 0.500509
5572 1 0.856083 0.975473 0.499658
5584 1 0.875515 0.975631 0.50077
5590 1 0.936873 0.963969 0.500719
2869 1 0.961902 0.971331 0.498675
5593 1 0.953825 0.964051 0.499706
1 1 0.981264 0.971179 0.497976
2733 1 0.972881 0.98209 0.498234
2662 1 0.990421 0.979024 0.499115
5530 1 0.998153 0.971805 0.497194
70 1 0.504637 0.985188 0.498736
2907 1 0.786986 0.996719 0.501125
5583 1 0.866412 0.982557 0.500317
2862 1 0.929307 0.988517 0.500045
71 1 0.944839 0.99289 0.499492
5522 1 0.953632 0.981413 0.498504
2731 1 0.983337 0.989554 0.498113
2664 1 1.00031 0.990356 0.498608
2736 1 0.988532 0.999413 0.498614
4250 1 0.861507 0.508365 0.500441
4252 1 0.871751 0.514706 0.50334
4253 1 0.876246 0.505446 0.500498
4254 1 0.88859 0.507648 0.502648
4324 1 0.90522 0.506121 0.502399
4328 1 0.893665 0.520771 0.502708
4401 1 0.918246 0.507453 0.502944
4408 1 0.932668 0.511806 0.503406
4406 1 0.944918 0.508469 0.503605
4266 1 0.958812 0.506774 0.502362
4399 1 0.95979 0.518627 0.503695
4262 1 0.973305 0.50547 0.502457
4196 1 0.974081 0.517581 0.503396
4270 1 0.998092 0.501684 0.501498
1403 1 0.984606 0.502748 0.502514
4403 1 0.986575 0.514679 0.503385
4459 1 0.84131 0.52911 0.500819
4320 1 0.856188 0.520131 0.501805
4389 1 0.854387 0.532178 0.501946
4322 1 0.867673 0.526375 0.502286
4394 1 0.882383 0.533589 0.501859
4393 1 0.87974 0.521736 0.502607
4402 1 0.905682 0.518335 0.501983
4326 1 0.893714 0.533178 0.50177
4332 1 0.907576 0.529776 0.503654
4473 1 0.917179 0.519781 0.50314
4478 1 0.924948 0.527004 0.50333
4471 1 0.92548 0.538508 0.504078
4336 1 0.935538 0.523961 0.503296
4479 1 0.93839 0.536133 0.505168
4265 1 0.948221 0.520229 0.504117
4407 1 0.951653 0.533122 0.50264
4404 1 0.963967 0.529957 0.505318
1476 1 0.978746 0.528289 0.503926
1475 1 0.990158 0.527435 0.503804
4318 1 0.851139 0.544938 0.501442
4311 1 0.839093 0.542911 0.499972
4382 1 0.834969 0.555937 0.499145
4458 1 0.862053 0.550455 0.501801
4391 1 0.86665 0.537197 0.50306
4321 1 0.876922 0.541946 0.501111
4395 1 0.89081 0.547817 0.501437
4330 1 0.90008 0.54241 0.50238
4467 1 0.903355 0.553176 0.50328
4396 1 0.913618 0.538538 0.5037
4539 1 0.915278 0.55389 0.503337
4615 1 0.927178 0.550782 0.503135
4476 1 0.94058 0.548788 0.503011
4477 1 0.952854 0.548066 0.503892
4338 1 0.964524 0.543263 0.503644
1543 1 0.977063 0.540863 0.502993
4480 1 0.965983 0.557049 0.503465
4409 1 0.980025 0.554559 0.50176
1547 1 0.990135 0.539496 0.501606
1544 1 0.992536 0.554148 0.501106
4439 1 0.763143 0.57181 0.500652
4442 1 0.779958 0.564035 0.500133
4440 1 0.791529 0.567584 0.500997
4387 1 0.846788 0.557476 0.499836
4457 1 0.858136 0.563423 0.499773
4455 1 0.871265 0.567263 0.500089
4397 1 0.886308 0.559216 0.500962
4463 1 0.882254 0.570418 0.500096
4392 1 0.898738 0.563217 0.50109
4460 1 0.916115 0.56517 0.502289
4465 1 0.92939 0.56184 0.504082
4544 1 0.941406 0.56107 0.502592
4547 1 0.944045 0.573867 0.501742
4410 1 0.954079 0.560301 0.503514
1542 1 0.95576 0.573577 0.501833
4474 1 0.964856 0.567992 0.503332
1615 1 0.98385 0.566892 0.500001
4340 1 0.997174 0.565515 0.50007
4516 1 0.75906 0.584427 0.500021
4507 1 0.74512 0.580141 0.500113
4513 1 0.771818 0.588504 0.499414
4441 1 0.773629 0.575474 0.501491
4589 1 0.783495 0.59076 0.499999
4511 1 0.786145 0.579395 0.499785
4517 1 0.810784 0.590917 0.500323
4304 1 0.816652 0.576601 0.499536
4462 1 0.872719 0.584825 0.499751
4398 1 0.907375 0.574427 0.499962
4545 1 0.930771 0.575027 0.500913
4549 1 0.96095 0.583887 0.501577
1611 1 0.973327 0.582504 0.500568
4620 1 0.987384 0.579719 0.499062
1612 1 0.997925 0.578551 0.500144
4438 1 0.739798 0.607138 0.50068
4519 1 0.818165 0.606395 0.499097
4520 1 0.831362 0.608534 0.49979
4522 1 0.822974 0.5926 0.50072
1681 1 0.976122 0.596232 0.499987
4512 1 0.724917 0.615619 0.500247
4437 1 0.75386 0.609614 0.500161
4514 1 0.748125 0.621412 0.501542
4654 1 0.761281 0.626613 0.501625
4588 1 0.773818 0.628401 0.501143
4583 1 0.765593 0.613937 0.5004
4518 1 0.799556 0.623044 0.500708
4593 1 0.81182 0.627865 0.499853
4599 1 0.83016 0.620904 0.500064
4730 1 0.817075 0.61715 0.501516
1396 1 0.581554 0.643993 0.500694
4557 1 0.595384 0.648217 0.503142
4487 1 0.611676 0.639924 0.499904
4565 1 0.623632 0.642853 0.500634
4500 1 0.663264 0.639741 0.499298
4426 1 0.674762 0.643052 0.500463
4501 1 0.690582 0.633786 0.500735
4571 1 0.686505 0.646556 0.501355
4506 1 0.716134 0.639058 0.501343
4435 1 0.703304 0.636437 0.501061
4578 1 0.730306 0.642851 0.502374
4510 1 0.732739 0.631153 0.500403
4579 1 0.745141 0.636017 0.502492
4580 1 0.740858 0.648157 0.503783
4581 1 0.756786 0.638396 0.502715
4658 1 0.769394 0.64119 0.502841
4450 1 0.784864 0.630725 0.500918
4584 1 0.780871 0.643086 0.501838
4582 1 0.791267 0.645175 0.502131
4448 1 0.796194 0.634208 0.502115
4659 1 0.80649 0.639838 0.501462
4595 1 0.820038 0.64502 0.499358
1535 1 0.568942 0.648452 0.500641
4560 1 0.565083 0.664926 0.502357
1465 1 0.57794 0.656728 0.502818
1748 1 0.590094 0.659466 0.503733
4635 1 0.604314 0.663343 0.504681
1680 1 0.607112 0.651618 0.502309
4564 1 0.620411 0.653634 0.502418
4551 1 0.614505 0.666954 0.503828
4566 1 0.647339 0.648389 0.500626
4570 1 0.645447 0.660563 0.502677
4568 1 0.631683 0.659292 0.502304
4567 1 0.657039 0.662983 0.505036
4428 1 0.659142 0.652302 0.501436
4498 1 0.670164 0.654124 0.503025
4504 1 0.684998 0.657861 0.503651
4503 1 0.698483 0.649712 0.503226
4575 1 0.696733 0.659767 0.504693
4577 1 0.712644 0.651359 0.503272
4647 1 0.710026 0.664973 0.505008
4649 1 0.725473 0.656028 0.504128
4650 1 0.737977 0.660062 0.504311
4653 1 0.755048 0.651458 0.503956
4651 1 0.751798 0.663018 0.504615
4797 1 0.768194 0.653587 0.503227
4586 1 0.77993 0.657205 0.503943
4587 1 0.791707 0.65663 0.503562
4728 1 0.800958 0.650621 0.5002
4596 1 0.803519 0.662957 0.502114
4559 1 0.531163 0.68495 0.500754
4484 1 0.535248 0.671942 0.49986
1749 1 0.550539 0.670108 0.502486
1888 1 0.544011 0.684812 0.501659
1462 1 0.560932 0.67781 0.503333
4628 1 0.57374 0.682075 0.503816
4481 1 0.57718 0.669957 0.502901
4483 1 0.587711 0.671991 0.504425
4627 1 0.585448 0.685779 0.504368
4562 1 0.599116 0.674521 0.505137
4631 1 0.611018 0.677131 0.506108
4638 1 0.624749 0.680371 0.506925
4637 1 0.626786 0.671461 0.503897
4641 1 0.64125 0.671796 0.504065
4639 1 0.637221 0.681315 0.507385
4572 1 0.652504 0.676455 0.50677
4569 1 0.66326 0.680009 0.506537
4502 1 0.668822 0.6662 0.505517
4573 1 0.681939 0.671093 0.504753
4645 1 0.677177 0.681369 0.505158
4576 1 0.693622 0.673163 0.505275
4646 1 0.706812 0.677583 0.505984
4717 1 0.718936 0.680955 0.506475
4648 1 0.721668 0.669355 0.505859
4719 1 0.73408 0.672926 0.50615
4721 1 0.746358 0.674972 0.505048
4796 1 0.759293 0.678774 0.505412
4725 1 0.763105 0.667458 0.504378
4724 1 0.770992 0.682685 0.504311
4727 1 0.774396 0.666444 0.502542
4726 1 0.789545 0.670981 0.504623
4800 1 0.779068 0.675638 0.505645
4655 1 0.812601 0.671195 0.500846
4799 1 0.801223 0.674122 0.503129
4735 1 0.810095 0.68236 0.502206
1536 1 0.501315 0.69954 0.500437
4692 1 0.513385 0.702674 0.502477
1603 1 0.516293 0.6906 0.501016
1747 1 0.527513 0.695157 0.502069
1816 1 0.551264 0.70158 0.504284
1750 1 0.539946 0.69674 0.502946
4553 1 0.555885 0.688401 0.504097
4554 1 0.567465 0.692306 0.505298
4558 1 0.579942 0.695875 0.504671
4626 1 0.594909 0.701886 0.505769
4629 1 0.597086 0.690118 0.505497
4630 1 0.608967 0.691226 0.505056
4636 1 0.621002 0.693812 0.507318
4707 1 0.633814 0.693264 0.50881
4705 1 0.639899 0.702983 0.508714
4574 1 0.648489 0.687932 0.507771
4706 1 0.651726 0.699401 0.508816
4644 1 0.661768 0.692563 0.506884
4640 1 0.67517 0.694188 0.506512
4713 1 0.687047 0.698297 0.505492
4642 1 0.690015 0.686768 0.505739
4715 1 0.70275 0.690246 0.504938
4791 1 0.714931 0.694668 0.505471
4652 1 0.732087 0.685456 0.505188
4720 1 0.726866 0.696717 0.505513
4795 1 0.739039 0.699708 0.505548
4722 1 0.743828 0.686993 0.505314
4723 1 0.754848 0.689958 0.505153
4793 1 0.752409 0.70241 0.506205
4867 1 0.767957 0.692767 0.505653
4792 1 0.780232 0.697183 0.505584
4656 1 0.790263 0.703812 0.505464
4732 1 0.783783 0.68564 0.504403
4663 1 0.799981 0.689743 0.504079
5007 1 0.800794 0.700747 0.504727
4807 1 0.812956 0.700048 0.502199
4594 1 0.817996 0.68927 0.501261
4737 1 0.8252 0.704043 0.500607
1741 1 0.507819 0.715605 0.501251
4693 1 0.519587 0.719807 0.502445
1678 1 0.523715 0.707603 0.501905
1671 1 0.536148 0.711011 0.502379
4621 1 0.548339 0.713829 0.503726
4552 1 0.564957 0.704352 0.504944
1819 1 0.560708 0.716094 0.504675
4769 1 0.573191 0.721346 0.504768
4556 1 0.588883 0.712425 0.506781
4625 1 0.577551 0.709116 0.506669
4701 1 0.607697 0.703117 0.507225
4632 1 0.600034 0.714943 0.50627
4634 1 0.614062 0.719908 0.506049
4633 1 0.618613 0.707066 0.506377
4771 1 0.629954 0.706647 0.508604
4777 1 0.631835 0.718728 0.508107
4779 1 0.64452 0.714002 0.508367
4711 1 0.659982 0.70606 0.50666
4708 1 0.654607 0.71719 0.505862
4712 1 0.666637 0.719516 0.506233
4709 1 0.671373 0.706602 0.507095
4714 1 0.682521 0.711427 0.506319
4716 1 0.698725 0.702952 0.505807
4643 1 0.695484 0.714211 0.505322
4718 1 0.71081 0.707176 0.504893
4787 1 0.707413 0.719057 0.505824
4857 1 0.72412 0.70928 0.505595
4788 1 0.73627 0.712709 0.505544
4863 1 0.748599 0.714426 0.5065
4937 1 0.75934 0.718085 0.505283
4936 1 0.764114 0.70545 0.504489
4862 1 0.776426 0.708867 0.505504
4869 1 0.771128 0.720365 0.504643
4734 1 0.787431 0.715918 0.504729
4738 1 0.800803 0.714732 0.504394
4803 1 0.813118 0.71293 0.502344
4736 1 0.827268 0.717104 0.50091
4805 1 0.837673 0.715078 0.500118
4810 1 0.849623 0.718018 0.50086
4881 1 0.868508 0.718212 0.500486
4811 1 0.886136 0.715739 0.500624
4814 1 0.904513 0.712981 0.499723
1814 1 0.505539 0.728954 0.502198
1820 1 0.51831 0.732303 0.503274
1887 1 0.532639 0.72159 0.502394
4623 1 0.530707 0.73553 0.503833
4766 1 0.545448 0.727235 0.505031
4698 1 0.541186 0.740692 0.505562
4767 1 0.557789 0.729818 0.505125
4699 1 0.569134 0.733073 0.505074
4839 1 0.582805 0.736115 0.50672
4697 1 0.586843 0.724566 0.506473
4841 1 0.598163 0.727235 0.506756
4700 1 0.596323 0.739969 0.506507
4703 1 0.623525 0.723855 0.506424
4773 1 0.61236 0.73164 0.505545
4702 1 0.624955 0.735195 0.506251
4775 1 0.641995 0.726172 0.507722
4704 1 0.636445 0.736298 0.506898
4776 1 0.65342 0.728675 0.507317
4710 1 0.663645 0.731051 0.505829
4778 1 0.647988 0.740158 0.506711
4783 1 0.679676 0.723497 0.505262
4855 1 0.676475 0.735693 0.505398
4782 1 0.69139 0.726411 0.505848
4786 1 0.687524 0.738712 0.506135
4856 1 0.720585 0.720435 0.505655
4784 1 0.704648 0.730753 0.505714
5001 1 0.715273 0.736007 0.506539
4789 1 0.731211 0.723601 0.506617
4933 1 0.726644 0.737932 0.506373
4790 1 0.742298 0.728001 0.505425
4859 1 0.754048 0.73214 0.504949
4858 1 0.740464 0.741097 0.504876
4866 1 0.767134 0.734396 0.504811
4794 1 0.778705 0.736742 0.503997
4868 1 0.782797 0.725457 0.503408
4733 1 0.792139 0.733232 0.503412
4871 1 0.801296 0.726296 0.503476
4875 1 0.811917 0.724734 0.502067
4801 1 0.814486 0.73564 0.503326
4802 1 0.824983 0.726939 0.502266
4877 1 0.832973 0.735021 0.501919
4740 1 0.840768 0.727126 0.502956
4739 1 0.851157 0.734846 0.501472
4809 1 0.859587 0.725661 0.50059
4951 1 0.867264 0.735014 0.503572
4741 1 0.875559 0.725705 0.502063
4880 1 0.886506 0.734991 0.500051
4886 1 0.914661 0.74035 0.499947
4895 1 0.941648 0.731273 0.499759
4897 1 0.96018 0.728904 0.501134
4899 1 0.978073 0.727479 0.500251
5035 1 0.971769 0.737374 0.50201
4898 1 0.989065 0.734692 0.502038
2032 1 0.997441 0.725143 0.501098
1746 1 0.502939 0.742229 0.502462
2027 1 0.514772 0.745535 0.5031
4762 1 0.510674 0.758207 0.501979
1890 1 0.525207 0.74972 0.503587
4765 1 0.551057 0.755708 0.505361
4763 1 0.539906 0.752061 0.504976
4555 1 0.554332 0.743352 0.505339
4624 1 0.566723 0.74478 0.505242
4768 1 0.563618 0.757812 0.50525
4838 1 0.579107 0.749812 0.506957
4840 1 0.591563 0.752653 0.506867
4770 1 0.607942 0.744026 0.506167
4842 1 0.604359 0.756674 0.506539
4772 1 0.620228 0.747307 0.507004
4847 1 0.643932 0.751014 0.50572
4774 1 0.631009 0.74808 0.505895
4851 1 0.661727 0.744451 0.505937
4849 1 0.654943 0.757517 0.504189
4781 1 0.674465 0.747509 0.506468
4853 1 0.686209 0.750563 0.50672
4780 1 0.670325 0.760541 0.506037
4854 1 0.697095 0.753911 0.506265
4785 1 0.701703 0.741015 0.507345
4860 1 0.712484 0.747458 0.507076
5008 1 0.737658 0.752578 0.505419
4865 1 0.726193 0.749863 0.506583
4861 1 0.751484 0.745096 0.504875
5009 1 0.749483 0.757936 0.503988
4872 1 0.766526 0.746607 0.504562
4931 1 0.761655 0.758895 0.505033
4935 1 0.777158 0.748362 0.503437
5010 1 0.78119 0.758771 0.50345
4874 1 0.786875 0.743375 0.504051
4938 1 0.795928 0.749176 0.502079
4870 1 0.803196 0.740205 0.502629
4808 1 0.811675 0.750356 0.503215
4873 1 0.799666 0.761078 0.502888
4876 1 0.82185 0.745442 0.502488
4949 1 0.831279 0.754399 0.503043
4806 1 0.840143 0.744776 0.502137
4947 1 0.850484 0.753903 0.500801
4878 1 0.859382 0.744603 0.500871
4953 1 0.869188 0.751538 0.50033
4882 1 0.877259 0.742899 0.50174
4884 1 0.888752 0.751481 0.500737
4954 1 0.907405 0.749558 0.500666
4957 1 0.897535 0.757268 0.501817
4885 1 0.896707 0.741707 0.501462
4888 1 0.914962 0.759522 0.501085
4891 1 0.923453 0.751062 0.499829
4959 1 0.937087 0.754685 0.501948
4894 1 0.945941 0.745992 0.499618
4890 1 0.955263 0.754866 0.500483
4963 1 0.963096 0.74588 0.501085
4966 1 0.973712 0.753438 0.500964
4967 1 0.981803 0.745441 0.502226
4970 1 0.999265 0.743354 0.50236
4969 1 0.992823 0.754524 0.503519
2100 1 0.509254 0.770218 0.502804
2030 1 0.523733 0.760086 0.504041
4903 1 0.519107 0.773731 0.504105
1960 1 0.535271 0.765188 0.504884
4836 1 0.546649 0.768143 0.505763
4905 1 0.559459 0.769904 0.505206
4907 1 0.570337 0.774688 0.50582
4911 1 0.588385 0.765663 0.505635
4909 1 0.575017 0.762317 0.505708
4910 1 0.582998 0.779442 0.506856
4913 1 0.600542 0.767867 0.506865
4843 1 0.617275 0.75866 0.50599
4844 1 0.61459 0.772903 0.505026
4846 1 0.62638 0.775956 0.506362
4845 1 0.629787 0.762251 0.506333
4848 1 0.641202 0.763543 0.506378
4917 1 0.646581 0.773934 0.504876
4921 1 0.65622 0.770545 0.504914
4850 1 0.666753 0.771877 0.505676
4852 1 0.682266 0.764433 0.506481
4923 1 0.678315 0.776838 0.505721
4925 1 0.694091 0.768143 0.505646
4927 1 0.709946 0.759386 0.506192
4929 1 0.704767 0.770886 0.505898
4930 1 0.717463 0.774901 0.506328
4932 1 0.72185 0.762204 0.507243
5003 1 0.734697 0.767449 0.506022
5005 1 0.745859 0.769666 0.505576
4864 1 0.757181 0.773048 0.50395
4934 1 0.772606 0.76389 0.504988
5077 1 0.768792 0.77455 0.505907
5014 1 0.788859 0.766807 0.504592
5012 1 0.781299 0.777665 0.505894
4798 1 0.798304 0.772203 0.505742
4939 1 0.808539 0.774127 0.50386
4941 1 0.812838 0.761864 0.503358
4940 1 0.82499 0.763581 0.503439
5147 1 0.83389 0.769479 0.504416
5017 1 0.841428 0.763182 0.501997
4944 1 0.851032 0.772752 0.501815
4950 1 0.859781 0.762161 0.500915
4952 1 0.870766 0.770197 0.501752
5025 1 0.877096 0.761073 0.500993
5023 1 0.888638 0.767687 0.501789
4956 1 0.898026 0.775343 0.501868
4955 1 0.906422 0.765836 0.503142
4960 1 0.916644 0.77258 0.500873
4958 1 0.926361 0.765005 0.499393
4962 1 0.93644 0.772924 0.501355
4964 1 0.945896 0.764261 0.500989
5034 1 0.955201 0.771829 0.501473
5036 1 0.964453 0.762168 0.501207
5039 1 0.975055 0.771001 0.502283
5105 1 0.964306 0.779478 0.503049
4968 1 0.982665 0.760378 0.502793
5037 1 0.992955 0.771739 0.50414
2166 1 0.504679 0.783265 0.503246
2168 1 0.515857 0.785635 0.504607
4696 1 0.531315 0.777143 0.505305
4978 1 0.527089 0.788687 0.504816
4694 1 0.542816 0.778958 0.505046
4834 1 0.537881 0.792288 0.504786
4906 1 0.551685 0.795308 0.505952
4835 1 0.556516 0.784807 0.506684
4764 1 0.568613 0.786483 0.505824
4908 1 0.580402 0.791882 0.504824
4912 1 0.596336 0.780282 0.505877
4982 1 0.592287 0.794208 0.504967
4915 1 0.607415 0.78351 0.505244
4916 1 0.620451 0.787899 0.504925
4920 1 0.636451 0.778717 0.505011
4985 1 0.634033 0.790997 0.504142
4918 1 0.644602 0.795646 0.504483
4922 1 0.652098 0.786773 0.505361
4919 1 0.662311 0.784189 0.505005
4993 1 0.674097 0.78783 0.504955
4995 1 0.688813 0.781871 0.505323
4926 1 0.686799 0.793746 0.505273
4928 1 0.700665 0.784498 0.506001
4997 1 0.698663 0.796441 0.505141
4999 1 0.713681 0.785165 0.506109
5004 1 0.729235 0.778834 0.504793
5002 1 0.724505 0.79164 0.505129
5073 1 0.736536 0.793952 0.503899
5076 1 0.741536 0.78266 0.504719
5078 1 0.754811 0.785705 0.504879
5075 1 0.765908 0.788284 0.503491
5081 1 0.777399 0.790657 0.505192
5011 1 0.789972 0.795355 0.504351
4945 1 0.793023 0.78223 0.504915
4943 1 0.804157 0.787143 0.504594
4942 1 0.818616 0.778945 0.504953
5013 1 0.817571 0.791111 0.504415
5083 1 0.829109 0.792608 0.502226
4948 1 0.832462 0.780054 0.505138
5089 1 0.844502 0.782044 0.503891
5016 1 0.841202 0.793919 0.502795
4946 1 0.861944 0.780346 0.501293
5021 1 0.853705 0.791011 0.501074
5022 1 0.879668 0.778282 0.502513
5019 1 0.871613 0.786778 0.500954
5024 1 0.889796 0.786157 0.502421
5027 1 0.900061 0.791912 0.501422
5031 1 0.918956 0.789435 0.500916
5029 1 0.907493 0.781845 0.501434
5033 1 0.925602 0.779637 0.502448
5032 1 0.939041 0.789769 0.502894
4961 1 0.946143 0.779697 0.50203
5103 1 0.955231 0.788666 0.503075
5038 1 0.973538 0.784938 0.504558
5040 1 0.982776 0.778069 0.503347
2173 1 0.99314 0.789885 0.505305
2099 1 0.499522 0.794933 0.501607
4904 1 0.507675 0.810364 0.504165
4832 1 0.512426 0.798372 0.503326
4902 1 0.523446 0.802253 0.505396
4975 1 0.536488 0.805006 0.506137
4973 1 0.520574 0.814229 0.504866
4977 1 0.549271 0.809333 0.505525
4980 1 0.564177 0.7997 0.506556
5047 1 0.562534 0.813132 0.505081
4979 1 0.576396 0.803356 0.506049
4984 1 0.588555 0.804516 0.506716
4981 1 0.605369 0.797888 0.505031
4986 1 0.601922 0.810511 0.505546
4983 1 0.616682 0.799629 0.505662
5051 1 0.61409 0.81318 0.505547
4914 1 0.628895 0.802909 0.50432
4987 1 0.643166 0.806697 0.503171
4989 1 0.658929 0.797267 0.503757
4990 1 0.655635 0.810694 0.50255
4924 1 0.672032 0.801087 0.505044
4992 1 0.683126 0.806545 0.505035
4994 1 0.695143 0.807958 0.505047
4998 1 0.710454 0.798215 0.504104
4996 1 0.706857 0.810745 0.5041
5071 1 0.719635 0.815204 0.5041
5000 1 0.722613 0.80315 0.502988
5070 1 0.735242 0.807395 0.503325
5143 1 0.748836 0.797861 0.50403
5072 1 0.746794 0.811294 0.503216
5146 1 0.758792 0.812842 0.505208
5080 1 0.763111 0.800365 0.504774
5141 1 0.774429 0.802147 0.504666
5149 1 0.785469 0.806708 0.503829
5148 1 0.796682 0.810555 0.503723
5145 1 0.801938 0.799224 0.504883
5151 1 0.813316 0.802846 0.503588
5150 1 0.81019 0.813969 0.503037
5082 1 0.826414 0.804609 0.502102
5085 1 0.838361 0.808564 0.501914
5018 1 0.864052 0.798202 0.50005
5020 1 0.855758 0.806349 0.500873
5095 1 0.883754 0.796183 0.501377
5093 1 0.875144 0.805846 0.500267
5163 1 0.884476 0.813695 0.501852
5026 1 0.891937 0.804444 0.501428
5097 1 0.902426 0.811898 0.502579
5028 1 0.910349 0.80079 0.501814
5101 1 0.920848 0.808296 0.50341
5102 1 0.928753 0.796536 0.502785
5106 1 0.936961 0.807503 0.505485
5108 1 0.95585 0.807452 0.505393
5104 1 0.947869 0.797925 0.504621
5107 1 0.966578 0.796923 0.505127
5109 1 0.974852 0.805985 0.505551
2172 1 0.983147 0.79698 0.505137
2311 1 0.993356 0.805627 0.505373
4972 1 0.503976 0.822723 0.503771
5042 1 0.518184 0.826173 0.502226
4974 1 0.534019 0.817287 0.505512
5188 1 0.531071 0.829276 0.503961
5045 1 0.546241 0.820547 0.504176
5044 1 0.574349 0.815608 0.507398
5114 1 0.559557 0.824858 0.50586
4976 1 0.572496 0.827389 0.506176
5117 1 0.584621 0.830264 0.50719
5046 1 0.585759 0.818414 0.505933
5048 1 0.597914 0.821687 0.506439
5049 1 0.611192 0.823501 0.506822
5057 1 0.627112 0.81563 0.505669
5050 1 0.625412 0.828074 0.506525
5053 1 0.640918 0.820246 0.504432
5125 1 0.636469 0.832426 0.505169
5059 1 0.65363 0.823783 0.504227
4988 1 0.665916 0.826104 0.505359
4991 1 0.667199 0.813767 0.503632
5063 1 0.681899 0.817493 0.505397
5061 1 0.677102 0.829668 0.505549
5201 1 0.693245 0.821736 0.505401
5126 1 0.70518 0.824005 0.506012
5069 1 0.71653 0.826597 0.503825
5068 1 0.729925 0.820109 0.503263
5138 1 0.727101 0.831493 0.504837
5140 1 0.755201 0.824564 0.50445
5139 1 0.74254 0.823102 0.504548
5220 1 0.770973 0.816698 0.503737
5079 1 0.767598 0.827548 0.505313
5006 1 0.782862 0.81845 0.502603
5211 1 0.779394 0.829357 0.503953
5074 1 0.794001 0.823823 0.502924
5155 1 0.807752 0.824321 0.502093
5153 1 0.821781 0.815987 0.500638
5152 1 0.821242 0.827204 0.49946
5015 1 0.833883 0.819564 0.500602
5091 1 0.848516 0.814944 0.501205
5092 1 0.86678 0.814552 0.501475
5090 1 0.858402 0.82459 0.500379
5094 1 0.877074 0.82352 0.501875
5162 1 0.886902 0.830946 0.50192
5167 1 0.895262 0.821764 0.501741
5030 1 0.903816 0.830812 0.503833
5169 1 0.912477 0.819092 0.50365
5099 1 0.920939 0.825743 0.502954
5100 1 0.93097 0.818351 0.505462
5173 1 0.940787 0.827601 0.50499
5177 1 0.960025 0.825219 0.505089
5171 1 0.949053 0.817085 0.506227
5179 1 0.965925 0.814724 0.505667
5180 1 0.976568 0.824445 0.504979
5110 1 0.984224 0.815082 0.50517
2381 1 0.993034 0.824503 0.504222
5258 1 0.51495 0.838621 0.502757
5253 1 0.504653 0.835356 0.502689
2590 1 0.513339 0.850939 0.502305
5257 1 0.529215 0.841065 0.503368
5183 1 0.545676 0.831782 0.504664
5321 1 0.541001 0.845274 0.503831
5263 1 0.552396 0.849676 0.504373
5182 1 0.557265 0.83654 0.50411
5189 1 0.569626 0.83984 0.505294
5186 1 0.566433 0.852334 0.504939
5185 1 0.580863 0.84394 0.505198
5116 1 0.596272 0.83438 0.505806
5187 1 0.59352 0.846676 0.505673
5119 1 0.609467 0.836089 0.50652
5192 1 0.605916 0.849197 0.505466
5124 1 0.622627 0.842631 0.506587
5056 1 0.634213 0.844543 0.505584
5121 1 0.646471 0.847219 0.506029
5132 1 0.650796 0.834814 0.504286
5193 1 0.66216 0.838637 0.504323
5055 1 0.658227 0.851119 0.505157
5058 1 0.673628 0.843249 0.505741
5128 1 0.685491 0.845647 0.504983
5052 1 0.689162 0.832882 0.505854
5129 1 0.701061 0.835809 0.504647
5127 1 0.697986 0.848884 0.504776
5062 1 0.713014 0.838728 0.503035
5066 1 0.725182 0.844753 0.504452
5064 1 0.738004 0.846444 0.5046
5281 1 0.74008 0.835494 0.504674
5215 1 0.753718 0.836917 0.504133
5142 1 0.750126 0.849931 0.50554
5208 1 0.764881 0.840214 0.50408
5218 1 0.776476 0.843816 0.50389
5221 1 0.790856 0.841869 0.501876
5084 1 0.802868 0.834729 0.501299
5224 1 0.813952 0.836917 0.500903
5160 1 0.86819 0.834429 0.500901
5158 1 0.858198 0.844689 0.499794
5164 1 0.868754 0.851244 0.500318
5231 1 0.878561 0.84085 0.502007
5165 1 0.886239 0.850461 0.50259
5096 1 0.896164 0.840016 0.503109
5168 1 0.904966 0.849597 0.503273
5098 1 0.915413 0.839206 0.503003
5243 1 0.92338 0.848005 0.504991
5174 1 0.941326 0.845124 0.505045
5170 1 0.928565 0.833775 0.505315
5172 1 0.949107 0.835444 0.505443
5245 1 0.960264 0.845313 0.504214
5175 1 0.967725 0.832889 0.505696
5178 1 0.978684 0.845592 0.505732
5176 1 0.985168 0.834756 0.504717
2383 1 0.993423 0.843903 0.504023
5251 1 0.501962 0.85392 0.500786
5181 1 0.511783 0.863782 0.502461
5112 1 0.525042 0.854111 0.504263
5254 1 0.522665 0.867122 0.502858
5395 1 0.535277 0.870915 0.503496
5184 1 0.537764 0.858125 0.502553
5198 1 0.551105 0.862521 0.501992
5196 1 0.562082 0.865111 0.504196
5330 1 0.574519 0.868322 0.504172
5261 1 0.578062 0.85631 0.504643
5331 1 0.590418 0.859019 0.505167
5265 1 0.603009 0.862666 0.506097
5120 1 0.617903 0.855288 0.507157
5118 1 0.615255 0.867708 0.506403
5268 1 0.62825 0.856835 0.507259
5123 1 0.640428 0.860204 0.506694
5054 1 0.651461 0.862591 0.504706
5273 1 0.666022 0.866435 0.504085
5205 1 0.66973 0.855307 0.504408
5190 1 0.682442 0.856014 0.504251
5195 1 0.676988 0.870136 0.503286
5122 1 0.693631 0.862138 0.503963
5067 1 0.708866 0.852979 0.504996
5060 1 0.706159 0.86594 0.505
5065 1 0.717088 0.868753 0.505802
5284 1 0.72128 0.855599 0.504601
5349 1 0.732627 0.858034 0.505634
5209 1 0.744362 0.862335 0.504346
5213 1 0.757868 0.867206 0.504069
5216 1 0.770943 0.857898 0.503806
5289 1 0.760582 0.853375 0.503855
5287 1 0.769864 0.869179 0.501914
5290 1 0.785126 0.859344 0.502114
5232 1 0.863776 0.869592 0.500223
5166 1 0.874911 0.861612 0.499682
5301 1 0.885241 0.86612 0.501762
5234 1 0.895607 0.857098 0.501902
5237 1 0.903207 0.86779 0.50245
5241 1 0.91266 0.858088 0.503201
5239 1 0.924523 0.865001 0.503788
5244 1 0.932065 0.855676 0.504579
5311 1 0.94307 0.86358 0.503896
5315 1 0.959197 0.863308 0.504679
5246 1 0.950337 0.854133 0.504437
5247 1 0.969832 0.855841 0.505666
5250 1 0.979104 0.863426 0.504372
5249 1 0.988188 0.853088 0.504894
2316 1 0.995257 0.86306 0.502699
2589 1 0.510185 0.881607 0.500785
5259 1 0.504545 0.872679 0.500798
5252 1 0.521615 0.881235 0.501891
5397 1 0.530774 0.883931 0.503449
5256 1 0.547378 0.874522 0.503445
5327 1 0.54286 0.886956 0.503143
5255 1 0.560307 0.876845 0.503146
5329 1 0.571977 0.882206 0.503787
5399 1 0.556088 0.888611 0.502202
5267 1 0.586831 0.870903 0.5036
5264 1 0.584496 0.88257 0.502072
5398 1 0.598456 0.87362 0.50381
5471 1 0.595268 0.884419 0.50103
5115 1 0.611224 0.878037 0.505921
5191 1 0.6274 0.871329 0.506635
5200 1 0.624072 0.882896 0.505301
5262 1 0.638302 0.873694 0.507117
5202 1 0.63634 0.887395 0.505599
5272 1 0.648888 0.887751 0.504783
5338 1 0.650789 0.875549 0.505664
5130 1 0.661146 0.877818 0.503684
5137 1 0.67387 0.881825 0.502729
5206 1 0.687991 0.873591 0.504675
5203 1 0.68653 0.885533 0.502636
5210 1 0.700722 0.876241 0.5034
5134 1 0.711802 0.881153 0.504859
5144 1 0.72772 0.873358 0.504537
5277 1 0.724463 0.885656 0.504941
5350 1 0.737078 0.888393 0.504978
5212 1 0.752728 0.878592 0.502984
5219 1 0.742149 0.874817 0.504749
5214 1 0.769459 0.888162 0.501292
5351 1 0.76518 0.878667 0.502594
5421 1 0.781364 0.884481 0.501106
5222 1 0.781494 0.872496 0.500677
5294 1 0.794269 0.871591 0.499418
5292 1 0.805844 0.880445 0.500067
5229 1 0.849803 0.870667 0.499479
5297 1 0.832561 0.871988 0.499732
5299 1 0.857578 0.879724 0.500116
5302 1 0.869852 0.887416 0.502291
5233 1 0.875749 0.877005 0.50049
5304 1 0.883567 0.885288 0.501834
5303 1 0.903369 0.884052 0.502747
5235 1 0.893708 0.873792 0.503165
5236 1 0.913541 0.873425 0.502942
5238 1 0.922498 0.881835 0.503231
5242 1 0.932761 0.874304 0.503198
5308 1 0.941341 0.881694 0.50294
5312 1 0.959588 0.882021 0.504621
5313 1 0.950902 0.873318 0.504801
2451 1 0.978108 0.882613 0.502795
5317 1 0.96676 0.87287 0.505563
2382 1 0.986707 0.873576 0.503124
5248 1 0.996583 0.880566 0.502456
2587 1 0.519393 0.894747 0.501906
2520 1 0.507265 0.894521 0.500886
5323 1 0.521022 0.907204 0.502045
2588 1 0.52997 0.897357 0.50169
5322 1 0.543793 0.897115 0.502226
5325 1 0.553954 0.901497 0.502628
5393 1 0.538692 0.90743 0.502706
5260 1 0.569083 0.891735 0.501455
5396 1 0.565394 0.902063 0.500663
5326 1 0.580449 0.894353 0.502549
5472 1 0.5827 0.905428 0.503293
5400 1 0.606692 0.890318 0.504253
5404 1 0.593072 0.900285 0.502418
5539 1 0.611587 0.903474 0.504701
5199 1 0.621348 0.894912 0.504023
5194 1 0.631445 0.8974 0.50368
5339 1 0.643545 0.899742 0.504309
5266 1 0.655245 0.904206 0.504926
5131 1 0.659964 0.893063 0.504482
5133 1 0.670152 0.894776 0.502404
5271 1 0.685138 0.89978 0.502569
5340 1 0.699391 0.889254 0.504546
5136 1 0.69651 0.902316 0.503137
5345 1 0.710522 0.893998 0.503487
5278 1 0.708006 0.906056 0.502687
5274 1 0.721765 0.897498 0.502941
5286 1 0.733918 0.901992 0.503252
5420 1 0.750553 0.890797 0.502544
5276 1 0.745456 0.90236 0.502115
5489 1 0.758437 0.905309 0.501284
5355 1 0.772766 0.899766 0.501994
5280 1 0.760916 0.895796 0.501316
5293 1 0.78361 0.900414 0.500496
5365 1 0.861561 0.8959 0.50131
5371 1 0.88844 0.901725 0.501452
5369 1 0.870541 0.904452 0.500502
5368 1 0.877441 0.896332 0.501292
5306 1 0.905452 0.900826 0.502675
5373 1 0.895993 0.892482 0.502506
5305 1 0.914744 0.892131 0.502281
5307 1 0.925604 0.899181 0.50168
5240 1 0.932637 0.890307 0.502359
5310 1 0.944077 0.899561 0.501349
5314 1 0.949113 0.890308 0.503812
5383 1 0.959773 0.900796 0.50295
5384 1 0.978603 0.900897 0.504868
5385 1 0.967315 0.891175 0.502907
5389 1 0.994707 0.899998 0.501265
5316 1 0.986375 0.890498 0.502822
5394 1 0.521169 0.920099 0.500481
5469 1 0.530528 0.9145 0.502152
5463 1 0.537986 0.925352 0.501624
5324 1 0.546854 0.915951 0.50252
5467 1 0.55686 0.913785 0.502559
5328 1 0.568652 0.914445 0.502613
5470 1 0.556546 0.925097 0.501782
5544 1 0.589436 0.917967 0.503386
5402 1 0.580141 0.923802 0.50403
5538 1 0.600094 0.909862 0.504098
5332 1 0.60685 0.922441 0.503941
5334 1 0.626311 0.909237 0.50429
5478 1 0.617036 0.915086 0.502741
5479 1 0.634159 0.922832 0.50407
5197 1 0.642181 0.91101 0.502953
5135 1 0.652026 0.916279 0.503835
5270 1 0.664252 0.918789 0.503616
5341 1 0.668681 0.907617 0.5021
5343 1 0.675859 0.923246 0.502203
5409 1 0.679795 0.91126 0.502385
5279 1 0.691465 0.914535 0.503201
5344 1 0.687521 0.926533 0.503124
5204 1 0.717615 0.911972 0.501918
5347 1 0.70432 0.918618 0.502169
5418 1 0.715165 0.923442 0.501592
5417 1 0.730336 0.91329 0.501485
5495 1 0.72915 0.925208 0.501545
5422 1 0.756343 0.921115 0.501431
5207 1 0.744242 0.916006 0.500145
5431 1 0.767442 0.924077 0.501731
5282 1 0.768308 0.910676 0.501436
5432 1 0.795479 0.924704 0.500694
5370 1 0.879286 0.912913 0.499765
5372 1 0.898045 0.909829 0.500822
5374 1 0.907006 0.91863 0.501508
5375 1 0.915569 0.910268 0.503301
5379 1 0.922475 0.918166 0.501414
5309 1 0.933194 0.909791 0.500595
5380 1 0.941615 0.918178 0.501269
5381 1 0.952252 0.911181 0.502693
5453 1 0.960204 0.919045 0.501712
5455 1 0.969974 0.910266 0.503124
5387 1 0.978391 0.917438 0.502339
5386 1 0.986476 0.909654 0.501624
5536 1 0.526543 0.931914 0.501031
5465 1 0.531068 0.942722 0.50227
5466 1 0.553815 0.934546 0.503524
5468 1 0.543347 0.937698 0.501608
2809 1 0.567437 0.928227 0.50308
5540 1 0.571136 0.938695 0.504368
5535 1 0.559365 0.945289 0.502524
5405 1 0.584793 0.935029 0.504882
5403 1 0.595071 0.927648 0.503124
5408 1 0.599267 0.938835 0.503309
5401 1 0.612183 0.935721 0.504098
5333 1 0.621997 0.928055 0.504264
5410 1 0.627741 0.940086 0.505361
5337 1 0.639011 0.934936 0.505182
5335 1 0.647842 0.927572 0.504746
5414 1 0.655975 0.94277 0.506263
5483 1 0.659966 0.931432 0.503438
5275 1 0.671531 0.933186 0.504849
5482 1 0.685211 0.938297 0.505275
5342 1 0.698054 0.931656 0.503934
5346 1 0.710222 0.935526 0.502838
5416 1 0.720591 0.940944 0.501915
5491 1 0.736586 0.941701 0.501242
5348 1 0.751591 0.933873 0.501607
5354 1 0.777241 0.938359 0.500697
5360 1 0.766543 0.935096 0.502484
5357 1 0.779488 0.926116 0.500626
5446 1 0.889236 0.938729 0.499341
5376 1 0.908384 0.93763 0.501325
5377 1 0.916598 0.928485 0.501291
5378 1 0.926708 0.936494 0.501935
5448 1 0.933143 0.92598 0.501211
5451 1 0.942419 0.936579 0.502273
5452 1 0.959095 0.935248 0.500438
5382 1 0.951025 0.927013 0.501497
5454 1 0.968424 0.926289 0.501269
139 1 0.525339 0.960268 0.50143
69 1 0.536961 0.956236 0.502108
5537 1 0.548493 0.949443 0.503177
2805 1 0.554158 0.961519 0.502266
2807 1 0.565075 0.956252 0.503826
5541 1 0.588842 0.945507 0.503846
5545 1 0.575817 0.950496 0.503492
2806 1 0.582649 0.960678 0.50369
5546 1 0.594634 0.956949 0.503746
5473 1 0.604534 0.951508 0.503896
5406 1 0.615926 0.945974 0.50565
5412 1 0.622352 0.956272 0.507923
5269 1 0.644865 0.946566 0.505349
5551 1 0.632696 0.950478 0.50698
2821 1 0.636713 0.963784 0.506967
5411 1 0.651753 0.956937 0.50659
2825 1 0.663173 0.95085 0.506271
5559 1 0.674096 0.945688 0.505721
5556 1 0.6784 0.956855 0.506179
5494 1 0.703239 0.943468 0.503583
5413 1 0.691275 0.949234 0.505452
5490 1 0.697037 0.960447 0.506179
5488 1 0.706766 0.954818 0.504666
5423 1 0.720674 0.956119 0.503097
5424 1 0.739456 0.96186 0.502609
5487 1 0.731725 0.952456 0.501745
5500 1 0.749805 0.956046 0.501577
5428 1 0.747948 0.94458 0.501501
5419 1 0.776395 0.957928 0.500353
5283 1 0.770341 0.947417 0.501693
5570 1 0.76034 0.951129 0.501096
5519 1 0.890788 0.955821 0.50139
5588 1 0.897995 0.946214 0.500282
5589 1 0.90767 0.954863 0.500425
5447 1 0.916408 0.944113 0.500967
5449 1 0.935665 0.945976 0.500628
5520 1 0.926543 0.955436 0.500384
5521 1 0.945356 0.954874 0.500701
5450 1 0.952585 0.944585 0.501053
5523 1 0.96295 0.95259 0.499417
5599 1 0.971783 0.963553 0.499563
68 1 0.514687 0.967616 0.499185
2944 1 0.516908 0.978629 0.500198
2873 1 0.529861 0.973236 0.501295
5534 1 0.5421 0.967857 0.503398
5533 1 0.547648 0.978902 0.503272
2804 1 0.57202 0.967529 0.50328
2882 1 0.557735 0.973082 0.502982
2879 1 0.578482 0.97723 0.50369
5543 1 0.591041 0.974253 0.505103
2813 1 0.600711 0.968338 0.503808
5407 1 0.612105 0.963192 0.505081
2881 1 0.616991 0.974596 0.506226
5476 1 0.626651 0.967963 0.506733
2820 1 0.644088 0.973465 0.506844
5336 1 0.633707 0.979775 0.50653
5549 1 0.659567 0.980071 0.50714
5480 1 0.654849 0.968266 0.506933
5485 1 0.672534 0.97288 0.507181
5481 1 0.666661 0.963032 0.507209
5555 1 0.684718 0.968096 0.506475
5415 1 0.69007 0.978449 0.505887
5484 1 0.701561 0.972941 0.505222
5486 1 0.717375 0.978562 0.502351
5492 1 0.712527 0.966661 0.504481
5560 1 0.729099 0.970436 0.50339
2846 1 0.754052 0.967705 0.502608
5493 1 0.745813 0.973931 0.503659
5426 1 0.76426 0.963508 0.501781
5571 1 0.771803 0.97267 0.502367
5569 1 0.789259 0.978981 0.500736
5582 1 0.863897 0.967963 0.499685
2861 1 0.882728 0.96636 0.50143
2870 1 0.899524 0.963742 0.501785
2858 1 0.89248 0.974785 0.501531
5591 1 0.910306 0.97457 0.501637
2859 1 0.917411 0.964156 0.500628
5600 1 0.94359 0.973963 0.499467
5594 1 0.925827 0.971876 0.501202
140 1 0.511361 0.995868 0.500218
2946 1 0.535121 0.984579 0.502902
3016 1 0.522692 0.989054 0.501686
2945 1 0.551802 0.991947 0.503361
2948 1 0.539206 0.997985 0.503952
2875 1 0.570666 0.994629 0.502256
2872 1 0.563593 0.984411 0.502664
2956 1 0.588698 0.999873 0.502399
5532 1 0.582394 0.989735 0.503495
2811 1 0.599986 0.996717 0.504896
2877 1 0.594723 0.985111 0.505081
5475 1 0.608068 0.980282 0.505862
5547 1 0.622307 0.986352 0.505605
5548 1 0.630257 0.996921 0.505653
2876 1 0.612257 0.992562 0.506909
2824 1 0.640024 0.991989 0.505835
5553 1 0.665499 0.990213 0.507144
5552 1 0.648088 0.984808 0.506348
2823 1 0.654288 0.998436 0.506622
2891 1 0.682688 0.996426 0.507357
2822 1 0.678298 0.98349 0.507219
2893 1 0.694056 0.990637 0.505516
2895 1 0.706156 0.984209 0.503431
2899 1 0.711044 0.995996 0.504459
2903 1 0.72999 0.998582 0.504241
5565 1 0.72409 0.988366 0.503699
5567 1 0.73386 0.981049 0.503023
5496 1 0.756951 0.999496 0.502868
5501 1 0.751137 0.984941 0.503005
5427 1 0.74057 0.992021 0.503413
5498 1 0.779069 0.985105 0.502307
5497 1 0.763248 0.981346 0.502603
5568 1 0.769202 0.991635 0.503145
2911 1 0.805962 0.999548 0.501288
2915 1 0.796586 0.989691 0.500457
2920 1 0.807638 0.982858 0.500128
2916 1 0.817292 0.992643 0.500353
2848 1 0.829993 0.999228 0.501989
5576 1 0.827388 0.987104 0.50037
2847 1 0.841741 0.995413 0.500654
5517 1 0.854262 0.986205 0.500332
5585 1 0.883205 0.984362 0.502529
2851 1 0.871023 0.992527 0.501028
2853 1 0.892929 0.994322 0.502624
5518 1 0.901036 0.984915 0.502117
5596 1 0.920254 0.983085 0.502148
2929 1 0.910829 0.993026 0.501741
5595 1 0.937938 0.982339 0.500874
2734 1 0.954531 0.999789 0.500982
2732 1 0.964403 0.990964 0.499493
