ITEM: TIMESTEP
399800
ITEM: NUMBER OF ATOMS
5600
ITEM: BOX BOUNDS pp pp pp
-3.7835000000000008e+01 3.7835000000000008e+01
-3.7446938459639213e+01 3.7446938459639213e+01
-6.4860000000000014e+01 6.4860000000000014e+01
ITEM: ATOMS id type xs ys zs
77 1 0.0525712 0.0138941 0.497772
75 1 0.0407375 0.00457458 0.499056
6 1 0.055716 0.00162962 0.498995
8 1 0.0671129 0.0154851 0.4972
2742 1 0.0704305 0.0023536 0.498338
7 1 0.0796984 0.0155662 0.49797
14 1 0.0944056 0.0152144 0.497803
9 1 0.083159 0.00345118 0.496239
87 1 0.106229 0.0160433 0.498771
15 1 0.098593 0.0018169 0.497908
33 1 0.221382 0.0109931 0.499595
34 1 0.232728 0.000822389 0.497927
103 1 0.23676 0.0118789 0.498312
40 1 0.259266 0.00213519 0.498743
38 1 0.267049 0.0126684 0.499171
105 1 0.250704 0.0112445 0.498167
41 1 0.279648 0.0121638 0.499262
113 1 0.294707 0.0119967 0.499095
51 1 0.322819 0.0105178 0.498854
48 1 0.308434 0.0104527 0.499036
46 1 0.336821 0.00984422 0.497689
120 1 0.351437 0.0107493 0.497746
2782 1 0.358375 0.0011975 0.497316
123 1 0.366091 0.013055 0.498353
54 1 0.382372 0.0129965 0.498834
56 1 0.395492 0.0170435 0.496925
55 1 0.389571 0.000507863 0.499361
2790 1 0.40223 0.00370403 0.49786
57 1 0.41048 0.0160766 0.49732
58 1 0.416205 0.00365205 0.497483
60 1 0.426433 0.0157963 0.496975
63 1 0.440516 0.0135851 0.49526
2791 1 0.430904 0.00339031 0.497169
62 1 0.455435 0.0161945 0.497006
61 1 0.445156 2.36352e-05 0.496892
67 1 0.458862 0.00316926 0.495677
64 1 0.467824 0.0148085 0.497093
2798 1 0.470926 0.00187973 0.496769
70 1 0.49699 0.0124234 0.498071
137 1 0.484225 0.0111804 0.497914
147 1 0.0355168 0.038065 0.499518
10 1 0.056894 0.0289644 0.496359
79 1 0.0474484 0.039257 0.497736
11 1 0.0690766 0.0278595 0.497392
82 1 0.0767151 0.0399554 0.496031
83 1 0.0859237 0.0260976 0.497797
84 1 0.0926147 0.0392266 0.496146
88 1 0.113321 0.0269224 0.49681
85 1 0.0998357 0.029265 0.497379
86 1 0.109252 0.039898 0.497524
91 1 0.141021 0.0298353 0.499031
104 1 0.228138 0.0241357 0.498301
101 1 0.214156 0.0245722 0.499989
102 1 0.220819 0.0366531 0.49995
106 1 0.243074 0.0246429 0.498536
173 1 0.236581 0.0370737 0.499339
177 1 0.251611 0.0361028 0.499062
107 1 0.265829 0.0356478 0.499636
175 1 0.257842 0.0223091 0.499755
112 1 0.278016 0.0391003 0.498124
109 1 0.274708 0.0232162 0.498873
111 1 0.286841 0.0261682 0.498639
115 1 0.292899 0.0383742 0.499196
44 1 0.301107 0.0262533 0.499567
116 1 0.322067 0.0361628 0.498732
117 1 0.315788 0.0226372 0.499335
114 1 0.30843 0.0391214 0.499288
50 1 0.328488 0.0236625 0.499698
118 1 0.343418 0.0222677 0.497398
119 1 0.337149 0.0353618 0.499297
52 1 0.352422 0.0376471 0.49704
121 1 0.356559 0.023867 0.497832
191 1 0.363878 0.0367333 0.498699
122 1 0.370919 0.0249008 0.498406
124 1 0.377824 0.0384559 0.497866
125 1 0.386699 0.027587 0.497258
127 1 0.402953 0.0283722 0.496167
126 1 0.393622 0.0395883 0.497001
129 1 0.418578 0.0272802 0.497144
128 1 0.409116 0.0391217 0.497363
131 1 0.434636 0.0275178 0.496719
130 1 0.42504 0.0396992 0.497922
135 1 0.448231 0.0274462 0.49775
136 1 0.461779 0.0289336 0.497145
66 1 0.475833 0.0261385 0.496928
139 1 0.488216 0.025042 0.499411
138 1 0.480815 0.0395059 0.497417
140 1 0.494429 0.0387277 0.499653
146 1 0.0272701 0.048983 0.499734
81 1 0.0554182 0.0515203 0.495663
149 1 0.0430505 0.0494967 0.498456
12 1 0.0619044 0.0407689 0.495351
80 1 0.0711541 0.0524311 0.495012
153 1 0.0849546 0.0508529 0.494691
155 1 0.100691 0.0513508 0.496528
157 1 0.121108 0.040839 0.497266
159 1 0.128298 0.052736 0.499102
89 1 0.136518 0.0415162 0.496894
161 1 0.140958 0.0535825 0.499161
178 1 0.261995 0.0586667 0.499854
179 1 0.271027 0.0479384 0.497477
181 1 0.286147 0.0485786 0.497918
183 1 0.301909 0.0486873 0.497808
185 1 0.314959 0.049269 0.498318
187 1 0.328982 0.0482638 0.498504
190 1 0.344497 0.0470032 0.498608
189 1 0.358724 0.0509403 0.496629
195 1 0.372137 0.0498061 0.496998
197 1 0.384198 0.0496637 0.496552
199 1 0.40002 0.0509677 0.495263
201 1 0.416255 0.0519085 0.497812
133 1 0.437339 0.0403756 0.497776
132 1 0.428801 0.0519499 0.498245
134 1 0.451088 0.0400707 0.497708
203 1 0.442438 0.0533917 0.498232
205 1 0.458816 0.0514639 0.498219
207 1 0.466613 0.0405936 0.497761
209 1 0.473211 0.051889 0.499001
2942 1 0.488373 0.0510219 0.497373
144 1 0.0480735 0.0631097 0.498617
217 1 0.0569581 0.0741969 0.496395
148 1 0.0402838 0.0726666 0.498166
150 1 0.063379 0.0635763 0.497554
221 1 0.0710049 0.076916 0.496325
151 1 0.0769899 0.0647729 0.495914
152 1 0.091369 0.0634349 0.495849
223 1 0.0878487 0.0758673 0.496803
156 1 0.106684 0.0633133 0.498439
225 1 0.0995469 0.0772302 0.498862
228 1 0.113466 0.0770332 0.498983
158 1 0.134783 0.0661919 0.499976
180 1 0.276711 0.0605369 0.497832
250 1 0.269957 0.0714926 0.498152
251 1 0.285136 0.0734774 0.497266
253 1 0.2967 0.0756 0.496965
182 1 0.292287 0.0621796 0.496971
184 1 0.306275 0.0629228 0.497365
186 1 0.3202 0.0624583 0.497221
255 1 0.315095 0.0728406 0.497223
188 1 0.332759 0.0612562 0.497728
257 1 0.328961 0.0739584 0.498082
259 1 0.341926 0.0726583 0.49714
192 1 0.348403 0.0616388 0.496586
333 1 0.355922 0.0757844 0.496254
261 1 0.363463 0.0620995 0.495644
193 1 0.376966 0.0623237 0.495907
263 1 0.370943 0.0754424 0.495611
196 1 0.388639 0.0616666 0.495131
194 1 0.38562 0.0754223 0.49547
267 1 0.39897 0.0757919 0.493519
198 1 0.405818 0.0611704 0.496049
269 1 0.41463 0.0758893 0.495389
200 1 0.424453 0.064364 0.497697
271 1 0.429666 0.0789293 0.495477
202 1 0.438388 0.0676755 0.497926
204 1 0.451364 0.0662954 0.496571
273 1 0.445159 0.0784124 0.495699
275 1 0.456484 0.0772895 0.497468
206 1 0.464277 0.064302 0.497369
277 1 0.471161 0.0769327 0.498084
208 1 0.479723 0.0637134 0.497269
279 1 0.483389 0.077164 0.498101
210 1 0.493005 0.0631282 0.4985
3011 1 0.497286 0.0778499 0.498915
216 1 0.0492609 0.0820866 0.498794
287 1 0.0428742 0.0995161 0.499938
219 1 0.0633031 0.0859379 0.497865
220 1 0.0698869 0.0989241 0.499023
222 1 0.0785785 0.086502 0.4966
224 1 0.0929751 0.0906868 0.497342
293 1 0.0862913 0.0996187 0.498618
226 1 0.108159 0.0900119 0.498427
301 1 0.122336 0.091155 0.499891
319 1 0.274281 0.0831168 0.499449
321 1 0.2813 0.0970467 0.499571
252 1 0.287089 0.0884277 0.496877
323 1 0.295255 0.0962605 0.498772
254 1 0.304473 0.0847756 0.497176
256 1 0.31896 0.0887345 0.498559
325 1 0.308776 0.0977849 0.497652
327 1 0.324341 0.099108 0.498144
329 1 0.338439 0.097854 0.497792
258 1 0.333673 0.0870956 0.497878
260 1 0.348268 0.0859137 0.497513
331 1 0.353105 0.0982861 0.495138
262 1 0.361453 0.0871569 0.497002
265 1 0.378454 0.0869535 0.495981
264 1 0.370509 0.0980372 0.495757
266 1 0.392723 0.0884617 0.494355
268 1 0.407933 0.0878911 0.494235
270 1 0.420986 0.0893299 0.494662
272 1 0.437093 0.0902895 0.495232
274 1 0.451231 0.0901009 0.497567
276 1 0.464863 0.0921041 0.49859
278 1 0.478235 0.0896376 0.499871
289 1 0.0648921 0.110899 0.499673
292 1 0.0789685 0.111168 0.49909
295 1 0.0995817 0.104385 0.49804
297 1 0.114684 0.103358 0.499882
324 1 0.30232 0.112178 0.497718
322 1 0.28912 0.110153 0.499005
326 1 0.317611 0.110531 0.495569
328 1 0.334936 0.108897 0.497444
330 1 0.347158 0.110557 0.494481
332 1 0.362214 0.11033 0.494659
334 1 0.376726 0.113377 0.493689
335 1 0.385348 0.10114 0.495164
337 1 0.399277 0.101852 0.494719
336 1 0.390443 0.114286 0.495502
339 1 0.41401 0.102068 0.495641
338 1 0.406686 0.112902 0.497674
340 1 0.423083 0.114563 0.496786
341 1 0.428547 0.102335 0.496028
342 1 0.435362 0.115209 0.497609
345 1 0.458966 0.103247 0.497055
343 1 0.443856 0.103956 0.495964
344 1 0.452107 0.11406 0.494868
347 1 0.474896 0.103081 0.499317
349 1 0.488631 0.10324 0.499543
361 1 0.0656231 0.139184 0.499246
393 1 0.281466 0.12578 0.49985
395 1 0.296388 0.126046 0.499258
394 1 0.306393 0.135486 0.497945
396 1 0.310885 0.121599 0.496551
467 1 0.318255 0.132238 0.496465
397 1 0.328573 0.123472 0.497073
398 1 0.334206 0.135079 0.496139
399 1 0.341986 0.124254 0.495637
401 1 0.355712 0.123897 0.49455
402 1 0.360388 0.138541 0.49399
400 1 0.348011 0.136676 0.496341
403 1 0.370331 0.123937 0.493782
405 1 0.38431 0.126064 0.493188
404 1 0.376061 0.136656 0.494441
406 1 0.387512 0.139039 0.495319
407 1 0.396142 0.126403 0.496775
408 1 0.402142 0.138656 0.498123
409 1 0.41496 0.12551 0.498899
410 1 0.41896 0.137205 0.498531
411 1 0.427575 0.128604 0.498064
413 1 0.443813 0.127217 0.498059
415 1 0.457681 0.124934 0.498436
414 1 0.451242 0.139959 0.499071
417 1 0.472436 0.12843 0.499404
431 1 0.0718757 0.152284 0.499628
434 1 0.0871973 0.150931 0.499276
370 1 0.127965 0.15467 0.499754
392 1 0.300412 0.148711 0.499599
466 1 0.32581 0.151273 0.498621
465 1 0.313145 0.148534 0.497552
469 1 0.338789 0.149235 0.498839
471 1 0.351403 0.147949 0.495965
472 1 0.360082 0.158819 0.49711
473 1 0.3684 0.149825 0.4955
475 1 0.38112 0.1526 0.496078
477 1 0.395611 0.150726 0.496985
479 1 0.41137 0.149152 0.497504
481 1 0.427014 0.149435 0.497079
412 1 0.436814 0.141535 0.497028
483 1 0.445292 0.153133 0.498651
485 1 0.457682 0.152874 0.49982
433 1 0.0753886 0.163904 0.499503
503 1 0.0833758 0.177388 0.498854
432 1 0.0896456 0.16624 0.499345
505 1 0.0981059 0.176463 0.498557
436 1 0.104419 0.1662 0.498917
507 1 0.112046 0.176842 0.499895
440 1 0.132981 0.166529 0.499574
509 1 0.126614 0.178725 0.498897
442 1 0.14649 0.165907 0.499612
511 1 0.141753 0.17985 0.498717
513 1 0.153692 0.177604 0.499768
470 1 0.346046 0.160968 0.498953
468 1 0.33285 0.162088 0.499574
539 1 0.340002 0.17478 0.499845
541 1 0.351896 0.173302 0.497648
474 1 0.374995 0.163025 0.495572
545 1 0.380785 0.175579 0.497325
543 1 0.366218 0.171346 0.498099
547 1 0.400054 0.179216 0.498742
476 1 0.39012 0.163836 0.495739
478 1 0.402716 0.162983 0.495552
549 1 0.412711 0.17361 0.497814
480 1 0.417484 0.161032 0.498976
482 1 0.433634 0.162524 0.499641
484 1 0.448369 0.166438 0.49992
504 1 0.0914007 0.18908 0.497877
502 1 0.0783473 0.189498 0.498816
506 1 0.104135 0.190227 0.498047
508 1 0.118039 0.190892 0.498624
512 1 0.149507 0.192632 0.4994
514 1 0.159938 0.189607 0.499746
542 1 0.360426 0.18363 0.499218
613 1 0.365369 0.195877 0.499878
544 1 0.372632 0.185196 0.498105
546 1 0.387874 0.186391 0.497064
617 1 0.396085 0.196422 0.499219
548 1 0.407212 0.188159 0.499525
571 1 0.0718377 0.203523 0.499294
572 1 0.0783653 0.216215 0.499634
573 1 0.0851307 0.20248 0.49851
574 1 0.0935164 0.214893 0.497097
575 1 0.0977592 0.202617 0.49639
647 1 0.105991 0.214237 0.49599
577 1 0.110646 0.201541 0.496714
578 1 0.126663 0.202259 0.497372
576 1 0.117225 0.21519 0.496963
580 1 0.133073 0.215326 0.496555
581 1 0.146518 0.214565 0.497966
579 1 0.138755 0.20235 0.49834
583 1 0.154243 0.203386 0.499087
584 1 0.159439 0.216177 0.498237
639 1 0.0593999 0.225065 0.499445
641 1 0.0709202 0.228355 0.498934
643 1 0.085322 0.228224 0.49727
640 1 0.077414 0.239601 0.499141
649 1 0.112198 0.228423 0.495812
645 1 0.0988897 0.225373 0.495994
646 1 0.106056 0.239246 0.494967
651 1 0.127773 0.229331 0.496303
582 1 0.140452 0.227009 0.496429
653 1 0.15339 0.228284 0.496931
650 1 0.135023 0.239337 0.498217
652 1 0.147758 0.239766 0.496618
655 1 0.165552 0.228247 0.498964
588 1 0.182767 0.230492 0.4985
743 1 0.291047 0.233573 0.499347
642 1 0.0913922 0.240448 0.49524
713 1 0.0842503 0.251773 0.49849
717 1 0.111365 0.250719 0.496284
644 1 0.100289 0.251868 0.496749
648 1 0.120393 0.240272 0.496913
719 1 0.127846 0.249932 0.497249
721 1 0.137233 0.252384 0.498956
723 1 0.150629 0.25394 0.498571
725 1 0.168409 0.254233 0.497778
654 1 0.160537 0.241515 0.498749
727 1 0.181434 0.254756 0.496311
656 1 0.174891 0.240295 0.497635
657 1 0.189501 0.243701 0.498497
730 1 0.199759 0.25506 0.498692
729 1 0.203793 0.240075 0.499698
731 1 0.21384 0.254827 0.499876
740 1 0.284725 0.247675 0.498174
742 1 0.278043 0.258309 0.498218
737 1 0.27106 0.247971 0.499408
741 1 0.298598 0.24518 0.499113
744 1 0.291876 0.259551 0.499425
746 1 0.306048 0.258628 0.499169
714 1 0.0912262 0.264272 0.497687
716 1 0.113147 0.275887 0.49824
715 1 0.105121 0.265317 0.496839
783 1 0.10034 0.276902 0.499576
787 1 0.127661 0.273772 0.497571
718 1 0.118599 0.262265 0.497606
720 1 0.135628 0.264042 0.497916
722 1 0.14651 0.266916 0.498759
791 1 0.139815 0.276951 0.498351
793 1 0.153216 0.278539 0.497838
794 1 0.166964 0.278015 0.49851
795 1 0.16033 0.265476 0.497161
726 1 0.173707 0.266856 0.496433
728 1 0.189186 0.264132 0.497533
724 1 0.182062 0.275157 0.498465
799 1 0.200248 0.272401 0.497794
801 1 0.210567 0.265044 0.498165
800 1 0.214772 0.275941 0.498287
732 1 0.223105 0.264278 0.499089
805 1 0.246681 0.274816 0.499598
807 1 0.262291 0.270795 0.499806
809 1 0.274377 0.271733 0.498206
811 1 0.289184 0.274631 0.498809
813 1 0.30214 0.272941 0.499168
789 1 0.133643 0.290422 0.499971
857 1 0.122056 0.287871 0.499126
796 1 0.174857 0.288749 0.49929
867 1 0.186033 0.299708 0.499096
658 1 0.204709 0.283775 0.498852
869 1 0.200209 0.298043 0.499747
798 1 0.217322 0.290779 0.499517
804 1 0.236154 0.286452 0.499644
806 1 0.253062 0.285331 0.499205
808 1 0.268112 0.285199 0.49829
877 1 0.259305 0.295988 0.499138
810 1 0.281152 0.28449 0.499081
881 1 0.287791 0.298677 0.498121
878 1 0.273271 0.297448 0.498056
883 1 0.30357 0.297791 0.498059
812 1 0.295925 0.286408 0.499328
814 1 0.309553 0.283797 0.499425
885 1 0.316157 0.298842 0.498746
856 1 0.112185 0.303312 0.499012
861 1 0.147344 0.315146 0.498248
871 1 0.213079 0.302703 0.499772
949 1 0.266039 0.30902 0.499333
879 1 0.280696 0.310433 0.497529
880 1 0.293848 0.309964 0.496063
884 1 0.307355 0.310549 0.496676
886 1 0.322618 0.312723 0.497077
888 1 0.335153 0.313958 0.498708
890 1 0.346784 0.31354 0.49941
898 1 0.404549 0.313208 0.499922
900 1 0.421117 0.312207 0.499468
902 1 0.433143 0.310212 0.499313
860 1 0.144243 0.326074 0.498904
1003 1 0.135469 0.337887 0.499903
862 1 0.155688 0.325564 0.498786
936 1 0.174959 0.337928 0.499787
952 1 0.278173 0.333414 0.499873
950 1 0.286472 0.321874 0.497957
951 1 0.274189 0.321449 0.498669
953 1 0.291071 0.334766 0.496551
954 1 0.305302 0.336392 0.494348
882 1 0.299576 0.322392 0.495253
956 1 0.320525 0.338834 0.49643
955 1 0.316157 0.32469 0.49479
957 1 0.328361 0.326565 0.496654
958 1 0.336716 0.338614 0.4988
959 1 0.342057 0.325734 0.499036
961 1 0.355945 0.325972 0.498963
960 1 0.351729 0.336904 0.49946
965 1 0.383172 0.324851 0.49944
964 1 0.379166 0.337509 0.499468
966 1 0.39227 0.334513 0.499863
970 1 0.420881 0.336465 0.498644
968 1 0.407525 0.334913 0.499691
969 1 0.414341 0.323205 0.498672
971 1 0.427918 0.322935 0.499586
989 1 0.0684871 0.350594 0.4994
924 1 0.0982633 0.351689 0.499624
930 1 0.140934 0.351728 0.498927
1005 1 0.15422 0.35161 0.499454
1021 1 0.284507 0.345757 0.498021
1022 1 0.278819 0.359843 0.498169
1019 1 0.273487 0.346253 0.499483
1023 1 0.297611 0.34935 0.496846
1025 1 0.312555 0.348998 0.496901
1027 1 0.327911 0.350295 0.498056
1035 1 0.383072 0.350738 0.498385
984 1 0.0170281 0.363736 0.498107
1053 1 0.0120049 0.377604 0.498033
982 1 0.00215086 0.361652 0.499826
1057 1 0.0326073 0.367204 0.499309
1055 1 0.0253707 0.379476 0.498653
990 1 0.0527548 0.377996 0.499018
1061 1 0.0661997 0.376195 0.498154
992 1 0.0609254 0.363689 0.499818
993 1 0.0740045 0.363379 0.497926
1063 1 0.0835388 0.37582 0.497382
1067 1 0.0881114 0.362954 0.498919
1065 1 0.0969519 0.373818 0.49939
997 1 0.104812 0.36256 0.499504
996 1 0.109964 0.376167 0.498939
1069 1 0.126883 0.377734 0.499217
1000 1 0.120952 0.365052 0.499973
1072 1 0.150503 0.363536 0.499383
1073 1 0.157097 0.377358 0.499609
931 1 0.164485 0.364895 0.499914
1078 1 0.185673 0.376858 0.498634
1002 1 0.179597 0.365593 0.498803
1008 1 0.200358 0.375878 0.499268
1009 1 0.193955 0.363632 0.499323
1089 1 0.270807 0.371925 0.498496
1091 1 0.283354 0.373998 0.498683
1020 1 0.291512 0.363769 0.497623
1093 1 0.299133 0.375366 0.497907
1024 1 0.30464 0.362627 0.498678
1026 1 0.319799 0.36329 0.497869
1095 1 0.314284 0.374698 0.497755
1097 1 0.32854 0.374634 0.496893
1028 1 0.33438 0.36283 0.49913
1036 1 0.39039 0.363908 0.499327
1052 1 0.00365516 0.389045 0.496301
1054 1 0.0174827 0.390587 0.498001
1056 1 0.0308726 0.391916 0.49797
1059 1 0.0402984 0.380671 0.499586
1129 1 0.0459662 0.391944 0.497189
1060 1 0.0576655 0.389154 0.495755
1062 1 0.073567 0.386735 0.495999
1064 1 0.0858288 0.387936 0.496784
1135 1 0.0939464 0.399985 0.497993
1066 1 0.100503 0.385305 0.497765
998 1 0.118056 0.389261 0.498307
1070 1 0.13434 0.389442 0.499906
1141 1 0.148706 0.388908 0.499402
1143 1 0.155751 0.399859 0.497728
1075 1 0.163725 0.387635 0.498408
1074 1 0.170285 0.398732 0.498157
1076 1 0.178487 0.387011 0.49715
1079 1 0.190568 0.388142 0.498472
1080 1 0.204831 0.388803 0.499834
1153 1 0.228337 0.398433 0.499631
1155 1 0.240936 0.399156 0.499836
1084 1 0.232457 0.384094 0.498829
1088 1 0.262551 0.384798 0.49938
1090 1 0.277842 0.38552 0.49804
1159 1 0.269363 0.397646 0.499686
1161 1 0.284365 0.399478 0.498506
1092 1 0.291308 0.385729 0.499221
1094 1 0.305774 0.386217 0.499169
1163 1 0.299619 0.39666 0.498948
1096 1 0.320476 0.388048 0.498312
1165 1 0.31344 0.397915 0.498821
1169 1 0.339407 0.398808 0.497779
1098 1 0.332938 0.386373 0.498887
1100 1 0.345799 0.386483 0.499797
1102 1 0.360502 0.385041 0.499921
1171 1 0.354217 0.398862 0.499226
1173 1 0.367322 0.399731 0.499899
1106 1 0.3899 0.390552 0.499967
1123 1 0.0117172 0.402227 0.498313
1122 1 0.00430638 0.41552 0.49935
1124 1 0.0170475 0.415022 0.498581
1125 1 0.024934 0.405136 0.497074
1126 1 0.0303582 0.41834 0.497401
1127 1 0.0399705 0.405225 0.495698
1058 1 0.0528204 0.404181 0.495652
1128 1 0.0436645 0.419215 0.496378
1131 1 0.0659341 0.402815 0.497527
1130 1 0.0612998 0.415601 0.496526
1132 1 0.0739093 0.413516 0.497588
1134 1 0.0902968 0.414891 0.495566
1133 1 0.0807593 0.40073 0.496311
1136 1 0.10437 0.412838 0.498338
1137 1 0.109767 0.401002 0.497419
1068 1 0.126972 0.401501 0.498906
1138 1 0.119282 0.412671 0.498017
1140 1 0.135207 0.411509 0.498909
1142 1 0.150155 0.411686 0.497609
1139 1 0.140213 0.401 0.499458
1144 1 0.164864 0.411646 0.497458
1145 1 0.184391 0.402114 0.498426
1146 1 0.177425 0.413123 0.497013
1148 1 0.191125 0.414029 0.499319
1147 1 0.199444 0.400858 0.499474
1149 1 0.208096 0.413237 0.498799
1152 1 0.221944 0.411158 0.498563
1151 1 0.213351 0.401254 0.498595
1154 1 0.235116 0.41099 0.499517
1156 1 0.25036 0.410286 0.499944
1160 1 0.277525 0.410971 0.499568
1164 1 0.305995 0.408325 0.498205
1162 1 0.292385 0.409243 0.498495
1166 1 0.31778 0.415076 0.498687
1167 1 0.326834 0.40505 0.497553
1168 1 0.333005 0.414988 0.498326
1172 1 0.35966 0.411897 0.499752
1175 1 0.382228 0.40253 0.499022
1193 1 0.0122332 0.429095 0.499871
1195 1 0.0253765 0.430523 0.498264
1197 1 0.038909 0.432293 0.496451
1199 1 0.0520504 0.429714 0.497786
1201 1 0.0694971 0.427181 0.497107
1203 1 0.0838418 0.424291 0.498568
1204 1 0.0906094 0.437712 0.498175
1202 1 0.0780901 0.439639 0.496922
1205 1 0.0978422 0.42595 0.497659
1206 1 0.104936 0.437413 0.497882
1207 1 0.110935 0.422054 0.497623
1209 1 0.128054 0.423752 0.496877
1208 1 0.119645 0.435514 0.498161
1210 1 0.133244 0.436701 0.49741
1211 1 0.142517 0.424236 0.496447
1212 1 0.150997 0.435572 0.496356
1213 1 0.156755 0.422909 0.496524
1215 1 0.171743 0.424315 0.496171
1214 1 0.163497 0.43525 0.495305
1217 1 0.186084 0.424565 0.496611
1216 1 0.179079 0.434774 0.495522
1218 1 0.193169 0.436171 0.496697
1219 1 0.199895 0.424927 0.497673
1220 1 0.208299 0.436227 0.498162
1150 1 0.214609 0.425307 0.497939
1229 1 0.271355 0.42397 0.498395
1231 1 0.284733 0.420609 0.497468
1230 1 0.280789 0.433281 0.499626
1232 1 0.294974 0.434943 0.499068
1233 1 0.299607 0.422608 0.498688
1234 1 0.308266 0.437137 0.499312
1235 1 0.313492 0.425647 0.499213
1239 1 0.337792 0.426235 0.499649
1241 1 0.354275 0.427174 0.498695
1240 1 0.348163 0.436518 0.499515
1244 1 0.377058 0.439037 0.499881
1243 1 0.368991 0.427064 0.499714
1263 1 0.0161317 0.453341 0.498167
1192 1 0.00735448 0.441077 0.499396
1194 1 0.0203999 0.443161 0.496801
1196 1 0.0336636 0.443991 0.49725
1265 1 0.0290829 0.457343 0.498138
1198 1 0.0486719 0.442017 0.497263
1267 1 0.0409895 0.455819 0.497842
1269 1 0.0549947 0.453746 0.496879
1200 1 0.0632668 0.440075 0.496379
1271 1 0.0712637 0.452774 0.495514
1273 1 0.0852139 0.450871 0.497301
1275 1 0.0988288 0.450624 0.496883
1277 1 0.111761 0.450521 0.498851
1279 1 0.125294 0.451159 0.497934
1281 1 0.140792 0.448512 0.495089
1283 1 0.157046 0.447998 0.494222
1285 1 0.171672 0.448196 0.494886
1287 1 0.186281 0.446263 0.495
1289 1 0.199996 0.447343 0.49492
1291 1 0.215193 0.449361 0.497143
1293 1 0.231108 0.451264 0.49988
1299 1 0.26916 0.449621 0.499761
1301 1 0.286848 0.44831 0.499371
1311 1 0.356767 0.450193 0.499623
1313 1 0.371048 0.449545 0.498478
1318 1 0.406354 0.458486 0.497827
1319 1 0.414432 0.450071 0.499605
1323 1 0.444316 0.449232 0.499318
1262 1 0.00893748 0.463525 0.498976
1333 1 0.0158041 0.479171 0.499617
1264 1 0.0220964 0.46666 0.498305
1266 1 0.0366313 0.468442 0.498953
1335 1 0.0284202 0.479689 0.49863
1337 1 0.0450726 0.478764 0.498248
1268 1 0.0511016 0.465538 0.498585
1339 1 0.058277 0.47663 0.49756
1270 1 0.0651361 0.462699 0.497056
1341 1 0.0728897 0.474397 0.498043
1274 1 0.0941651 0.463851 0.497787
1272 1 0.081291 0.464102 0.498463
1343 1 0.0855445 0.476909 0.498283
1345 1 0.101164 0.479054 0.496116
1276 1 0.107621 0.465319 0.497045
1347 1 0.113064 0.476179 0.496603
1278 1 0.121157 0.463858 0.498871
1349 1 0.127555 0.475885 0.498289
1280 1 0.134252 0.462082 0.495571
1351 1 0.14276 0.474905 0.498117
1282 1 0.148509 0.460222 0.495465
1355 1 0.171939 0.472504 0.496007
1353 1 0.156535 0.474337 0.4966
1284 1 0.163259 0.460853 0.494922
1357 1 0.186881 0.473331 0.495726
1286 1 0.178142 0.460208 0.494667
1288 1 0.193833 0.461208 0.494606
1290 1 0.207869 0.460784 0.495206
1359 1 0.19959 0.474148 0.49547
1292 1 0.22287 0.463466 0.497934
1361 1 0.214114 0.472399 0.496418
1363 1 0.229503 0.474481 0.498869
1298 1 0.264615 0.464863 0.499183
1371 1 0.284782 0.474138 0.499241
1373 1 0.300599 0.474833 0.498883
1306 1 0.322011 0.463927 0.499972
1375 1 0.315417 0.476681 0.499024
1308 1 0.333984 0.463033 0.49947
1379 1 0.340072 0.474836 0.499795
1381 1 0.355183 0.477545 0.498479
1310 1 0.350547 0.462367 0.497954
1312 1 0.36466 0.46384 0.498335
1383 1 0.369763 0.477123 0.497922
1314 1 0.377594 0.461367 0.498304
1385 1 0.383064 0.473749 0.497592
1387 1 0.397685 0.471044 0.497744
1316 1 0.389182 0.461051 0.498509
1320 1 0.422936 0.461335 0.498348
1389 1 0.411039 0.471283 0.497896
1322 1 0.437816 0.460824 0.498416
1391 1 0.430795 0.474145 0.499372
1393 1 0.445075 0.474376 0.499677
1334 1 0.0199887 0.492867 0.499304
1336 1 0.0354311 0.490758 0.499647
1338 1 0.0509095 0.490862 0.499103
1340 1 0.0671253 0.488466 0.49868
1344 1 0.0949902 0.489495 0.497618
1342 1 0.0802697 0.488484 0.497943
1346 1 0.10843 0.490513 0.497525
1348 1 0.120235 0.489299 0.49751
1352 1 0.151425 0.488867 0.497826
1350 1 0.135483 0.489237 0.497458
1354 1 0.165645 0.486741 0.496594
1356 1 0.179035 0.48468 0.497609
1427 1 0.187165 0.499337 0.497729
1425 1 0.173672 0.498121 0.497086
1358 1 0.194031 0.487353 0.497161
1360 1 0.209029 0.486792 0.498095
1362 1 0.222365 0.489662 0.496935
1364 1 0.238235 0.490134 0.498006
1368 1 0.264989 0.489757 0.499787
1366 1 0.251756 0.489832 0.498416
1370 1 0.279726 0.488692 0.498553
1372 1 0.293326 0.486672 0.496952
1374 1 0.307261 0.489736 0.49627
1447 1 0.324151 0.498616 0.496899
1376 1 0.319988 0.488512 0.498114
1449 1 0.339409 0.498872 0.497614
1378 1 0.332198 0.487216 0.499718
1382 1 0.362451 0.489159 0.497425
1380 1 0.346864 0.487739 0.499083
1453 1 0.36751 0.499374 0.495571
1384 1 0.377117 0.487577 0.497386
1457 1 0.395433 0.498316 0.495745
1388 1 0.403604 0.484416 0.498209
1386 1 0.390864 0.484871 0.497015
1390 1 0.417499 0.484182 0.498556
1459 1 0.412373 0.498383 0.496077
1461 1 0.428517 0.495006 0.497285
1392 1 0.43787 0.48548 0.498256
1394 1 0.451234 0.485132 0.4973
1463 1 0.44461 0.497137 0.498231
1465 1 0.460039 0.495391 0.498485
1469 1 0.488934 0.497917 0.499805
142 1 0.00671979 0.00956079 0.503387
78 1 0.0170857 0.0130335 0.500691
4 1 0.0129141 0.000816892 0.501673
74 1 0.0336484 0.0153329 0.500777
2736 1 0.0275132 0.00197413 0.500844
17 1 0.110161 0.0050922 0.50032
19 1 0.126255 0.00371614 0.501119
18 1 0.120955 0.016748 0.500015
22 1 0.148379 0.016444 0.501097
21 1 0.141231 0.00359476 0.501265
20 1 0.134979 0.0161973 0.500616
25 1 0.16026 0.0134951 0.501711
23 1 0.155479 0.00175353 0.502106
2756 1 0.170828 0.00471935 0.502104
2757 1 0.184253 0.000703792 0.501357
27 1 0.17537 0.0162427 0.500669
28 1 0.190732 0.0122522 0.501862
30 1 0.207655 0.0121761 0.500064
29 1 0.199082 0.00101696 0.500093
215 1 0.00895921 0.0360343 0.504499
3008 1 0.0137384 0.023128 0.503941
73 1 0.00119924 0.0252085 0.505283
145 1 0.0222747 0.0365334 0.501914
141 1 0.0261578 0.0265112 0.501269
76 1 0.0437983 0.0242873 0.50034
16 1 0.127379 0.0277124 0.500046
93 1 0.153702 0.0306132 0.501924
26 1 0.167412 0.0270704 0.501369
24 1 0.162673 0.0399965 0.501818
95 1 0.184135 0.0260681 0.500816
97 1 0.191973 0.037487 0.503032
99 1 0.199416 0.0244294 0.501778
100 1 0.205673 0.0370936 0.502222
72 1 0.0144222 0.0472472 0.502996
214 1 0.00551119 0.0575411 0.504317
154 1 0.113507 0.052543 0.500598
90 1 0.147884 0.0431384 0.500332
164 1 0.156503 0.0527792 0.501737
94 1 0.168674 0.0542979 0.501075
163 1 0.183097 0.0511387 0.501965
165 1 0.175185 0.0403879 0.501529
239 1 0.203693 0.0599667 0.501967
96 1 0.197203 0.0485484 0.50173
98 1 0.212954 0.0479046 0.501266
170 1 0.231015 0.0494105 0.500694
108 1 0.244283 0.0480461 0.500636
245 1 0.248191 0.0591601 0.500935
110 1 0.257632 0.0470363 0.500123
211 1 0.00584542 0.072675 0.503002
3078 1 0.0172239 0.0614573 0.503681
282 1 0.0287636 0.0729955 0.500366
213 1 0.0340536 0.0602634 0.500121
227 1 0.12081 0.0656953 0.500417
160 1 0.126689 0.0793422 0.50249
92 1 0.149796 0.0648328 0.50073
162 1 0.14076 0.076894 0.500729
231 1 0.155836 0.0773444 0.502624
167 1 0.1625 0.0665166 0.502604
237 1 0.173348 0.0782667 0.503022
166 1 0.177944 0.0641141 0.50218
238 1 0.185168 0.0763196 0.504168
169 1 0.191498 0.062581 0.502629
168 1 0.198932 0.0737215 0.50288
241 1 0.209347 0.0728237 0.503145
171 1 0.219911 0.0625406 0.501455
243 1 0.227838 0.0727753 0.503347
176 1 0.236522 0.0611673 0.502015
174 1 0.243642 0.0721805 0.503858
247 1 0.2544 0.0723126 0.501575
212 1 0.00778814 0.0888597 0.50323
143 1 0.0195811 0.0819223 0.503592
285 1 0.0319585 0.087375 0.502128
218 1 0.0553439 0.0973071 0.501138
229 1 0.134403 0.0887429 0.500365
233 1 0.149325 0.0884882 0.502511
234 1 0.16457 0.0907533 0.503032
235 1 0.179658 0.0906025 0.503657
240 1 0.191611 0.0867713 0.502793
172 1 0.204432 0.0866319 0.50234
310 1 0.211995 0.0994662 0.503714
242 1 0.217545 0.0857828 0.503924
313 1 0.225065 0.0994788 0.503953
317 1 0.24176 0.0976531 0.502621
246 1 0.232285 0.0844412 0.503615
315 1 0.247589 0.0846865 0.502073
320 1 0.26699 0.0983937 0.500638
248 1 0.256304 0.09915 0.502521
249 1 0.26133 0.0857691 0.501868
280 1 0.490577 0.0905167 0.500825
3079 1 0.0034815 0.102168 0.504462
353 1 0.0187592 0.100371 0.503275
281 1 0.0080279 0.114667 0.504901
284 1 0.0323993 0.102643 0.502522
354 1 0.0238793 0.113746 0.504243
286 1 0.03853 0.11363 0.50239
290 1 0.0519785 0.111332 0.501421
296 1 0.0928961 0.115674 0.500193
298 1 0.105795 0.115432 0.501062
300 1 0.119102 0.116965 0.500023
232 1 0.129339 0.103559 0.501771
369 1 0.136318 0.115487 0.50098
371 1 0.148124 0.112011 0.50306
299 1 0.14114 0.100697 0.501777
303 1 0.157688 0.102427 0.50405
230 1 0.159575 0.114693 0.50412
304 1 0.171085 0.101339 0.504627
305 1 0.176343 0.113493 0.505016
307 1 0.184817 0.101315 0.504276
308 1 0.190083 0.112226 0.503682
236 1 0.2054 0.113632 0.503822
309 1 0.198144 0.101309 0.502181
244 1 0.219517 0.110719 0.502386
312 1 0.233095 0.111502 0.502578
316 1 0.248187 0.109381 0.502947
318 1 0.262065 0.112918 0.502125
389 1 0.274951 0.111179 0.500437
346 1 0.46844 0.113047 0.500015
350 1 0.494268 0.116382 0.502789
348 1 0.481827 0.11518 0.5007
3219 1 0.00218116 0.126369 0.504974
352 1 0.0105343 0.139182 0.505576
351 1 0.0161194 0.126711 0.504957
423 1 0.0250488 0.139114 0.50511
288 1 0.0308972 0.124879 0.505236
357 1 0.0392251 0.138654 0.504009
358 1 0.045132 0.124975 0.503172
362 1 0.0522779 0.137683 0.501709
360 1 0.0599343 0.124632 0.501682
291 1 0.0744467 0.125566 0.50025
363 1 0.0818005 0.137477 0.500279
294 1 0.0884669 0.128576 0.501396
365 1 0.103228 0.130001 0.500708
367 1 0.116412 0.1289 0.50069
368 1 0.12838 0.129191 0.50016
302 1 0.142605 0.126842 0.500951
375 1 0.169091 0.126348 0.505414
373 1 0.154712 0.126694 0.503529
306 1 0.183217 0.125849 0.504997
377 1 0.189629 0.138491 0.503331
376 1 0.176549 0.139014 0.504729
380 1 0.204919 0.136715 0.50296
381 1 0.211253 0.125204 0.504175
379 1 0.196561 0.124114 0.503566
383 1 0.229414 0.134571 0.501796
311 1 0.225426 0.123834 0.50248
382 1 0.217323 0.137462 0.504423
386 1 0.244487 0.137703 0.501838
314 1 0.241716 0.124906 0.503039
385 1 0.259967 0.136472 0.50157
388 1 0.268407 0.124854 0.501617
387 1 0.256328 0.124519 0.50301
390 1 0.272821 0.137126 0.501829
391 1 0.288431 0.137171 0.500835
487 1 0.464118 0.138503 0.500265
419 1 0.486409 0.126897 0.500609
420 1 0.492862 0.138495 0.501245
421 1 0.00298343 0.150333 0.50571
425 1 0.0180258 0.149868 0.504807
356 1 0.032254 0.151096 0.503425
359 1 0.0453055 0.15197 0.502373
427 1 0.0596612 0.151348 0.501947
364 1 0.0957153 0.14042 0.501571
435 1 0.10685 0.141318 0.500742
437 1 0.100034 0.152158 0.500917
439 1 0.11501 0.155564 0.500226
372 1 0.134548 0.14325 0.500308
366 1 0.120862 0.141868 0.501859
374 1 0.147572 0.140224 0.502842
441 1 0.140064 0.15537 0.501115
515 1 0.166921 0.153069 0.504013
443 1 0.154801 0.153795 0.502252
445 1 0.161621 0.140387 0.504706
447 1 0.179252 0.149508 0.502386
448 1 0.193142 0.152394 0.503177
451 1 0.206358 0.14993 0.503293
453 1 0.216621 0.150233 0.503346
384 1 0.227936 0.149941 0.502845
455 1 0.238899 0.151355 0.503317
457 1 0.251468 0.151293 0.502646
459 1 0.264872 0.148899 0.501575
461 1 0.279444 0.150785 0.501568
462 1 0.290159 0.158446 0.501532
416 1 0.479776 0.1404 0.501739
489 1 0.471842 0.150966 0.501342
418 1 0.487719 0.151103 0.503651
491 1 0.00412332 0.175217 0.503137
422 1 0.0120255 0.162369 0.504952
493 1 0.0159211 0.176047 0.503577
424 1 0.0251583 0.163021 0.502252
495 1 0.0294884 0.176027 0.50311
426 1 0.0395513 0.16431 0.501751
497 1 0.0424203 0.176056 0.502016
428 1 0.0519895 0.16455 0.502537
499 1 0.0570274 0.177636 0.501749
429 1 0.0637761 0.164887 0.500833
430 1 0.0681195 0.177479 0.5004
438 1 0.120162 0.166344 0.500191
444 1 0.161075 0.167025 0.501381
518 1 0.170123 0.17827 0.500736
517 1 0.182546 0.175589 0.502048
378 1 0.187552 0.164848 0.503624
446 1 0.175164 0.164149 0.501972
519 1 0.19684 0.174474 0.501436
450 1 0.202909 0.163516 0.504368
522 1 0.210475 0.17523 0.502898
449 1 0.214728 0.161853 0.504268
452 1 0.224398 0.177024 0.502667
454 1 0.230315 0.163935 0.504158
456 1 0.244913 0.163161 0.503985
523 1 0.237311 0.175438 0.502261
458 1 0.260061 0.161425 0.50198
527 1 0.253282 0.174478 0.500807
529 1 0.266906 0.175841 0.501196
460 1 0.274559 0.163407 0.502359
531 1 0.284654 0.173331 0.502362
463 1 0.302533 0.161855 0.501518
533 1 0.298448 0.173386 0.503005
464 1 0.317691 0.16152 0.501327
537 1 0.326299 0.176125 0.501729
535 1 0.312726 0.173907 0.501698
553 1 0.439541 0.175113 0.501687
551 1 0.425014 0.173125 0.500494
555 1 0.455199 0.178047 0.501771
486 1 0.462174 0.164151 0.501577
488 1 0.476361 0.162668 0.503899
557 1 0.470011 0.173722 0.503172
559 1 0.48361 0.172371 0.505018
490 1 0.492352 0.164354 0.504626
3360 1 0.00791603 0.187038 0.503379
494 1 0.0226422 0.188482 0.504042
496 1 0.0380557 0.188666 0.502356
567 1 0.0291788 0.19807 0.504064
498 1 0.0506294 0.19111 0.500581
501 1 0.0641147 0.193155 0.500122
510 1 0.131635 0.190494 0.500343
516 1 0.188909 0.189399 0.502776
585 1 0.175956 0.190766 0.501074
521 1 0.202435 0.186573 0.503637
591 1 0.217741 0.189323 0.503352
525 1 0.245713 0.184175 0.501912
524 1 0.231272 0.189173 0.502654
599 1 0.267609 0.196212 0.502152
528 1 0.260251 0.185674 0.50134
597 1 0.2526 0.198269 0.501999
601 1 0.283249 0.197512 0.502666
530 1 0.275196 0.185288 0.501601
532 1 0.290607 0.186465 0.501766
602 1 0.298618 0.198999 0.501894
534 1 0.306553 0.186446 0.501965
536 1 0.319636 0.188364 0.500787
603 1 0.314238 0.198792 0.501161
607 1 0.327874 0.198107 0.500917
609 1 0.342035 0.198184 0.500102
538 1 0.335649 0.187379 0.500019
540 1 0.347685 0.185414 0.500507
611 1 0.354302 0.197375 0.501242
615 1 0.380582 0.196817 0.500081
550 1 0.418436 0.185281 0.50117
621 1 0.424933 0.198795 0.501052
552 1 0.431384 0.186152 0.50095
623 1 0.437936 0.197812 0.501226
554 1 0.445355 0.186701 0.50189
627 1 0.453232 0.197423 0.502001
625 1 0.462289 0.187991 0.502288
556 1 0.476563 0.185864 0.504538
3363 1 0.496715 0.196504 0.504514
3292 1 0.489768 0.186535 0.506052
560 1 0.481738 0.198641 0.504849
492 1 3.43639e-05 0.200033 0.505423
565 1 0.011194 0.200046 0.50514
562 1 0.00892319 0.213375 0.506721
566 1 0.0354256 0.211466 0.503895
563 1 0.0233881 0.210636 0.505951
569 1 0.0430931 0.200523 0.501588
568 1 0.050619 0.213456 0.500756
500 1 0.0570707 0.203608 0.501038
570 1 0.0646894 0.214478 0.501002
586 1 0.165829 0.203481 0.501123
590 1 0.174076 0.216321 0.500584
587 1 0.182804 0.201983 0.501793
592 1 0.188059 0.215774 0.500515
589 1 0.194357 0.202317 0.50123
661 1 0.200864 0.213465 0.502076
520 1 0.206561 0.2013 0.50271
593 1 0.22357 0.200276 0.501903
594 1 0.214261 0.209954 0.501446
595 1 0.228875 0.213296 0.500776
526 1 0.237495 0.20123 0.500884
596 1 0.247118 0.212543 0.50189
598 1 0.261176 0.210968 0.500992
600 1 0.275248 0.211225 0.501929
671 1 0.290448 0.209105 0.502106
604 1 0.305326 0.212042 0.500134
605 1 0.3202 0.211634 0.502323
608 1 0.333652 0.208503 0.502143
679 1 0.342472 0.218605 0.50113
612 1 0.363573 0.208334 0.500775
610 1 0.350243 0.209568 0.502236
614 1 0.376418 0.207832 0.500991
616 1 0.389509 0.210639 0.501604
618 1 0.403518 0.210163 0.502908
620 1 0.417598 0.213392 0.50347
619 1 0.412282 0.200831 0.500557
622 1 0.433068 0.210534 0.50329
624 1 0.446894 0.209447 0.503365
626 1 0.45953 0.211048 0.503556
558 1 0.467774 0.201105 0.502997
629 1 0.476815 0.211907 0.505355
3361 1 0.490928 0.210679 0.504565
3500 1 0.000900417 0.223501 0.506352
632 1 0.00745916 0.234692 0.503768
633 1 0.0171229 0.223086 0.505137
634 1 0.0218332 0.234316 0.504544
635 1 0.0357914 0.236714 0.504341
564 1 0.0309819 0.223728 0.506182
637 1 0.0454922 0.224345 0.502284
638 1 0.0510748 0.238828 0.501647
709 1 0.0630802 0.237241 0.501258
659 1 0.195069 0.2288 0.500394
660 1 0.2097 0.223461 0.502339
663 1 0.222229 0.226576 0.500286
662 1 0.217199 0.239093 0.501259
664 1 0.233417 0.235224 0.500619
667 1 0.247944 0.234965 0.500396
665 1 0.241282 0.223011 0.500641
668 1 0.262215 0.236033 0.50145
669 1 0.254554 0.224403 0.50031
670 1 0.26776 0.22379 0.501682
672 1 0.283194 0.220395 0.501446
739 1 0.276188 0.234585 0.500807
674 1 0.306577 0.233791 0.500484
673 1 0.298085 0.221796 0.50015
675 1 0.31497 0.223023 0.500958
676 1 0.322088 0.236528 0.501633
606 1 0.329959 0.223495 0.501019
677 1 0.336171 0.234704 0.500783
681 1 0.358321 0.220826 0.500513
682 1 0.362015 0.23656 0.503633
680 1 0.348802 0.233568 0.500679
684 1 0.377008 0.235929 0.502825
685 1 0.383395 0.222428 0.500977
683 1 0.370557 0.222907 0.501994
686 1 0.391327 0.236304 0.502353
687 1 0.398386 0.223381 0.502611
688 1 0.406875 0.235867 0.503547
690 1 0.421147 0.23561 0.502152
689 1 0.412097 0.223792 0.502431
691 1 0.425876 0.222128 0.502237
693 1 0.440212 0.221387 0.504708
692 1 0.433725 0.233923 0.503261
694 1 0.450511 0.235068 0.504168
695 1 0.452401 0.223352 0.503061
697 1 0.468139 0.220457 0.505352
698 1 0.474908 0.234954 0.505906
696 1 0.461816 0.234237 0.505368
630 1 0.497099 0.220294 0.506269
628 1 0.483677 0.222637 0.505524
699 1 0.49042 0.233329 0.506279
701 1 0.00053695 0.248868 0.504081
705 1 0.0152644 0.247798 0.504325
702 1 0.00915936 0.259614 0.503116
706 1 0.0298471 0.249002 0.50408
703 1 0.0452062 0.251139 0.504207
707 1 0.0578103 0.251911 0.502275
711 1 0.0705006 0.251836 0.500019
733 1 0.227586 0.24914 0.500609
666 1 0.244055 0.246649 0.500033
734 1 0.236915 0.257359 0.50057
735 1 0.256875 0.247869 0.500597
738 1 0.263304 0.258998 0.500374
747 1 0.320719 0.259214 0.501645
745 1 0.312224 0.247412 0.500776
678 1 0.32662 0.248422 0.502159
749 1 0.341839 0.246638 0.503099
748 1 0.334305 0.259124 0.502622
751 1 0.355091 0.249142 0.502887
755 1 0.383421 0.249305 0.504073
753 1 0.370805 0.249362 0.503826
757 1 0.398263 0.248404 0.503835
759 1 0.413769 0.246854 0.504005
760 1 0.419243 0.259815 0.502551
761 1 0.428462 0.2485 0.502697
763 1 0.442328 0.248782 0.50368
765 1 0.457756 0.246292 0.504978
767 1 0.46995 0.248365 0.506389
3432 1 0.496773 0.246991 0.506162
700 1 0.483843 0.248207 0.505676
771 1 7.39986e-06 0.274439 0.503973
772 1 0.0154439 0.272596 0.504554
775 1 0.0275119 0.277143 0.504917
773 1 0.0228355 0.262039 0.503597
704 1 0.0383803 0.263782 0.505818
708 1 0.0426364 0.277631 0.504489
636 1 0.0530691 0.265343 0.503535
779 1 0.0564495 0.276887 0.502473
710 1 0.0654487 0.265979 0.501392
781 1 0.0709257 0.279335 0.501516
712 1 0.0795651 0.266077 0.500364
785 1 0.0850131 0.278029 0.500348
803 1 0.233366 0.271605 0.50042
736 1 0.250869 0.261193 0.500407
815 1 0.31836 0.27275 0.500767
817 1 0.330567 0.27438 0.501852
819 1 0.344044 0.275254 0.503619
750 1 0.349063 0.261844 0.504027
821 1 0.356665 0.273551 0.503713
752 1 0.364486 0.260267 0.504746
754 1 0.377646 0.263391 0.504783
823 1 0.369517 0.275428 0.503864
825 1 0.384808 0.275791 0.503421
756 1 0.39165 0.26197 0.503221
827 1 0.397511 0.272422 0.503105
758 1 0.405481 0.262337 0.503955
829 1 0.413968 0.272335 0.502686
762 1 0.434762 0.260158 0.502315
831 1 0.428288 0.273268 0.500794
833 1 0.44237 0.274304 0.502641
764 1 0.449825 0.261991 0.502368
835 1 0.455898 0.274272 0.503162
769 1 0.476542 0.260193 0.505404
766 1 0.461849 0.261874 0.504597
768 1 0.46869 0.273168 0.505495
3501 1 0.491476 0.261737 0.505376
839 1 0.483859 0.27354 0.505321
845 1 0.00558992 0.286576 0.504313
843 1 0.0121244 0.29902 0.504273
774 1 0.0195181 0.287005 0.504598
776 1 0.0334953 0.288202 0.504176
844 1 0.025522 0.299745 0.504522
847 1 0.0501421 0.288909 0.502998
777 1 0.0402045 0.298626 0.503344
778 1 0.0616599 0.289537 0.501873
782 1 0.077806 0.291537 0.501851
784 1 0.0945512 0.289228 0.500865
786 1 0.107747 0.290337 0.500398
792 1 0.146783 0.288046 0.501096
865 1 0.161171 0.292176 0.500038
797 1 0.190006 0.287348 0.50018
802 1 0.224765 0.282308 0.50112
873 1 0.227881 0.299103 0.50069
875 1 0.242816 0.296541 0.500554
816 1 0.323137 0.287491 0.500285
818 1 0.335443 0.288034 0.50219
889 1 0.344782 0.299914 0.500774
820 1 0.34798 0.287549 0.501483
822 1 0.361877 0.2868 0.502686
891 1 0.356668 0.299938 0.500374
824 1 0.376378 0.288569 0.503661
895 1 0.38379 0.298329 0.501303
897 1 0.398674 0.299307 0.502206
826 1 0.391541 0.285202 0.503612
828 1 0.404164 0.285421 0.501391
899 1 0.412753 0.298419 0.501138
830 1 0.420093 0.285653 0.502268
832 1 0.433828 0.285738 0.501711
901 1 0.424478 0.298536 0.500574
903 1 0.43918 0.298375 0.501075
834 1 0.447096 0.287021 0.501626
905 1 0.455411 0.299011 0.501272
836 1 0.461687 0.28596 0.502726
837 1 0.476963 0.285275 0.503768
907 1 0.469579 0.298515 0.500838
3641 1 0.497746 0.298844 0.505127
838 1 0.493786 0.285373 0.503447
909 1 0.484935 0.296225 0.503249
842 1 0.00586624 0.312576 0.505612
913 1 0.0195747 0.311185 0.502967
846 1 0.0348841 0.311365 0.503824
849 1 0.0555624 0.302966 0.5027
851 1 0.0474925 0.312738 0.505102
780 1 0.0686611 0.301468 0.50138
850 1 0.0618572 0.314125 0.501895
852 1 0.0794098 0.317448 0.50261
853 1 0.0866277 0.302011 0.502157
854 1 0.0921437 0.31517 0.501492
927 1 0.103971 0.315334 0.50063
855 1 0.0994765 0.303047 0.500142
859 1 0.134226 0.312451 0.501164
858 1 0.119553 0.31292 0.500709
790 1 0.124911 0.300096 0.500207
788 1 0.140102 0.30055 0.500829
863 1 0.152346 0.305285 0.501026
866 1 0.172126 0.301553 0.501993
864 1 0.163279 0.312564 0.501392
937 1 0.178029 0.312792 0.501472
868 1 0.193548 0.312055 0.502279
870 1 0.207714 0.314641 0.502814
872 1 0.221293 0.311169 0.50208
874 1 0.237201 0.310878 0.502121
876 1 0.252436 0.307693 0.500691
887 1 0.33076 0.301291 0.500475
892 1 0.362126 0.312485 0.500252
893 1 0.370253 0.300361 0.500563
894 1 0.376668 0.311109 0.500148
896 1 0.389724 0.309677 0.500266
904 1 0.448139 0.310516 0.500612
906 1 0.46494 0.309111 0.503419
908 1 0.480712 0.30919 0.503512
910 1 0.493376 0.310072 0.505124
912 1 0.0129409 0.323713 0.503969
983 1 0.00718135 0.335854 0.503334
914 1 0.0211166 0.338022 0.501589
915 1 0.0285361 0.325136 0.503524
916 1 0.0324001 0.337545 0.503492
848 1 0.0403427 0.325499 0.501874
917 1 0.0456225 0.338993 0.502016
919 1 0.052421 0.328603 0.503832
920 1 0.0605735 0.337938 0.502154
921 1 0.0690891 0.326914 0.503603
922 1 0.0750889 0.338331 0.500965
923 1 0.0862648 0.327547 0.500269
925 1 0.0986164 0.327794 0.501475
928 1 0.112779 0.325567 0.501108
926 1 0.105381 0.339892 0.501336
929 1 0.129231 0.326046 0.500624
1001 1 0.119969 0.337695 0.500602
933 1 0.148459 0.33807 0.500119
935 1 0.168856 0.326151 0.500443
934 1 0.160249 0.337687 0.500245
938 1 0.182436 0.326503 0.500347
1007 1 0.189454 0.339029 0.501941
939 1 0.199134 0.323686 0.502888
940 1 0.203952 0.336125 0.502836
941 1 0.216982 0.325413 0.502395
942 1 0.221501 0.336047 0.503376
943 1 0.229037 0.322111 0.501854
944 1 0.238108 0.33433 0.502107
945 1 0.246313 0.322893 0.502286
948 1 0.26462 0.336347 0.500788
946 1 0.251447 0.334559 0.502513
947 1 0.261117 0.322751 0.50004
963 1 0.369525 0.32535 0.502223
962 1 0.365862 0.339215 0.50066
967 1 0.395672 0.323636 0.500348
972 1 0.435564 0.334565 0.501057
973 1 0.442603 0.322234 0.500799
975 1 0.458375 0.322342 0.502337
974 1 0.450608 0.335724 0.502351
976 1 0.464653 0.337017 0.504733
977 1 0.474566 0.32341 0.504749
978 1 0.480383 0.338778 0.504903
979 1 0.48933 0.32325 0.504462
980 1 0.493759 0.334995 0.504989
985 1 0.0117047 0.349123 0.500348
986 1 0.0254779 0.353184 0.500352
987 1 0.0375684 0.352217 0.501978
918 1 0.0541797 0.350682 0.501369
991 1 0.0904649 0.340666 0.500804
995 1 0.0830819 0.350769 0.500202
994 1 0.113628 0.351833 0.500003
999 1 0.12699 0.351459 0.50045
1004 1 0.166824 0.350316 0.500324
1077 1 0.183052 0.352883 0.500985
1011 1 0.198524 0.348811 0.501619
1010 1 0.207311 0.359909 0.501096
1014 1 0.228675 0.346218 0.504595
1013 1 0.212615 0.346939 0.503258
1012 1 0.220875 0.356182 0.503327
1015 1 0.244829 0.346406 0.502231
1017 1 0.257457 0.348724 0.501144
1018 1 0.264695 0.357296 0.500705
1029 1 0.343546 0.349807 0.50046
1031 1 0.357276 0.350999 0.501354
1033 1 0.371638 0.353917 0.501143
1037 1 0.399198 0.347988 0.500795
1038 1 0.410138 0.358246 0.502281
1039 1 0.415153 0.34689 0.501029
1041 1 0.430184 0.347653 0.50097
1043 1 0.442515 0.347782 0.501693
1045 1 0.458401 0.347725 0.503971
1044 1 0.448865 0.357556 0.501899
1047 1 0.470685 0.350269 0.504095
3781 1 0.498879 0.346426 0.505833
1049 1 0.485811 0.349637 0.505405
988 1 0.046674 0.36504 0.50086
932 1 0.134273 0.363377 0.501212
1071 1 0.138898 0.375669 0.501072
1006 1 0.171644 0.376578 0.500273
1083 1 0.225678 0.373442 0.501844
1081 1 0.213845 0.372442 0.500738
1086 1 0.239952 0.373341 0.501197
1016 1 0.247873 0.361317 0.502013
1085 1 0.233954 0.360543 0.502312
1087 1 0.2555 0.374216 0.500963
1099 1 0.341151 0.373668 0.500255
1101 1 0.355746 0.374984 0.501122
1030 1 0.349231 0.363004 0.501822
1032 1 0.363957 0.365529 0.503352
1034 1 0.377102 0.36516 0.501079
1105 1 0.382112 0.37806 0.500802
1103 1 0.369716 0.377203 0.50123
1107 1 0.394975 0.374978 0.500862
1040 1 0.421455 0.360192 0.500732
1109 1 0.410581 0.37145 0.502012
1042 1 0.436656 0.36056 0.502141
1111 1 0.428789 0.373488 0.501966
1113 1 0.444233 0.373901 0.502218
1115 1 0.456394 0.371704 0.504898
1046 1 0.461545 0.360601 0.503269
1048 1 0.476383 0.361769 0.505349
1117 1 0.471645 0.372815 0.506233
3851 1 0.499361 0.373944 0.505165
1119 1 0.485594 0.374182 0.505946
1050 1 0.49497 0.360636 0.506664
1082 1 0.21698 0.385009 0.500795
1157 1 0.247122 0.387452 0.50011
1158 1 0.256199 0.397019 0.500863
1104 1 0.373656 0.390119 0.501054
1108 1 0.403684 0.386198 0.501093
1110 1 0.419522 0.383233 0.502031
1179 1 0.410554 0.396746 0.502452
1112 1 0.436061 0.383214 0.501789
1183 1 0.440616 0.396307 0.50218
1181 1 0.425703 0.395849 0.501564
1185 1 0.457376 0.39794 0.505782
1114 1 0.451097 0.385765 0.503868
1187 1 0.470364 0.397555 0.505272
1116 1 0.463623 0.385066 0.50451
1118 1 0.478375 0.386051 0.50627
1120 1 0.492818 0.386142 0.5058
1189 1 0.486315 0.399279 0.504814
1227 1 0.263169 0.409885 0.500184
1170 1 0.345791 0.411928 0.500075
1174 1 0.375969 0.41147 0.500534
1177 1 0.396952 0.402793 0.501222
1176 1 0.390003 0.414472 0.500995
1178 1 0.404156 0.413613 0.502451
1180 1 0.417787 0.409801 0.503099
1182 1 0.431517 0.41057 0.502521
1184 1 0.449661 0.410462 0.503638
1186 1 0.46357 0.413716 0.505677
1188 1 0.478015 0.410799 0.505263
1190 1 0.494729 0.411073 0.504965
1221 1 0.223585 0.438669 0.500182
1223 1 0.227992 0.424612 0.500247
1222 1 0.238279 0.437674 0.501478
1225 1 0.241788 0.423841 0.500277
1228 1 0.265464 0.436775 0.500651
1224 1 0.253196 0.438814 0.501206
1226 1 0.257785 0.423019 0.500501
1237 1 0.325426 0.426769 0.500942
1238 1 0.334112 0.43759 0.501184
1242 1 0.362076 0.439218 0.500019
1245 1 0.382069 0.425257 0.500175
1247 1 0.398597 0.427899 0.502117
1246 1 0.390516 0.437483 0.50029
1248 1 0.406811 0.439595 0.501681
1249 1 0.410565 0.425029 0.502255
1250 1 0.421476 0.436418 0.50175
1253 1 0.439511 0.422098 0.503556
1252 1 0.435662 0.435613 0.501448
1251 1 0.424028 0.423368 0.502605
1254 1 0.449377 0.436359 0.502597
1255 1 0.4575 0.425025 0.504246
1256 1 0.464472 0.437905 0.504375
1258 1 0.480039 0.438187 0.504541
1257 1 0.471559 0.425457 0.50585
1260 1 0.493777 0.437815 0.504311
1259 1 0.485175 0.423409 0.506299
3991 1 0.498979 0.425182 0.504078
1261 1 0.00158089 0.453207 0.500692
1295 1 0.245105 0.451176 0.502236
1297 1 0.257842 0.45173 0.500049
1303 1 0.301217 0.449888 0.500374
1236 1 0.320694 0.441232 0.500373
1305 1 0.313886 0.451411 0.500442
1307 1 0.329083 0.452119 0.500972
1309 1 0.343558 0.45025 0.500134
1317 1 0.398946 0.450188 0.50052
1315 1 0.386798 0.45017 0.500486
1321 1 0.426583 0.447343 0.500444
1325 1 0.4574 0.448601 0.50235
1327 1 0.474852 0.450219 0.504251
1330 1 0.495573 0.459604 0.502783
1329 1 0.487406 0.450523 0.503019
1331 1 0.00273401 0.477075 0.500433
1365 1 0.24424 0.477861 0.500027
1294 1 0.237024 0.464632 0.501116
1367 1 0.259766 0.476937 0.500739
1296 1 0.250241 0.465208 0.501317
1369 1 0.272313 0.478769 0.500332
1300 1 0.277618 0.460079 0.500073
1302 1 0.293886 0.46277 0.501027
1304 1 0.308386 0.463725 0.5002
1377 1 0.32666 0.474832 0.500118
1324 1 0.4513 0.461996 0.5003
1395 1 0.457048 0.473668 0.500999
1397 1 0.472598 0.472653 0.502745
1326 1 0.465952 0.462033 0.502827
1328 1 0.480451 0.462106 0.502638
1399 1 0.488417 0.472992 0.503563
1332 1 0.00691735 0.489584 0.501738
1396 1 0.466763 0.484584 0.500147
1467 1 0.47389 0.495905 0.500146
1398 1 0.481579 0.483739 0.501316
1400 1 0.494319 0.484697 0.500574
1787 1 0.255342 0.623711 0.488602
1857 1 0.257105 0.647109 0.48783
1859 1 0.2716 0.647377 0.488174
2001 1 0.286493 0.699562 0.487958
2006 1 0.308526 0.687952 0.487778
1936 1 0.321989 0.68793 0.488493
2007 1 0.31527 0.699196 0.487527
2004 1 0.328878 0.699574 0.487756
2073 1 0.321247 0.714017 0.486681
2009 1 0.335236 0.713218 0.488311
2014 1 0.368713 0.712002 0.487762
2013 1 0.380991 0.713232 0.488031
2075 1 0.306021 0.737832 0.488571
2002 1 0.314036 0.72685 0.487612
2071 1 0.321924 0.735919 0.4866
2077 1 0.328452 0.726225 0.485782
2079 1 0.343649 0.723905 0.485593
2078 1 0.337183 0.737605 0.485473
2080 1 0.35169 0.735813 0.486867
2081 1 0.359669 0.723154 0.486792
2083 1 0.373615 0.725765 0.487436
2082 1 0.365436 0.736736 0.48844
2156 1 0.37954 0.738852 0.486823
2084 1 0.394638 0.73747 0.487697
2085 1 0.40125 0.727339 0.488587
2015 1 0.389425 0.725096 0.487815
2145 1 0.314011 0.748403 0.488562
2076 1 0.325451 0.746781 0.48646
2147 1 0.342638 0.748986 0.486551
2151 1 0.356166 0.748687 0.487571
2153 1 0.372234 0.749968 0.48714
2157 1 0.40104 0.751446 0.488322
2155 1 0.388729 0.751015 0.486443
2148 1 0.318442 0.760812 0.487149
2217 1 0.334623 0.760859 0.486235
2287 1 0.327066 0.772213 0.488322
2285 1 0.34097 0.775366 0.488261
2219 1 0.363119 0.761789 0.487004
2152 1 0.367976 0.775978 0.487719
2154 1 0.380322 0.763775 0.486341
2225 1 0.394277 0.765223 0.488404
2227 1 0.39944 0.778775 0.488183
2158 1 0.409235 0.766413 0.488404
1408 1 0.0510178 0.516129 0.498765
1407 1 0.0434583 0.503043 0.499741
1410 1 0.0647727 0.514229 0.498288
1409 1 0.0585302 0.501826 0.49933
1411 1 0.073033 0.502127 0.498926
1412 1 0.0796486 0.512808 0.49767
1414 1 0.0931829 0.513066 0.497335
1413 1 0.0860745 0.501359 0.498406
1416 1 0.107677 0.515788 0.497003
1415 1 0.100063 0.502775 0.497596
1417 1 0.115185 0.502816 0.496318
1418 1 0.122227 0.515191 0.497379
1419 1 0.128495 0.50215 0.497939
1420 1 0.137016 0.512722 0.497817
1422 1 0.151181 0.514192 0.497624
1421 1 0.143467 0.50077 0.498191
1423 1 0.159319 0.500089 0.496795
1424 1 0.16397 0.512619 0.498174
1426 1 0.178245 0.513105 0.49878
1429 1 0.201894 0.500232 0.497654
1428 1 0.195334 0.513342 0.498519
1430 1 0.208791 0.515274 0.497118
1432 1 0.223272 0.514812 0.496018
1431 1 0.21475 0.502104 0.495885
1433 1 0.229406 0.503098 0.495679
1434 1 0.236658 0.515845 0.496828
1435 1 0.242109 0.502477 0.496861
1438 1 0.249919 0.516006 0.496659
1440 1 0.264258 0.513024 0.497264
1437 1 0.255292 0.503903 0.496106
1442 1 0.277196 0.512918 0.495443
1439 1 0.270487 0.500275 0.496877
1441 1 0.283765 0.500251 0.495751
1513 1 0.291194 0.512252 0.493929
1444 1 0.306158 0.51308 0.493951
1443 1 0.297438 0.50114 0.494915
1446 1 0.321015 0.513301 0.49451
1445 1 0.312438 0.501883 0.495163
1448 1 0.335682 0.513528 0.496084
1450 1 0.349435 0.515935 0.496855
1452 1 0.363197 0.511712 0.49653
1451 1 0.353202 0.500156 0.497556
1455 1 0.382334 0.500775 0.495778
1454 1 0.377473 0.512158 0.496219
1456 1 0.391685 0.513033 0.495507
1458 1 0.40552 0.511452 0.495344
1460 1 0.421491 0.509268 0.497479
1462 1 0.435626 0.507603 0.497251
1464 1 0.452766 0.506884 0.498251
1466 1 0.466917 0.507057 0.498727
1468 1 0.481212 0.509843 0.499248
1472 1 0.00932767 0.537994 0.496825
1473 1 0.0142411 0.526942 0.498331
1475 1 0.030611 0.528347 0.499418
1474 1 0.0229329 0.536812 0.499653
1478 1 0.0528483 0.538672 0.497586
1479 1 0.0585299 0.526809 0.499628
1480 1 0.0667537 0.538356 0.498049
1481 1 0.0731832 0.525396 0.497608
1482 1 0.079127 0.537554 0.496592
1483 1 0.085451 0.526344 0.497956
1485 1 0.100573 0.529715 0.497699
1487 1 0.115788 0.528549 0.498188
1489 1 0.130912 0.527099 0.498317
1490 1 0.135995 0.539714 0.497742
1491 1 0.143332 0.526566 0.497668
1492 1 0.153212 0.539252 0.499869
1493 1 0.156816 0.526403 0.498401
1494 1 0.166236 0.538923 0.499077
1495 1 0.170189 0.525015 0.498189
1497 1 0.185344 0.525178 0.499648
1499 1 0.200143 0.526451 0.499165
1500 1 0.205525 0.539423 0.499725
1501 1 0.213661 0.526958 0.497925
1503 1 0.228389 0.528685 0.497477
1502 1 0.221492 0.53927 0.49903
1505 1 0.237051 0.539893 0.49739
1436 1 0.241281 0.52891 0.496281
1506 1 0.251808 0.537502 0.497095
1508 1 0.267258 0.535574 0.497055
1507 1 0.259324 0.526547 0.496422
1510 1 0.279845 0.536014 0.494911
1511 1 0.286146 0.525698 0.493807
1509 1 0.272942 0.523901 0.494663
1512 1 0.299484 0.5265 0.492351
1581 1 0.292152 0.539022 0.493866
1514 1 0.307225 0.538931 0.49303
1515 1 0.313725 0.527132 0.494285
1516 1 0.319618 0.539805 0.491605
1517 1 0.327876 0.52622 0.494013
1518 1 0.33268 0.537876 0.493414
1519 1 0.342637 0.524616 0.494769
1521 1 0.358187 0.525702 0.496035
1520 1 0.34886 0.536155 0.495422
1522 1 0.362733 0.538566 0.495326
1523 1 0.372655 0.526938 0.495716
1525 1 0.386324 0.526056 0.495597
1526 1 0.394656 0.538465 0.496196
1527 1 0.402181 0.52613 0.496388
1529 1 0.415139 0.523196 0.496797
1528 1 0.409217 0.536816 0.49735
1530 1 0.423859 0.536309 0.497299
1531 1 0.431944 0.525143 0.496871
1532 1 0.437384 0.536793 0.496532
1533 1 0.446399 0.521057 0.497236
1535 1 0.460236 0.52209 0.498007
1534 1 0.450376 0.538222 0.496925
1537 1 0.472664 0.52376 0.49695
1536 1 0.464518 0.53686 0.496624
1539 1 0.479608 0.538346 0.497652
4202 1 0.49975 0.521701 0.49911
4271 1 0.487427 0.525348 0.498655
1609 1 0.493592 0.538988 0.496487
1543 1 0.0149608 0.549779 0.499774
1476 1 0.0390054 0.540848 0.499676
1547 1 0.0462099 0.550709 0.499734
1549 1 0.0569985 0.550327 0.497618
1551 1 0.0735661 0.551339 0.498471
1484 1 0.0932101 0.540617 0.497621
1553 1 0.0863603 0.550806 0.49857
1486 1 0.107356 0.541672 0.495178
1555 1 0.101137 0.554952 0.498244
1557 1 0.115039 0.554322 0.49745
1488 1 0.12283 0.5409 0.49608
1559 1 0.128463 0.552688 0.498216
1561 1 0.142594 0.550759 0.498699
1563 1 0.158994 0.551741 0.49984
1565 1 0.173471 0.550209 0.499981
1573 1 0.228625 0.552852 0.497689
1571 1 0.2144 0.551399 0.499864
1504 1 0.244286 0.553799 0.495602
1577 1 0.258791 0.547874 0.496534
1579 1 0.271047 0.547984 0.496492
1580 1 0.285346 0.552568 0.495088
1583 1 0.299207 0.552925 0.495067
1585 1 0.315329 0.551405 0.492813
1587 1 0.329561 0.553167 0.493218
1589 1 0.343358 0.549043 0.493671
1591 1 0.355605 0.551352 0.493264
1524 1 0.37786 0.540164 0.496087
1593 1 0.368866 0.550511 0.495093
1595 1 0.38951 0.550139 0.495407
1597 1 0.402113 0.549742 0.495057
1599 1 0.41731 0.549773 0.495342
1601 1 0.431843 0.548628 0.495622
1603 1 0.443686 0.548772 0.495101
1605 1 0.456449 0.549274 0.496309
1538 1 0.471695 0.551834 0.496854
1610 1 0.497717 0.555468 0.496139
1540 1 0.485916 0.553225 0.496043
1613 1 0.0135641 0.575645 0.49869
1542 1 0.00622883 0.561867 0.498173
1611 1 0.000779398 0.576222 0.498291
1544 1 0.0208222 0.562587 0.499873
1615 1 0.0281968 0.575318 0.498269
1548 1 0.0513261 0.563351 0.498818
1617 1 0.0428959 0.576971 0.49963
1619 1 0.0567418 0.577027 0.497893
1550 1 0.0627231 0.563281 0.498961
1621 1 0.0700107 0.577468 0.498715
1552 1 0.0788208 0.565736 0.498286
1623 1 0.0866154 0.578006 0.498124
1554 1 0.0928359 0.566575 0.497637
1625 1 0.099669 0.579643 0.498527
1556 1 0.108897 0.569094 0.497635
1627 1 0.119008 0.577097 0.499126
1558 1 0.122245 0.564985 0.498341
1629 1 0.130075 0.577734 0.499951
1560 1 0.136111 0.563916 0.498795
1633 1 0.159113 0.579128 0.499943
1635 1 0.172539 0.576332 0.499886
1637 1 0.184691 0.576731 0.49995
1641 1 0.213748 0.576278 0.4987
1572 1 0.219964 0.565034 0.498728
1643 1 0.228417 0.574591 0.496063
1574 1 0.23469 0.563989 0.49524
1645 1 0.244032 0.576635 0.493412
1575 1 0.25143 0.561917 0.494845
1647 1 0.255716 0.571978 0.493178
1576 1 0.264521 0.561089 0.494843
1649 1 0.268188 0.578979 0.494145
1578 1 0.276875 0.564058 0.495314
1651 1 0.282158 0.578295 0.494844
1582 1 0.28933 0.565309 0.495587
1653 1 0.297822 0.573993 0.494254
1584 1 0.307159 0.563705 0.4934
1586 1 0.321359 0.563947 0.493177
1655 1 0.313749 0.576894 0.494264
1657 1 0.328964 0.5744 0.495204
1588 1 0.334301 0.562959 0.494594
1659 1 0.342283 0.5754 0.496522
1590 1 0.349024 0.561336 0.493356
1661 1 0.357228 0.575756 0.496681
1592 1 0.363674 0.562358 0.495269
1594 1 0.380491 0.560147 0.494463
1663 1 0.371079 0.573411 0.495594
1665 1 0.384397 0.57391 0.493724
1596 1 0.393801 0.561273 0.493839
1667 1 0.400124 0.573958 0.493965
1598 1 0.408947 0.560918 0.494131
1669 1 0.413414 0.571006 0.494365
1600 1 0.42411 0.562209 0.494597
1602 1 0.437111 0.561863 0.494577
1671 1 0.429313 0.575038 0.494783
1604 1 0.451493 0.562943 0.496263
1673 1 0.443483 0.575608 0.494662
1675 1 0.457461 0.575991 0.495425
1606 1 0.464922 0.56322 0.496992
1677 1 0.472446 0.577825 0.494864
1608 1 0.479649 0.566868 0.495947
1607 1 0.492468 0.566446 0.493765
1612 1 0.00732812 0.58945 0.496578
1614 1 0.0212749 0.588465 0.496735
1616 1 0.03494 0.588479 0.497438
1618 1 0.0487579 0.588321 0.497864
1620 1 0.0637582 0.589455 0.49737
1622 1 0.0779997 0.58758 0.497189
1624 1 0.0929006 0.591571 0.497651
1626 1 0.109842 0.588911 0.497674
1628 1 0.125805 0.591351 0.499866
1632 1 0.149629 0.588959 0.499352
1636 1 0.182056 0.588384 0.499779
1640 1 0.209001 0.589175 0.499405
1642 1 0.221526 0.588924 0.496345
1644 1 0.233799 0.586796 0.494213
1715 1 0.240762 0.599715 0.492264
1646 1 0.251157 0.586715 0.491875
1648 1 0.264782 0.593773 0.492294
1717 1 0.254046 0.599939 0.492586
1650 1 0.275844 0.591471 0.493816
1721 1 0.285963 0.599283 0.493702
1652 1 0.291579 0.587198 0.494377
1723 1 0.299146 0.599917 0.493491
1654 1 0.30617 0.586621 0.494138
1656 1 0.320748 0.58566 0.494657
1725 1 0.315498 0.5979 0.495424
1658 1 0.335698 0.587365 0.496637
1729 1 0.344262 0.599226 0.496547
1727 1 0.328869 0.598005 0.495293
1660 1 0.349259 0.58837 0.496655
1662 1 0.362606 0.587295 0.49554
1664 1 0.377634 0.586954 0.495627
1666 1 0.392278 0.586909 0.494571
1668 1 0.406614 0.589609 0.493259
1670 1 0.420401 0.585633 0.492543
1672 1 0.436183 0.585729 0.494178
1741 1 0.427925 0.597061 0.492848
1674 1 0.451442 0.588637 0.495629
1676 1 0.464659 0.589437 0.496997
1678 1 0.479768 0.59285 0.495652
1679 1 0.486788 0.580127 0.494057
4481 1 0.494342 0.592222 0.495468
1682 1 0.00647223 0.614386 0.496897
1683 1 0.0147741 0.601602 0.496494
1684 1 0.0210274 0.614169 0.497228
1685 1 0.0263688 0.601425 0.497398
1686 1 0.035871 0.612414 0.495547
1687 1 0.0414756 0.601701 0.495678
1688 1 0.0501773 0.613878 0.494724
1689 1 0.0559438 0.602388 0.496096
1691 1 0.0705124 0.601041 0.496789
1690 1 0.0638879 0.615163 0.495859
1693 1 0.0848262 0.602474 0.496205
1692 1 0.0778804 0.614592 0.496856
1694 1 0.0932833 0.612195 0.496865
1695 1 0.102195 0.600961 0.496893
1696 1 0.10825 0.614986 0.496153
1697 1 0.118142 0.601921 0.498879
1699 1 0.132893 0.604699 0.499646
1698 1 0.122157 0.615874 0.497277
1700 1 0.136421 0.615565 0.499758
1701 1 0.14713 0.602731 0.498337
1704 1 0.165809 0.612497 0.499427
1706 1 0.180952 0.613192 0.499048
1707 1 0.188138 0.600454 0.498692
1709 1 0.20167 0.601301 0.498387
1708 1 0.195175 0.613426 0.497114
1710 1 0.208505 0.61399 0.495501
1711 1 0.213948 0.601542 0.496851
1713 1 0.22748 0.600061 0.493113
1712 1 0.221042 0.613175 0.492978
1714 1 0.233156 0.611815 0.491952
1716 1 0.246283 0.611572 0.49138
1718 1 0.260609 0.609445 0.491184
1719 1 0.271887 0.604505 0.493603
1720 1 0.278327 0.614804 0.493047
1722 1 0.292601 0.610748 0.49248
1724 1 0.308679 0.610264 0.492323
1726 1 0.321204 0.612354 0.49531
1728 1 0.336123 0.611074 0.495524
1731 1 0.355814 0.602659 0.496018
1730 1 0.35032 0.613327 0.495894
1732 1 0.365006 0.614909 0.495331
1733 1 0.369907 0.60179 0.494555
1734 1 0.380399 0.616394 0.495497
1735 1 0.38649 0.602488 0.49362
1737 1 0.399461 0.600352 0.495259
1736 1 0.393606 0.615034 0.492984
1739 1 0.414461 0.600462 0.495361
1738 1 0.405836 0.612593 0.494753
1740 1 0.419989 0.610831 0.494848
1743 1 0.441152 0.60009 0.495657
1742 1 0.432513 0.612163 0.494843
1745 1 0.45586 0.602885 0.495559
1744 1 0.44571 0.613983 0.49703
1746 1 0.464802 0.61339 0.495117
1747 1 0.469579 0.601647 0.497518
1748 1 0.478246 0.614215 0.498369
1749 1 0.487627 0.603412 0.497417
1750 1 0.492965 0.615749 0.497073
1753 1 0.0143613 0.625623 0.497833
1752 1 0.00851039 0.637307 0.498736
1755 1 0.0287815 0.626157 0.496511
1754 1 0.0227157 0.638076 0.499973
1756 1 0.0377373 0.637409 0.498095
1757 1 0.0423356 0.625078 0.495241
1758 1 0.0559562 0.627367 0.495936
1761 1 0.0714166 0.625839 0.494746
1763 1 0.0860211 0.62567 0.496324
1764 1 0.092842 0.638408 0.495455
1765 1 0.100018 0.627035 0.494908
1767 1 0.113918 0.627897 0.496147
1769 1 0.13009 0.628158 0.497126
1771 1 0.143898 0.625633 0.499335
1772 1 0.153266 0.638774 0.498834
1774 1 0.16449 0.636863 0.4981
1773 1 0.160165 0.624897 0.499913
1775 1 0.174419 0.625822 0.498266
1777 1 0.187252 0.626539 0.497107
1776 1 0.179851 0.638409 0.496857
1779 1 0.200065 0.626004 0.495142
1780 1 0.208819 0.638501 0.492998
1778 1 0.19551 0.637688 0.493945
1781 1 0.214119 0.625532 0.493577
1782 1 0.223257 0.637002 0.49242
1783 1 0.228461 0.623831 0.492097
1785 1 0.241128 0.625393 0.48988
1784 1 0.235166 0.638556 0.491918
1788 1 0.263195 0.63355 0.489778
1786 1 0.25002 0.636181 0.489763
1789 1 0.268574 0.621028 0.491355
1790 1 0.278255 0.632057 0.490249
1791 1 0.292611 0.625652 0.492329
1793 1 0.302516 0.620457 0.49363
1792 1 0.295965 0.636637 0.491597
1795 1 0.314905 0.623183 0.494757
1794 1 0.309 0.632684 0.491957
1796 1 0.320757 0.638521 0.49392
1797 1 0.329689 0.624739 0.495558
1798 1 0.336844 0.638067 0.494229
1799 1 0.34633 0.626236 0.495919
1801 1 0.359619 0.626492 0.497525
1802 1 0.365339 0.639339 0.497868
1803 1 0.374441 0.628263 0.498033
1804 1 0.38037 0.639124 0.495929
1805 1 0.389134 0.628553 0.494358
1807 1 0.401305 0.627898 0.493821
1806 1 0.39491 0.639857 0.495567
1809 1 0.411867 0.62413 0.49413
1810 1 0.42184 0.636405 0.495738
1811 1 0.426551 0.623909 0.494182
1812 1 0.434739 0.638567 0.494584
1813 1 0.440099 0.625118 0.495833
1815 1 0.454923 0.62296 0.496188
1814 1 0.44996 0.635444 0.495689
1816 1 0.462676 0.637272 0.495815
1817 1 0.470728 0.6276 0.494451
1818 1 0.476236 0.63793 0.494919
1819 1 0.485347 0.625836 0.496487
4621 1 0.490741 0.638021 0.495316
1820 1 0.499256 0.626847 0.495379
1825 1 0.0330959 0.650046 0.499026
1829 1 0.0505013 0.640169 0.496506
1827 1 0.0448551 0.651628 0.496694
1830 1 0.0573763 0.651587 0.496736
1759 1 0.064236 0.6402 0.49512
1760 1 0.0735287 0.652764 0.495776
1762 1 0.0789635 0.640364 0.49577
1831 1 0.0857785 0.653124 0.495389
1766 1 0.106054 0.644089 0.49666
1835 1 0.0976316 0.652852 0.496867
1839 1 0.117103 0.655019 0.496811
1768 1 0.120836 0.640285 0.496079
1840 1 0.128504 0.652539 0.495687
1770 1 0.137179 0.64071 0.4972
1841 1 0.145098 0.650245 0.496803
1843 1 0.156818 0.651124 0.496935
1845 1 0.172454 0.649594 0.495878
1847 1 0.187895 0.649159 0.494096
1849 1 0.201902 0.650826 0.494273
1851 1 0.216651 0.650949 0.493476
1853 1 0.229898 0.651102 0.491916
1855 1 0.244654 0.648652 0.489576
1858 1 0.265181 0.659814 0.489791
1861 1 0.286901 0.645149 0.490698
1860 1 0.280048 0.65722 0.489362
1862 1 0.292977 0.658262 0.490473
1863 1 0.301642 0.647693 0.491872
1865 1 0.315142 0.649349 0.492008
1867 1 0.331202 0.650306 0.493606
1869 1 0.344671 0.654393 0.494745
1800 1 0.352195 0.640037 0.497403
1871 1 0.360192 0.651609 0.495629
1873 1 0.372683 0.652613 0.495833
1875 1 0.386891 0.650921 0.494617
1877 1 0.401012 0.651093 0.494288
1808 1 0.408517 0.641826 0.494313
1879 1 0.415747 0.651657 0.494432
1881 1 0.430229 0.652865 0.493352
1883 1 0.444051 0.650148 0.494792
1885 1 0.458876 0.649868 0.495114
1887 1 0.471797 0.64984 0.496479
4691 1 0.499228 0.652462 0.494838
1889 1 0.486708 0.648911 0.495482
1893 1 0.0129887 0.679097 0.49854
1824 1 0.0196727 0.665355 0.498742
1826 1 0.0342312 0.664279 0.497384
1895 1 0.0283169 0.677829 0.498139
1828 1 0.0492777 0.663357 0.495598
1897 1 0.0436635 0.679306 0.497388
1899 1 0.0584844 0.676641 0.496238
1901 1 0.065474 0.664785 0.495842
1902 1 0.0722605 0.677876 0.496628
1834 1 0.0941864 0.663323 0.497475
1832 1 0.0811764 0.665386 0.496299
1903 1 0.0869179 0.678098 0.497739
1905 1 0.101377 0.676418 0.497104
1833 1 0.107219 0.663636 0.497085
1838 1 0.113825 0.677915 0.497066
1837 1 0.12216 0.666974 0.496608
1909 1 0.128608 0.677658 0.495673
1911 1 0.134448 0.66447 0.495702
1842 1 0.150184 0.663364 0.494509
1910 1 0.142863 0.675987 0.495602
1844 1 0.165084 0.662215 0.495989
1913 1 0.155196 0.677174 0.494937
1915 1 0.168179 0.675967 0.494763
1917 1 0.184372 0.675886 0.493964
1846 1 0.177443 0.664611 0.494534
1848 1 0.193151 0.661462 0.494948
1850 1 0.20844 0.663642 0.493465
1919 1 0.201207 0.67358 0.49341
1852 1 0.224821 0.661853 0.492517
1921 1 0.217093 0.67377 0.49334
1923 1 0.230163 0.674642 0.491667
1925 1 0.243086 0.675325 0.490734
1854 1 0.237268 0.662332 0.490458
1856 1 0.250773 0.664517 0.489079
1927 1 0.258472 0.675919 0.489073
1929 1 0.271737 0.672354 0.489541
1931 1 0.284852 0.671246 0.49056
1933 1 0.300393 0.672888 0.490313
1864 1 0.307563 0.660242 0.491457
1935 1 0.314468 0.67405 0.490714
1866 1 0.322438 0.661587 0.49224
1937 1 0.327221 0.675533 0.491048
1868 1 0.337073 0.665364 0.493078
1939 1 0.345289 0.673939 0.491208
1870 1 0.353861 0.661475 0.495034
1941 1 0.35906 0.674128 0.492526
1872 1 0.365084 0.664997 0.496124
1874 1 0.380569 0.665769 0.494998
1943 1 0.373633 0.6759 0.493508
1945 1 0.389909 0.676229 0.49233
1876 1 0.394175 0.662954 0.493427
1947 1 0.403288 0.674712 0.492291
1878 1 0.407788 0.662334 0.493657
1949 1 0.415273 0.675876 0.493462
1880 1 0.421419 0.664194 0.492659
1882 1 0.43674 0.665971 0.494833
1951 1 0.428343 0.675481 0.495251
1953 1 0.445411 0.676979 0.494604
1884 1 0.450812 0.66184 0.495426
1955 1 0.460192 0.675344 0.495009
1886 1 0.464675 0.661409 0.495838
1957 1 0.473558 0.677916 0.496796
1888 1 0.47949 0.66482 0.497025
1890 1 0.492748 0.663954 0.496036
1959 1 0.48748 0.675863 0.49478
1894 1 0.020232 0.691721 0.499853
1898 1 0.0499469 0.691163 0.499402
1900 1 0.0634954 0.689367 0.497982
1973 1 0.0779099 0.689726 0.498216
1904 1 0.0952555 0.690044 0.499281
1906 1 0.107893 0.690169 0.498264
1836 1 0.121339 0.68985 0.495567
1908 1 0.135389 0.689498 0.496756
1912 1 0.149853 0.688306 0.496034
1914 1 0.163629 0.689077 0.495279
1916 1 0.176369 0.686105 0.495215
1918 1 0.192467 0.688659 0.494966
1920 1 0.208604 0.685438 0.493246
1989 1 0.20145 0.699223 0.49301
1922 1 0.22336 0.687473 0.491733
1991 1 0.216421 0.699747 0.492743
1993 1 0.23004 0.699706 0.49482
1924 1 0.23686 0.687132 0.492691
1926 1 0.250103 0.688672 0.489698
1928 1 0.265639 0.685613 0.489807
1930 1 0.279138 0.685433 0.489409
1999 1 0.271331 0.698646 0.489956
1932 1 0.30167 0.698341 0.488935
1934 1 0.294114 0.684302 0.489192
1938 1 0.33744 0.688867 0.490092
2011 1 0.353015 0.685408 0.490762
1942 1 0.366882 0.687575 0.491084
1944 1 0.37999 0.687193 0.49154
1946 1 0.395317 0.6885 0.490959
2016 1 0.386539 0.699108 0.489917
1948 1 0.408057 0.688618 0.491968
1950 1 0.42219 0.689485 0.494997
1952 1 0.437464 0.687289 0.49522
1954 1 0.450005 0.689291 0.494493
1956 1 0.464449 0.6897 0.494602
1958 1 0.480383 0.6894 0.494017
4761 1 0.495083 0.689002 0.494861
1969 1 0.0548639 0.703428 0.498652
1971 1 0.0669753 0.701665 0.499475
1970 1 0.0620737 0.714721 0.499254
2041 1 0.075236 0.711911 0.498712
1974 1 0.0918242 0.712924 0.499611
1972 1 0.0844854 0.701809 0.498755
1977 1 0.112615 0.703423 0.497475
1975 1 0.0995153 0.702193 0.499442
1976 1 0.105232 0.716163 0.499289
1907 1 0.126664 0.702721 0.495919
1979 1 0.119417 0.716467 0.497968
1980 1 0.13243 0.714147 0.496958
1981 1 0.142536 0.701188 0.496709
1982 1 0.148616 0.713329 0.496498
1985 1 0.172205 0.701986 0.496113
1983 1 0.157871 0.700043 0.496709
1984 1 0.164149 0.711896 0.496821
1987 1 0.187437 0.700534 0.495605
1986 1 0.180095 0.71333 0.497052
1988 1 0.193991 0.710756 0.494531
1990 1 0.209269 0.711915 0.494874
1992 1 0.222889 0.710941 0.494396
1995 1 0.244382 0.701359 0.492909
1994 1 0.236184 0.712789 0.495913
1997 1 0.257021 0.701216 0.489425
1996 1 0.250585 0.713414 0.492254
1998 1 0.262354 0.712353 0.490624
2000 1 0.27483 0.712599 0.490256
2003 1 0.29086 0.712055 0.48916
2005 1 0.307791 0.712232 0.488958
2010 1 0.34299 0.700534 0.489043
2008 1 0.352913 0.712183 0.488976
1940 1 0.358034 0.700306 0.490358
2012 1 0.37133 0.700524 0.490499
2017 1 0.401134 0.701504 0.491387
2087 1 0.395622 0.714084 0.488969
2019 1 0.41326 0.70121 0.491448
2018 1 0.409187 0.716648 0.488653
2020 1 0.424341 0.714255 0.489745
2021 1 0.429646 0.701951 0.492944
2022 1 0.436894 0.713271 0.490055
2023 1 0.445007 0.701509 0.493595
2025 1 0.457714 0.702799 0.49251
2024 1 0.448832 0.712542 0.492816
2027 1 0.474858 0.702426 0.494672
2026 1 0.465109 0.713456 0.493182
2028 1 0.48036 0.71751 0.493722
2029 1 0.489221 0.701482 0.495414
2099 1 0.496832 0.71521 0.495494
2040 1 0.0707405 0.726259 0.499586
2042 1 0.0799549 0.736939 0.499744
2048 1 0.115158 0.728774 0.499075
1978 1 0.128617 0.728995 0.498387
2050 1 0.123913 0.739229 0.499779
2051 1 0.143593 0.724768 0.497739
2049 1 0.139089 0.739139 0.498294
2052 1 0.152647 0.737746 0.498279
2053 1 0.159885 0.723683 0.497229
2054 1 0.166924 0.737841 0.498001
2055 1 0.173727 0.724636 0.495877
2056 1 0.178702 0.736439 0.498016
2057 1 0.188101 0.72489 0.495805
2058 1 0.195466 0.736803 0.497007
2059 1 0.202407 0.724266 0.495118
2060 1 0.20886 0.737628 0.496726
2061 1 0.216855 0.726191 0.494054
2062 1 0.225566 0.737176 0.494963
2063 1 0.230619 0.724027 0.494963
2064 1 0.245608 0.726405 0.494397
2135 1 0.238616 0.738855 0.494488
2065 1 0.2503 0.738134 0.493201
2067 1 0.258106 0.724512 0.492439
2066 1 0.262889 0.738579 0.491416
2068 1 0.269047 0.727356 0.491415
2139 1 0.27753 0.735719 0.490575
2069 1 0.283076 0.724014 0.490592
2070 1 0.299109 0.724401 0.490359
2141 1 0.292652 0.737386 0.490115
2089 1 0.4173 0.72738 0.489126
2086 1 0.407711 0.739106 0.489241
2091 1 0.430213 0.725628 0.489433
2161 1 0.438205 0.739432 0.490735
2092 1 0.442329 0.725627 0.492394
2093 1 0.456477 0.725755 0.49258
2097 1 0.470416 0.728425 0.49285
2096 1 0.481205 0.739425 0.493323
2098 1 0.489372 0.730848 0.494724
2103 1 0.0279429 0.754629 0.498725
2036 1 0.0431966 0.755475 0.499623
2121 1 0.132021 0.749959 0.499835
2125 1 0.17082 0.749254 0.499566
2123 1 0.159549 0.750456 0.499319
2127 1 0.18564 0.748594 0.497708
2129 1 0.19968 0.750101 0.497335
2131 1 0.213775 0.749863 0.495047
2133 1 0.227804 0.748971 0.494031
2136 1 0.242419 0.749987 0.493987
2137 1 0.257505 0.750489 0.493344
2138 1 0.270372 0.747226 0.492306
2072 1 0.28617 0.748099 0.491127
2209 1 0.278291 0.758466 0.491292
2074 1 0.300746 0.749853 0.489181
2088 1 0.414742 0.7518 0.489928
2090 1 0.423841 0.740283 0.490374
2160 1 0.431945 0.753152 0.490023
2094 1 0.45076 0.740012 0.491932
2163 1 0.443295 0.751684 0.49069
2165 1 0.456509 0.753218 0.490915
2095 1 0.46508 0.741465 0.491612
2167 1 0.472853 0.75158 0.491575
2100 1 0.496265 0.743048 0.494743
2169 1 0.486698 0.752679 0.49458
2106 1 0.0284097 0.778456 0.498385
2104 1 0.0199012 0.768239 0.499698
2108 1 0.034186 0.766241 0.499279
2177 1 0.0425342 0.777238 0.499012
2109 1 0.049719 0.766041 0.499957
2124 1 0.162936 0.762526 0.499562
2126 1 0.177157 0.762901 0.498226
2195 1 0.185216 0.775391 0.49643
2197 1 0.191888 0.762882 0.497645
2128 1 0.206397 0.76293 0.496105
2199 1 0.199083 0.776681 0.495825
2130 1 0.22135 0.762979 0.494641
2201 1 0.213199 0.774796 0.495429
2203 1 0.228802 0.774974 0.495863
2132 1 0.234799 0.760586 0.495389
2205 1 0.242409 0.773783 0.494505
2134 1 0.247244 0.760928 0.494923
2140 1 0.2649 0.760216 0.49204
2206 1 0.258396 0.773557 0.49296
2207 1 0.273098 0.771686 0.493522
2279 1 0.284296 0.774753 0.493302
2211 1 0.298016 0.773631 0.493001
2143 1 0.292351 0.76293 0.491066
2142 1 0.305282 0.761699 0.491936
2146 1 0.312925 0.771783 0.49129
2149 1 0.346646 0.762827 0.489008
2150 1 0.354019 0.774822 0.488868
2221 1 0.386308 0.775725 0.488921
2228 1 0.414551 0.778375 0.490051
2159 1 0.420615 0.764897 0.490582
2162 1 0.437039 0.764887 0.489458
2229 1 0.427657 0.774356 0.489963
2233 1 0.44203 0.777422 0.490555
2164 1 0.450683 0.763321 0.490567
2235 1 0.453844 0.777534 0.4896
2166 1 0.465746 0.766079 0.491945
2237 1 0.468686 0.776929 0.491001
2168 1 0.47928 0.764089 0.49248
2170 1 0.491634 0.766541 0.494531
2239 1 0.482498 0.77583 0.494063
2172 1 0.00888864 0.795166 0.497601
2176 1 0.0366642 0.791492 0.497617
2175 1 0.0223201 0.79216 0.498306
2178 1 0.0492702 0.786764 0.49922
2249 1 0.0594246 0.798371 0.498975
2198 1 0.190626 0.787907 0.496924
2200 1 0.20531 0.788514 0.495775
2202 1 0.220778 0.789572 0.494988
2273 1 0.230284 0.799437 0.493279
2204 1 0.236037 0.786536 0.494717
2276 1 0.243878 0.799378 0.492247
2275 1 0.251157 0.787358 0.493433
2208 1 0.266231 0.785486 0.494739
2210 1 0.279394 0.78486 0.493426
2281 1 0.273466 0.797693 0.492578
2144 1 0.286007 0.79824 0.493037
2214 1 0.294645 0.786016 0.494828
2283 1 0.300395 0.797907 0.49431
2216 1 0.307482 0.784472 0.493018
2213 1 0.32216 0.783393 0.491628
2354 1 0.315673 0.796633 0.49366
2289 1 0.334003 0.787356 0.49028
2355 1 0.329294 0.798807 0.492138
2218 1 0.348561 0.787667 0.489762
2220 1 0.361447 0.788605 0.489685
2288 1 0.355314 0.799242 0.492123
2291 1 0.37956 0.786268 0.488925
2293 1 0.370074 0.797877 0.489849
2223 1 0.392957 0.789839 0.489214
2226 1 0.407335 0.790383 0.489623
2230 1 0.420851 0.787856 0.490131
2231 1 0.435803 0.787588 0.489878
2301 1 0.430069 0.798735 0.490648
2234 1 0.44871 0.790837 0.491656
2236 1 0.464256 0.789488 0.491289
2238 1 0.476478 0.786774 0.492662
2240 1 0.492148 0.788051 0.494099
2309 1 0.486477 0.799818 0.49471
2243 1 0.0114575 0.816343 0.496914
2174 1 0.0174328 0.806356 0.496924
2241 1 0.00324478 0.807244 0.497848
2245 1 0.0301017 0.802465 0.496398
2246 1 0.0382546 0.814524 0.496738
2244 1 0.0245669 0.816134 0.497729
2247 1 0.0452814 0.800884 0.497821
2248 1 0.0517911 0.813217 0.499511
2251 1 0.0818412 0.812763 0.499477
2265 1 0.16984 0.802728 0.498767
2264 1 0.164144 0.818229 0.499282
2267 1 0.183797 0.80285 0.497144
2266 1 0.177677 0.812222 0.497708
2268 1 0.192003 0.813825 0.495637
2269 1 0.199169 0.802781 0.49596
2270 1 0.207547 0.81397 0.495033
2271 1 0.213382 0.801084 0.494876
2272 1 0.223106 0.811407 0.493763
2274 1 0.23819 0.812045 0.492665
2280 1 0.258329 0.802406 0.493136
2347 1 0.250388 0.812938 0.492911
2277 1 0.264093 0.815516 0.49352
2212 1 0.278207 0.810351 0.493124
2353 1 0.293147 0.810414 0.492913
2284 1 0.308251 0.810793 0.492525
2215 1 0.319564 0.808397 0.492265
2350 1 0.319988 0.819361 0.492205
2357 1 0.341314 0.801254 0.491323
2286 1 0.334337 0.813085 0.491947
2361 1 0.34876 0.81318 0.492359
2290 1 0.363753 0.810385 0.489525
2295 1 0.37664 0.813199 0.490311
2224 1 0.38537 0.800789 0.489321
2297 1 0.399553 0.804707 0.4891
2222 1 0.391946 0.815897 0.490412
2299 1 0.414934 0.801452 0.489668
2298 1 0.408334 0.813554 0.49145
2300 1 0.423322 0.811413 0.492239
2302 1 0.436521 0.817467 0.49269
2232 1 0.44115 0.802611 0.492102
2305 1 0.457392 0.802394 0.493111
2303 1 0.450338 0.815394 0.493415
2307 1 0.472109 0.800627 0.494903
2306 1 0.464941 0.814244 0.493096
2308 1 0.477907 0.812912 0.495059
2310 1 0.494433 0.810046 0.495919
2312 1 0.00803701 0.83704 0.498812
2313 1 0.0146137 0.827166 0.497651
2315 1 0.0280884 0.829449 0.497978
2316 1 0.0353034 0.838869 0.497226
2317 1 0.0430769 0.826974 0.49882
2319 1 0.057346 0.826801 0.499512
2318 1 0.0527437 0.837272 0.498622
2321 1 0.0715475 0.824322 0.499182
2320 1 0.0643281 0.839926 0.49761
2323 1 0.0873693 0.824327 0.499179
2324 1 0.0922652 0.837873 0.499319
2326 1 0.106684 0.836581 0.499375
2327 1 0.113672 0.82536 0.499374
2329 1 0.128497 0.825944 0.499845
2328 1 0.121962 0.838334 0.49944
2332 1 0.150431 0.838423 0.499271
2335 1 0.172682 0.827406 0.498961
2333 1 0.155358 0.827 0.498772
2337 1 0.186605 0.824539 0.497095
2336 1 0.1785 0.83791 0.498827
2338 1 0.191885 0.837362 0.495722
2339 1 0.200956 0.825943 0.494409
2340 1 0.20698 0.838646 0.495029
2341 1 0.213869 0.82433 0.491294
2343 1 0.229302 0.823959 0.4922
2342 1 0.222112 0.836201 0.491935
2345 1 0.244225 0.826246 0.492841
2344 1 0.235627 0.839695 0.49231
2348 1 0.250862 0.837188 0.492728
2349 1 0.257303 0.826401 0.492434
2282 1 0.265593 0.834985 0.493117
2278 1 0.27238 0.823377 0.492733
2419 1 0.286486 0.820448 0.492461
2352 1 0.281202 0.834814 0.492744
2351 1 0.303338 0.822586 0.492813
2423 1 0.296212 0.834304 0.492191
2426 1 0.312968 0.8295 0.492006
2429 1 0.327585 0.829923 0.492498
2425 1 0.338964 0.824172 0.493372
2358 1 0.337037 0.837706 0.4948
2356 1 0.348382 0.83148 0.493963
2359 1 0.357501 0.821893 0.492835
2427 1 0.359657 0.837928 0.493639
2294 1 0.369529 0.828246 0.491777
2365 1 0.384003 0.825623 0.492
2296 1 0.40234 0.82668 0.492372
2366 1 0.393009 0.83667 0.494396
2370 1 0.419513 0.837884 0.496214
2368 1 0.405002 0.837802 0.495009
2369 1 0.414127 0.82623 0.49469
2371 1 0.426631 0.827465 0.49423
2372 1 0.435677 0.837068 0.49484
2373 1 0.443056 0.827427 0.493871
2304 1 0.458146 0.82709 0.494691
2374 1 0.450093 0.838146 0.495642
2377 1 0.472977 0.828264 0.495169
2379 1 0.499164 0.825099 0.495864
2380 1 0.485792 0.825081 0.496289
5112 1 0.492765 0.838597 0.496098
2383 1 0.0124558 0.852221 0.498506
2314 1 0.0199712 0.841001 0.498415
2385 1 0.0276143 0.84968 0.497956
2387 1 0.0443744 0.850864 0.497119
2389 1 0.0572711 0.851646 0.497783
2391 1 0.0743873 0.849716 0.497297
2393 1 0.0880578 0.852655 0.497689
2395 1 0.101643 0.847942 0.497656
2397 1 0.113923 0.848062 0.498957
2399 1 0.129431 0.849001 0.499669
2401 1 0.145261 0.849692 0.499047
2334 1 0.163016 0.84031 0.499215
2405 1 0.170732 0.850936 0.499189
2407 1 0.184353 0.849137 0.497167
2409 1 0.198959 0.851996 0.494515
2411 1 0.214211 0.848091 0.494175
2415 1 0.227363 0.851127 0.492853
2346 1 0.244055 0.849371 0.493992
2417 1 0.260651 0.847417 0.495072
2420 1 0.275215 0.847751 0.493882
2422 1 0.290526 0.845865 0.493287
2424 1 0.304567 0.846859 0.491851
2421 1 0.292641 0.859368 0.493464
2360 1 0.317067 0.842139 0.493901
2428 1 0.318135 0.856043 0.493658
2431 1 0.331265 0.849277 0.495084
2499 1 0.343837 0.855307 0.49393
2362 1 0.346808 0.843621 0.493803
2433 1 0.360239 0.852175 0.493468
2292 1 0.371744 0.845699 0.494613
2435 1 0.376046 0.85922 0.493514
2363 1 0.384489 0.847395 0.495722
2367 1 0.398726 0.849059 0.495849
2439 1 0.413728 0.849794 0.495588
2441 1 0.427517 0.849163 0.496162
2443 1 0.442294 0.851234 0.493954
2445 1 0.455038 0.849949 0.493286
2375 1 0.465175 0.840528 0.49571
2376 1 0.47781 0.840668 0.494831
2378 1 0.469896 0.85177 0.492422
5181 1 0.499825 0.852512 0.49682
2449 1 0.485861 0.850683 0.495067
2382 1 0.00511983 0.864467 0.497476
2453 1 0.0133385 0.875894 0.498571
2386 1 0.0342222 0.861795 0.496965
2384 1 0.0195234 0.863294 0.497804
2455 1 0.0267442 0.875708 0.498581
2388 1 0.0496291 0.864184 0.496514
2457 1 0.0387334 0.875586 0.497375
2459 1 0.0537079 0.873961 0.497253
2390 1 0.0632954 0.862064 0.497004
2461 1 0.073811 0.876784 0.497112
2392 1 0.0785871 0.865568 0.496
2463 1 0.0859123 0.876859 0.498023
2394 1 0.0931226 0.867039 0.497618
2465 1 0.10097 0.877756 0.49866
2396 1 0.103594 0.860114 0.49667
2467 1 0.114727 0.872787 0.498562
2398 1 0.118811 0.860506 0.498084
2469 1 0.130197 0.871872 0.499423
2400 1 0.137115 0.860479 0.499406
2471 1 0.142296 0.873716 0.498268
2473 1 0.157178 0.875954 0.497459
2475 1 0.172539 0.876209 0.497245
2404 1 0.166166 0.862826 0.499064
2406 1 0.179921 0.862622 0.498062
2477 1 0.18637 0.877979 0.495894
2408 1 0.194198 0.863923 0.494696
2410 1 0.205901 0.865256 0.493601
2479 1 0.200469 0.877701 0.494859
2413 1 0.218688 0.861958 0.493359
2412 1 0.215458 0.874959 0.493548
2483 1 0.228863 0.870995 0.495688
2414 1 0.237491 0.860129 0.494828
2484 1 0.245226 0.87089 0.496392
2416 1 0.252145 0.860941 0.496547
2418 1 0.267663 0.861949 0.495174
2487 1 0.259199 0.873217 0.493621
2489 1 0.273592 0.876194 0.49529
2493 1 0.287741 0.874394 0.494486
2491 1 0.279412 0.862596 0.493944
2495 1 0.304235 0.874852 0.493369
2497 1 0.30401 0.861127 0.494292
2496 1 0.317784 0.872304 0.494429
2430 1 0.330908 0.863916 0.496042
2501 1 0.340707 0.874192 0.493957
2498 1 0.330031 0.877492 0.495569
2364 1 0.365126 0.862467 0.493115
2432 1 0.351396 0.863968 0.493026
2503 1 0.359027 0.875086 0.493811
2434 1 0.373881 0.874601 0.493667
2437 1 0.393501 0.860061 0.497516
2505 1 0.385051 0.870158 0.494124
2436 1 0.397761 0.873121 0.495119
2438 1 0.405404 0.862415 0.49512
2509 1 0.412958 0.87496 0.493413
2440 1 0.419325 0.862171 0.494876
2442 1 0.433972 0.862251 0.494662
2511 1 0.426246 0.874714 0.493378
2513 1 0.441491 0.874856 0.49255
2444 1 0.450899 0.863375 0.492853
2447 1 0.458673 0.874521 0.491051
2446 1 0.464057 0.862018 0.492891
2518 1 0.473014 0.875638 0.491093
2448 1 0.47907 0.864166 0.493277
2450 1 0.493423 0.865901 0.494227
2517 1 0.485195 0.877259 0.494069
2452 1 0.00827231 0.889212 0.499251
2456 1 0.0337921 0.889551 0.499424
2454 1 0.022205 0.88769 0.498264
2458 1 0.0491761 0.885743 0.498463
2527 1 0.0436473 0.899371 0.497585
2460 1 0.0632269 0.887371 0.496425
2531 1 0.0707931 0.89917 0.496901
2462 1 0.0791784 0.888701 0.496885
2464 1 0.0934184 0.888079 0.49928
2466 1 0.109315 0.886752 0.49921
2537 1 0.112326 0.899634 0.499189
2535 1 0.100223 0.899224 0.499126
2468 1 0.122683 0.882524 0.497326
2539 1 0.12638 0.895249 0.497385
2472 1 0.149564 0.884736 0.497682
2470 1 0.135168 0.884789 0.497585
2541 1 0.142539 0.894621 0.497644
2474 1 0.163593 0.888081 0.497507
2543 1 0.156702 0.898212 0.498356
2545 1 0.172191 0.899367 0.498021
2476 1 0.179074 0.888037 0.497336
2478 1 0.193621 0.890791 0.4963
2480 1 0.207324 0.888936 0.495178
2481 1 0.220556 0.886702 0.495771
2482 1 0.235187 0.882719 0.497549
2552 1 0.231682 0.896516 0.498573
2553 1 0.251167 0.883957 0.49609
2485 1 0.265045 0.885872 0.496049
2557 1 0.258631 0.898126 0.496583
2488 1 0.281819 0.887776 0.496228
2559 1 0.272327 0.89776 0.496617
2561 1 0.289162 0.898112 0.496337
2490 1 0.294483 0.885161 0.49453
2494 1 0.307649 0.886768 0.494142
2492 1 0.301834 0.897959 0.496667
2567 1 0.322149 0.886509 0.49509
2565 1 0.316645 0.89847 0.495181
2569 1 0.335893 0.889711 0.49565
2640 1 0.343941 0.898907 0.495918
2500 1 0.350613 0.885655 0.494334
2571 1 0.36052 0.898311 0.495458
2502 1 0.364584 0.886829 0.493396
2573 1 0.378408 0.888766 0.494381
2577 1 0.388999 0.897415 0.496427
2504 1 0.391504 0.88401 0.494311
2507 1 0.405932 0.886657 0.493604
2510 1 0.421074 0.886705 0.494044
2579 1 0.414247 0.898661 0.493446
2512 1 0.434284 0.888735 0.492688
2514 1 0.449336 0.885969 0.49204
2516 1 0.464081 0.888701 0.490918
2589 1 0.479729 0.888524 0.492906
2520 1 0.49391 0.888275 0.494982
2522 1 0.0109267 0.913888 0.499459
2523 1 0.0171169 0.900267 0.498042
2521 1 0.000955298 0.901361 0.499581
2525 1 0.0297848 0.90225 0.498541
2524 1 0.0231187 0.914558 0.499712
2526 1 0.0348731 0.912795 0.497826
2528 1 0.0504683 0.91256 0.497822
2529 1 0.0577481 0.901224 0.496121
2530 1 0.0652489 0.914153 0.495904
2533 1 0.0844414 0.900516 0.497627
2532 1 0.0798461 0.91022 0.496635
2534 1 0.0935768 0.914502 0.497636
2536 1 0.106282 0.913406 0.497989
2538 1 0.121045 0.910724 0.498892
2540 1 0.134874 0.911555 0.498561
2542 1 0.150962 0.907642 0.498853
2544 1 0.163303 0.910076 0.499302
2547 1 0.186346 0.902333 0.497363
2546 1 0.177272 0.912412 0.499531
2549 1 0.202122 0.902072 0.496375
2550 1 0.208744 0.913233 0.496499
2548 1 0.194074 0.91282 0.497773
2551 1 0.216538 0.901321 0.496631
2554 1 0.222043 0.915704 0.496862
2486 1 0.245615 0.900042 0.497604
2555 1 0.237171 0.910266 0.4995
2556 1 0.251733 0.912184 0.498923
2558 1 0.264958 0.909533 0.497731
2560 1 0.283353 0.912168 0.496638
2562 1 0.297026 0.911348 0.496697
2564 1 0.322867 0.91191 0.496934
2563 1 0.308861 0.910999 0.495829
2566 1 0.331116 0.900305 0.495549
2568 1 0.33788 0.911245 0.496303
2570 1 0.353103 0.912081 0.496519
2572 1 0.366095 0.908845 0.498117
2575 1 0.376042 0.901157 0.497479
2574 1 0.382206 0.91214 0.49941
2506 1 0.401878 0.900117 0.494833
2508 1 0.396085 0.912298 0.497899
2582 1 0.422066 0.913212 0.495693
2576 1 0.410348 0.912151 0.495547
2581 1 0.427257 0.900905 0.494442
2652 1 0.436999 0.912671 0.495569
2583 1 0.442938 0.900111 0.492983
2515 1 0.457432 0.900097 0.492082
2584 1 0.449059 0.912305 0.493906
2587 1 0.471923 0.901518 0.492513
2585 1 0.463404 0.911253 0.492508
2586 1 0.479555 0.91244 0.490269
2588 1 0.486245 0.900834 0.492572
5322 1 0.495441 0.912518 0.493502
2595 1 0.0316231 0.92685 0.499422
2598 1 0.0544218 0.93968 0.498419
2597 1 0.0466822 0.926311 0.497654
2596 1 0.0387042 0.937387 0.499066
2599 1 0.0595741 0.926759 0.498469
2601 1 0.0726632 0.927141 0.497915
2600 1 0.0656887 0.939598 0.499753
2602 1 0.0801931 0.939469 0.499055
2603 1 0.0851338 0.926395 0.497554
2605 1 0.100412 0.928325 0.497615
2607 1 0.114112 0.92325 0.499002
2609 1 0.12882 0.922256 0.498925
2610 1 0.129956 0.934432 0.498923
2611 1 0.142528 0.924166 0.49923
2615 1 0.170235 0.924493 0.499539
2617 1 0.1777 0.938484 0.499362
2619 1 0.18556 0.925777 0.497142
2618 1 0.19379 0.937159 0.496513
2620 1 0.201267 0.923552 0.496767
2691 1 0.207281 0.93549 0.497487
2621 1 0.214176 0.926247 0.497591
2622 1 0.221198 0.937952 0.497915
2623 1 0.231793 0.928302 0.499568
2699 1 0.264123 0.935722 0.499345
2629 1 0.286373 0.930379 0.497804
2630 1 0.27744 0.938711 0.498515
2628 1 0.273116 0.92486 0.497967
2635 1 0.300867 0.923239 0.496592
2701 1 0.297525 0.938457 0.496661
2636 1 0.311754 0.935389 0.496607
2631 1 0.31358 0.924353 0.496222
2634 1 0.32539 0.938738 0.496493
2637 1 0.328313 0.925815 0.496719
2650 1 0.343401 0.924236 0.49868
2639 1 0.33862 0.937279 0.497856
2641 1 0.352279 0.934722 0.49898
2642 1 0.358893 0.924009 0.498481
2645 1 0.37385 0.923392 0.498646
2713 1 0.366639 0.938118 0.498788
2644 1 0.379888 0.937753 0.499811
2578 1 0.389405 0.924988 0.498614
2643 1 0.394616 0.938072 0.498541
2646 1 0.404051 0.928795 0.497336
2648 1 0.41643 0.925357 0.496324
2649 1 0.42177 0.936401 0.49464
2717 1 0.410284 0.938554 0.496519
2651 1 0.430057 0.926181 0.495976
2653 1 0.435637 0.937959 0.496607
2580 1 0.443827 0.926295 0.495092
2655 1 0.457111 0.922066 0.49388
2654 1 0.451451 0.936543 0.495902
2657 1 0.471863 0.923739 0.49273
2658 1 0.478755 0.936907 0.496266
2656 1 0.464897 0.936271 0.494128
2659 1 0.48737 0.925098 0.493845
2660 1 0.493865 0.936242 0.494254
2667 1 0.0459307 0.951661 0.49902
2669 1 0.0597636 0.9534 0.497193
2671 1 0.0749355 0.952157 0.498593
2675 1 0.093657 0.941445 0.499058
2673 1 0.0862068 0.951859 0.499382
2677 1 0.11254 0.954434 0.498658
2604 1 0.100407 0.952906 0.498274
2606 1 0.106614 0.940029 0.497403
2679 1 0.12325 0.947691 0.499574
2681 1 0.138775 0.944319 0.499317
2687 1 0.185957 0.951601 0.498019
2689 1 0.200155 0.949224 0.496234
2692 1 0.214308 0.950575 0.498566
2695 1 0.230984 0.951517 0.49813
2697 1 0.245152 0.949258 0.499539
2769 1 0.270753 0.949345 0.498629
2632 1 0.286479 0.946512 0.498174
2702 1 0.296842 0.957943 0.498562
2633 1 0.30786 0.94755 0.497651
2705 1 0.319379 0.95069 0.496549
2638 1 0.332247 0.949629 0.497576
2709 1 0.345237 0.949865 0.499534
2711 1 0.35963 0.947239 0.499561
2647 1 0.401711 0.950274 0.497159
2715 1 0.388238 0.95035 0.498933
2719 1 0.417262 0.950457 0.4963
2722 1 0.429338 0.948955 0.496284
2723 1 0.44284 0.950143 0.49476
2725 1 0.457024 0.950427 0.494928
2727 1 0.471919 0.950916 0.494001
5461 1 0.499961 0.950455 0.496046
2729 1 0.484992 0.950635 0.495209
2737 1 0.0436233 0.974799 0.498875
2668 1 0.0511646 0.96355 0.498731
2739 1 0.0579402 0.976307 0.499426
2670 1 0.0660308 0.964591 0.499471
2741 1 0.0730121 0.978509 0.497956
2672 1 0.0798768 0.964506 0.498849
2676 1 0.0951578 0.963285 0.498674
2674 1 0.0877149 0.976203 0.498024
13 1 0.0992315 0.978811 0.498105
2745 1 0.106097 0.967226 0.499635
2678 1 0.12362 0.962771 0.498671
2685 1 0.176937 0.962469 0.499778
2686 1 0.186327 0.975039 0.499103
2688 1 0.192551 0.96195 0.4988
2690 1 0.205413 0.963124 0.497582
2693 1 0.222733 0.962542 0.496725
2761 1 0.230044 0.974165 0.497614
31 1 0.214636 0.977507 0.498877
2694 1 0.23781 0.962609 0.498035
2765 1 0.246702 0.974918 0.498681
2698 1 0.265473 0.96177 0.499729
37 1 0.260174 0.975165 0.499179
2696 1 0.252519 0.96264 0.499188
2767 1 0.279944 0.960455 0.499282
2773 1 0.287093 0.974561 0.499105
2768 1 0.272996 0.972793 0.498614
2774 1 0.30354 0.973398 0.496538
2703 1 0.310828 0.961287 0.497884
2775 1 0.3158 0.974693 0.498002
2704 1 0.326011 0.962754 0.498579
2706 1 0.339949 0.961722 0.498921
2777 1 0.330294 0.97511 0.498572
2781 1 0.361628 0.974847 0.499911
2714 1 0.388557 0.97624 0.499958
2785 1 0.39483 0.963294 0.498023
2787 1 0.402037 0.976151 0.497972
2789 1 0.414484 0.978238 0.497246
2718 1 0.409777 0.96438 0.495979
2793 1 0.438075 0.962988 0.49595
2720 1 0.428102 0.97494 0.496672
2721 1 0.423159 0.962744 0.494758
2724 1 0.450525 0.962491 0.493923
2795 1 0.458642 0.9766 0.49412
2794 1 0.444387 0.975959 0.49544
2797 1 0.472082 0.976518 0.495504
2726 1 0.464919 0.96453 0.493877
2728 1 0.478171 0.963561 0.494213
2730 1 0.486852 0.975936 0.496656
5462 1 0.492277 0.962641 0.496903
2738 1 0.0367861 0.992553 0.499063
5 1 0.0477769 0.988735 0.497973
2740 1 0.0644556 0.989621 0.49847
2743 1 0.0787357 0.989091 0.496296
2744 1 0.0915426 0.991436 0.496175
2746 1 0.104302 0.990481 0.499594
2762 1 0.205516 0.988648 0.499382
32 1 0.214435 0.999335 0.499773
2763 1 0.238561 0.986929 0.498584
2766 1 0.246222 0.998896 0.498166
35 1 0.251746 0.986289 0.498558
36 1 0.263787 0.988529 0.498453
39 1 0.27337 0.999662 0.497677
2770 1 0.285528 0.997109 0.497823
2771 1 0.276324 0.986177 0.497661
42 1 0.300079 0.999377 0.499147
2772 1 0.294545 0.986915 0.498937
2778 1 0.323408 0.987511 0.498444
45 1 0.314024 0.99999 0.49812
43 1 0.310313 0.987254 0.498539
49 1 0.344377 0.998533 0.498286
2776 1 0.329239 0.999951 0.498729
47 1 0.336912 0.985851 0.498614
2780 1 0.352325 0.986205 0.499257
53 1 0.374506 0.999748 0.498736
2783 1 0.367135 0.988088 0.499604
2786 1 0.396143 0.988928 0.499242
2788 1 0.409151 0.990755 0.498071
2792 1 0.437008 0.987869 0.498016
59 1 0.423088 0.99152 0.497055
65 1 0.452595 0.988642 0.496173
2796 1 0.465072 0.989566 0.496102
2799 1 0.479451 0.987186 0.495831
68 1 0.485155 0.996857 0.49716
69 1 0.49413 0.986191 0.497924
1402 1 0.00667463 0.513971 0.500478
1403 1 0.0156054 0.504381 0.501634
1401 1 0.00290942 0.50134 0.501566
1404 1 0.0223352 0.515102 0.500177
1406 1 0.0357945 0.515404 0.500288
1405 1 0.0295365 0.501452 0.500302
1470 1 0.496428 0.510129 0.500633
1477 1 0.0452881 0.527863 0.50007
1496 1 0.178204 0.538737 0.501007
1498 1 0.192171 0.538216 0.500186
1545 1 0.0291904 0.550097 0.501074
1567 1 0.187179 0.55114 0.500968
1569 1 0.201696 0.551264 0.500259
1546 1 0.0366498 0.56296 0.500049
1562 1 0.150465 0.563198 0.500758
1631 1 0.145238 0.576758 0.501247
1564 1 0.165735 0.565319 0.500335
1566 1 0.177237 0.562457 0.500461
1568 1 0.19189 0.563147 0.500522
1639 1 0.196838 0.574342 0.500117
1570 1 0.207808 0.5642 0.501233
1630 1 0.137789 0.590304 0.501266
1634 1 0.165129 0.589336 0.500471
1638 1 0.196054 0.587768 0.500366
1702 1 0.149785 0.614698 0.500636
1703 1 0.15816 0.602116 0.500857
1705 1 0.172056 0.600293 0.500033
1823 1 0.0189032 0.651175 0.500325
1821 1 0.00352273 0.64818 0.501243
1822 1 0.00788303 0.662692 0.500326
1891 1 0.00681435 0.688152 0.501605
1896 1 0.0352605 0.691888 0.500641
1961 1 0.00316847 0.715861 0.502385
1892 1 0.0123798 0.702647 0.503285
1962 1 0.0190584 0.716097 0.50203
1963 1 0.0265469 0.705087 0.501022
1966 1 0.0338169 0.717717 0.501208
1967 1 0.0406806 0.704485 0.500327
1965 1 0.0469423 0.716637 0.500017
2034 1 0.0114977 0.728804 0.500477
2033 1 0.0275563 0.729858 0.501925
2037 1 0.0416312 0.729743 0.501539
1968 1 0.0555783 0.728733 0.500892
2043 1 0.0872121 0.723743 0.500911
2045 1 0.094524 0.738997 0.500883
2047 1 0.10157 0.729113 0.500037
2046 1 0.10981 0.739958 0.500532
4900 1 0.00535517 0.74538 0.50019
2101 1 0.0131657 0.755036 0.500668
2105 1 0.0354436 0.742556 0.500015
2035 1 0.02099 0.742331 0.500313
2039 1 0.0509826 0.742365 0.50039
2107 1 0.0591252 0.755295 0.500612
2038 1 0.0676135 0.740096 0.500502
2111 1 0.072333 0.755592 0.5017
2044 1 0.0877633 0.750911 0.501248
2115 1 0.104905 0.753227 0.500264
2117 1 0.118116 0.752666 0.501177
2122 1 0.145906 0.749502 0.500034
2102 1 0.00753816 0.769925 0.501485
2110 1 0.057299 0.77591 0.50107
2112 1 0.0665542 0.766296 0.50229
2181 1 0.0740829 0.776134 0.501957
2113 1 0.0820654 0.762682 0.502434
2183 1 0.0883266 0.775078 0.502685
2114 1 0.0965365 0.762482 0.500954
2185 1 0.102928 0.775266 0.502639
2116 1 0.111766 0.764203 0.501058
2188 1 0.115789 0.779395 0.502852
2118 1 0.125672 0.764153 0.501318
2187 1 0.130454 0.777836 0.50237
2190 1 0.145026 0.773711 0.501744
2119 1 0.136843 0.760358 0.501384
2120 1 0.15106 0.760989 0.501682
2191 1 0.157773 0.774047 0.501449
2193 1 0.171273 0.775844 0.500857
2171 1 0.000332762 0.783544 0.50057
2173 1 0.0146771 0.780822 0.500053
2179 1 0.0642037 0.786342 0.501552
2180 1 0.0751051 0.799862 0.500342
2184 1 0.0948376 0.788214 0.50267
2182 1 0.0801173 0.788535 0.501141
2253 1 0.0892367 0.799152 0.501523
2186 1 0.107225 0.79032 0.50235
2259 1 0.123134 0.791383 0.502158
2189 1 0.149337 0.786472 0.501825
2258 1 0.137171 0.78904 0.501966
2194 1 0.163804 0.787422 0.500269
2263 1 0.158124 0.798496 0.500999
2196 1 0.176701 0.78676 0.500319
2250 1 0.0645923 0.810863 0.500748
2252 1 0.0939626 0.811738 0.500219
2255 1 0.102351 0.800989 0.501502
2254 1 0.108466 0.813499 0.501156
2257 1 0.115681 0.801864 0.50181
2256 1 0.121903 0.813753 0.500197
2261 1 0.129803 0.800935 0.501901
2192 1 0.144898 0.80087 0.501012
2260 1 0.137042 0.812746 0.500802
2262 1 0.152153 0.812099 0.501277
2322 1 0.0784281 0.838211 0.500041
2325 1 0.0993919 0.824868 0.500101
2331 1 0.143399 0.824375 0.500398
2330 1 0.136888 0.837485 0.500477
2403 1 0.156066 0.852509 0.500159
2402 1 0.150881 0.865991 0.50001
2593 1 0.0164547 0.927932 0.500393
2591 1 0.00250049 0.924303 0.500658
2594 1 0.0238569 0.938526 0.5001
2608 1 0.118011 0.935586 0.500463
2612 1 0.150906 0.937342 0.500334
2613 1 0.157195 0.922985 0.500659
2614 1 0.164754 0.935955 0.500211
2624 1 0.237414 0.938759 0.500501
2626 1 0.249532 0.936744 0.501409
2625 1 0.246241 0.924968 0.500139
2627 1 0.261173 0.92381 0.500107
2592 1 0.0112066 0.940086 0.50141
2661 1 0.00345804 0.949576 0.502281
2663 1 0.0181522 0.953669 0.501052
2665 1 0.0326346 0.950762 0.500956
2616 1 0.169307 0.950983 0.500901
2683 1 0.154529 0.950186 0.500108
2700 1 0.257991 0.949322 0.500491
2779 1 0.375548 0.949322 0.500429
2733 1 0.0143051 0.976567 0.501859
2662 1 0.00795022 0.963479 0.50393
2731 1 0.00117579 0.97458 0.503296
2666 1 0.0375024 0.964679 0.500553
2664 1 0.0242058 0.966023 0.501195
2735 1 0.0286035 0.979932 0.500171
2747 1 0.113456 0.97944 0.5007
2749 1 0.127396 0.9792 0.500807
2680 1 0.134581 0.960616 0.50036
2751 1 0.14012 0.974745 0.500883
2682 1 0.147617 0.960596 0.500452
2684 1 0.162243 0.964297 0.501352
2753 1 0.155198 0.979901 0.501714
2755 1 0.17005 0.977445 0.500951
2759 1 0.199532 0.975904 0.5002
2708 1 0.345918 0.972507 0.500524
2707 1 0.353888 0.962735 0.500174
2712 1 0.368721 0.961316 0.501315
2710 1 0.374283 0.974553 0.500297
2716 1 0.382312 0.961978 0.500536
3 1 0.000796471 0.99926 0.50448
2732 1 0.00744997 0.988006 0.502217
2734 1 0.0209725 0.989378 0.500953
2750 1 0.132092 0.98999 0.501011
2748 1 0.117307 0.992033 0.500482
2752 1 0.14621 0.989524 0.502242
2754 1 0.164863 0.990976 0.500639
2758 1 0.178455 0.988326 0.500559
2760 1 0.192022 0.987833 0.500856
2764 1 0.224157 0.989322 0.500022
2784 1 0.381661 0.986624 0.501034
2802 1 0.511225 0.0122495 0.498419
2804 1 0.524663 0.00979455 0.498614
2806 1 0.537414 0.0109019 0.498463
2808 1 0.549312 0.0101242 0.497825
2810 1 0.562183 0.00968669 0.497129
2811 1 0.577182 0.0113856 0.497293
2885 1 0.589126 0.0106565 0.494605
2816 1 0.597588 0.00196982 0.494366
2818 1 0.603928 0.0120713 0.494935
2817 1 0.618122 0.0104447 0.496573
2820 1 0.634355 0.0123741 0.496166
2822 1 0.647161 0.0107904 0.497329
2824 1 0.660393 0.0133592 0.496421
2826 1 0.675544 0.0118531 0.497285
2828 1 0.689144 0.00988408 0.498666
2840 1 0.775216 0.0142999 0.498987
2843 1 0.797395 0.000955107 0.498866
2842 1 0.788817 0.0126652 0.499298
2844 1 0.805598 0.0103194 0.498385
2846 1 0.821536 0.0117689 0.498578
2845 1 0.814363 0.00226175 0.499602
2848 1 0.836096 0.0135863 0.49767
2919 1 0.846015 0.0198561 0.497684
2850 1 0.854476 0.00840325 0.499387
2852 1 0.867569 0.0106338 0.499882
2854 1 0.882298 0.00959928 0.49963
2871 1 0.502423 0.0263613 0.49873
2872 1 0.507804 0.0379063 0.499568
2873 1 0.514333 0.024589 0.499164
2874 1 0.521158 0.0359177 0.498396
2876 1 0.535231 0.0361779 0.498199
2875 1 0.527783 0.0215644 0.497297
2879 1 0.555525 0.0222314 0.497629
2951 1 0.550514 0.034664 0.497413
2877 1 0.541541 0.0246777 0.496559
2881 1 0.568804 0.0216612 0.498362
2882 1 0.576687 0.0325896 0.498567
2878 1 0.564352 0.0338526 0.49945
2812 1 0.585766 0.0221632 0.497215
2953 1 0.591851 0.036386 0.498554
2884 1 0.597302 0.0248717 0.495465
2888 1 0.614227 0.0215252 0.495344
2887 1 0.605546 0.0326681 0.498089
2889 1 0.628286 0.0221577 0.495989
2962 1 0.620241 0.0349191 0.497354
2890 1 0.63306 0.0347109 0.499025
2891 1 0.642198 0.0231005 0.497741
2892 1 0.646723 0.0370202 0.498563
2893 1 0.654108 0.0272302 0.496621
2895 1 0.670862 0.0241094 0.495987
2894 1 0.661592 0.035592 0.498756
2897 1 0.682497 0.023436 0.498787
2896 1 0.675606 0.0368332 0.497198
2898 1 0.687634 0.0377451 0.499173
2899 1 0.695014 0.0224 0.49831
2900 1 0.701226 0.035078 0.498378
2901 1 0.711155 0.0253411 0.499776
2902 1 0.716196 0.0381069 0.498768
2904 1 0.730093 0.0374618 0.498328
2906 1 0.741921 0.0398424 0.497993
2905 1 0.739216 0.0254607 0.499088
2908 1 0.757314 0.0395781 0.499153
2911 1 0.782417 0.0263572 0.499719
2913 1 0.7977 0.0229519 0.49937
2916 1 0.819038 0.03843 0.498295
2915 1 0.814553 0.023893 0.497726
2917 1 0.827307 0.0247905 0.497874
2918 1 0.837046 0.0337827 0.498178
2920 1 0.851845 0.0341144 0.498662
2921 1 0.859167 0.023644 0.497839
2923 1 0.874433 0.0240757 0.499343
2924 1 0.877696 0.0383816 0.499837
2926 1 0.892094 0.0348546 0.498765
2925 1 0.886664 0.0223171 0.499993
2941 1 0.501355 0.049415 0.498948
2945 1 0.516012 0.049854 0.499727
2948 1 0.528278 0.0495683 0.497934
2880 1 0.556247 0.0474506 0.499844
2947 1 0.541824 0.0481675 0.498161
2883 1 0.571148 0.0463457 0.499465
2952 1 0.585268 0.051118 0.499796
2886 1 0.599663 0.0490427 0.499255
2959 1 0.611189 0.0456262 0.498829
2960 1 0.625577 0.0469399 0.499149
2957 1 0.617268 0.05754 0.499348
3033 1 0.630958 0.0598535 0.499169
3034 1 0.647346 0.0594184 0.499505
2965 1 0.669167 0.0460613 0.498809
2963 1 0.655043 0.0491948 0.498544
2967 1 0.681886 0.0494818 0.498329
2969 1 0.694255 0.049563 0.498248
2971 1 0.707633 0.049244 0.499392
2973 1 0.721431 0.0501814 0.498654
2975 1 0.737204 0.0519171 0.495927
2977 1 0.753753 0.0516175 0.496405
2979 1 0.766902 0.0504264 0.499597
2981 1 0.78173 0.0451422 0.49987
2980 1 0.776957 0.0596577 0.498747
2984 1 0.807662 0.0599958 0.499753
2982 1 0.790916 0.0575925 0.499856
2985 1 0.813389 0.0483236 0.498195
2987 1 0.829208 0.048141 0.497522
2989 1 0.842176 0.0488579 0.498848
2991 1 0.857706 0.0489544 0.498747
2944 1 0.508563 0.0613645 0.499806
2946 1 0.536131 0.0619533 0.499581
2956 1 0.60476 0.06085 0.499165
3027 1 0.612253 0.0729826 0.499184
2958 1 0.625955 0.0711318 0.497716
2964 1 0.663571 0.0609245 0.498989
2966 1 0.675129 0.0620212 0.497817
2968 1 0.689521 0.0629157 0.498321
3037 1 0.6813 0.0732583 0.499816
3041 1 0.708889 0.0742967 0.499619
2972 1 0.716173 0.0636439 0.499695
3043 1 0.724017 0.0740308 0.499032
2974 1 0.731888 0.0626237 0.498798
2976 1 0.745199 0.0648972 0.496505
3045 1 0.737083 0.0767903 0.498691
2978 1 0.762433 0.0637256 0.498478
3047 1 0.754 0.0755064 0.499074
3049 1 0.770239 0.0741199 0.499764
2986 1 0.822024 0.0603995 0.499251
2988 1 0.834978 0.0640921 0.49947
3063 1 0.872096 0.0748381 0.499958
3002 1 0.935521 0.0609002 0.49962
3028 1 0.620605 0.0843997 0.498716
3042 1 0.71786 0.0870038 0.499988
3046 1 0.746472 0.0867486 0.49922
3044 1 0.732038 0.0875842 0.498905
3619 1 0.844609 0.274469 0.499027
3627 1 0.902319 0.272155 0.498212
3618 1 0.836252 0.28547 0.499298
3620 1 0.851914 0.287878 0.499271
3622 1 0.867186 0.284323 0.498754
3693 1 0.8716 0.297539 0.498723
3626 1 0.894905 0.284069 0.498501
3695 1 0.886356 0.299867 0.498802
3697 1 0.901292 0.298721 0.499633
3628 1 0.909963 0.28711 0.499671
3691 1 0.856926 0.301372 0.499419
3915 1 0.955536 0.375409 0.498966
3917 1 0.970462 0.374909 0.499535
3919 1 0.983693 0.375799 0.49914
1051 1 0.998401 0.376123 0.498682
3850 1 0.989215 0.361454 0.499765
3935 1 0.600153 0.396551 0.499673
3939 1 0.62857 0.395059 0.499913
3943 1 0.657901 0.396721 0.499849
3916 1 0.960944 0.388898 0.499637
3918 1 0.978365 0.388756 0.498626
3920 1 0.991617 0.388286 0.496977
3934 1 0.59296 0.406834 0.498926
3936 1 0.609272 0.409728 0.498226
3938 1 0.623598 0.409261 0.498983
3942 1 0.648717 0.408982 0.499311
3940 1 0.637486 0.410816 0.497988
3987 1 0.968914 0.401545 0.498419
3988 1 0.977258 0.414895 0.499055
1121 1 0.998994 0.401611 0.496593
3990 1 0.992258 0.414151 0.497528
3989 1 0.983748 0.402083 0.498203
3998 1 0.551663 0.439208 0.499133
3999 1 0.559307 0.425253 0.499461
4000 1 0.565135 0.43456 0.49769
4001 1 0.572607 0.422897 0.499002
4002 1 0.57809 0.433072 0.497507
4003 1 0.587123 0.420227 0.499003
4004 1 0.595211 0.432531 0.497134
4005 1 0.601553 0.420474 0.498554
4006 1 0.606342 0.43471 0.496935
4007 1 0.616596 0.422916 0.498627
4008 1 0.621087 0.434821 0.49575
4009 1 0.629756 0.421882 0.498052
4010 1 0.635221 0.437143 0.498291
4011 1 0.643339 0.423939 0.498928
4012 1 0.648972 0.436051 0.499398
1191 1 0.998098 0.428034 0.498492
4059 1 0.986735 0.427527 0.499463
4067 1 0.543425 0.452369 0.499831
4071 1 0.571863 0.447033 0.496879
4069 1 0.557935 0.448966 0.499542
4072 1 0.580662 0.458243 0.496512
4073 1 0.58488 0.444975 0.49663
4077 1 0.610116 0.447055 0.495301
4075 1 0.598202 0.446403 0.494603
4078 1 0.62136 0.459097 0.495546
4079 1 0.62903 0.446802 0.495506
4082 1 0.650204 0.459698 0.49714
4081 1 0.643118 0.448782 0.497388
4084 1 0.664818 0.459949 0.498358
4083 1 0.655699 0.447525 0.499248
4085 1 0.672591 0.44721 0.49918
4086 1 0.678402 0.458651 0.49855
4060 1 0.993157 0.442172 0.499606
4137 1 0.543339 0.474378 0.497409
4139 1 0.556498 0.475747 0.49655
4068 1 0.55233 0.46215 0.498637
4141 1 0.571758 0.472192 0.496051
4070 1 0.56653 0.462012 0.498974
4143 1 0.586977 0.471869 0.496647
4074 1 0.593542 0.460869 0.494913
4145 1 0.601368 0.472617 0.494451
4076 1 0.608963 0.460723 0.494345
4149 1 0.629237 0.475759 0.494397
4147 1 0.616881 0.475124 0.495099
4151 1 0.642655 0.472719 0.496272
4080 1 0.636484 0.461212 0.495773
4155 1 0.672634 0.47157 0.498579
4153 1 0.657557 0.473136 0.497866
4136 1 0.537027 0.487624 0.498893
4138 1 0.552717 0.488469 0.497742
4207 1 0.543834 0.499247 0.498252
4211 1 0.573575 0.497935 0.497048
4140 1 0.565738 0.488104 0.497284
4209 1 0.559069 0.499768 0.496114
4142 1 0.579063 0.485031 0.497109
4144 1 0.594438 0.485453 0.494983
4213 1 0.586242 0.497621 0.496815
4146 1 0.608001 0.486738 0.495135
4215 1 0.599813 0.498141 0.496706
4217 1 0.616674 0.498654 0.496615
4148 1 0.622738 0.48833 0.493944
4219 1 0.630796 0.498927 0.497512
4152 1 0.650975 0.485986 0.498485
4150 1 0.636439 0.48651 0.495227
4221 1 0.644466 0.497994 0.498326
4154 1 0.66389 0.487056 0.497923
4225 1 0.668483 0.498315 0.498386
4156 1 0.677638 0.485161 0.499768
2830 1 0.703836 0.0112849 0.500617
2834 1 0.729239 0.00977149 0.502037
2832 1 0.717362 0.0119632 0.501232
2836 1 0.744537 0.0088611 0.501436
2838 1 0.757946 0.00962688 0.500871
2856 1 0.896852 0.0101336 0.500525
2857 1 0.903918 0.00115588 0.502258
2858 1 0.910019 0.0117226 0.502346
2860 1 0.922963 0.0102041 0.502203
2862 1 0.9379 0.00996471 0.50285
2864 1 0.951539 0.0113427 0.502641
2868 1 0.963982 0.00970609 0.503565
2867 1 0.978865 0.0109565 0.502448
2 1 0.992795 0.012236 0.504476
2903 1 0.725008 0.0230992 0.500204
2907 1 0.751524 0.0255881 0.500078
2909 1 0.763488 0.0234493 0.500238
2910 1 0.77068 0.0360403 0.500397
2912 1 0.794285 0.0364439 0.500165
2914 1 0.807387 0.0339482 0.500063
2922 1 0.864636 0.03542 0.500367
2927 1 0.902871 0.0249063 0.500459
2928 1 0.909756 0.0364134 0.502024
2929 1 0.917194 0.025105 0.501887
2930 1 0.923175 0.0385667 0.502909
2931 1 0.92844 0.022779 0.50233
2932 1 0.934262 0.03651 0.502864
2933 1 0.941439 0.0236071 0.502529
2937 1 0.950478 0.0338204 0.500971
2935 1 0.958678 0.0236248 0.502072
2938 1 0.967213 0.0337101 0.500894
2939 1 0.972286 0.0210868 0.502444
2870 1 0.981122 0.0348967 0.50323
2869 1 0.986867 0.0223495 0.503241
3007 1 0.995148 0.0351151 0.504948
2954 1 0.576015 0.0590777 0.500984
2961 1 0.638033 0.0483638 0.500626
2983 1 0.800232 0.0471475 0.50046
2993 1 0.870842 0.0486015 0.500687
2995 1 0.885191 0.0497742 0.500734
2997 1 0.901324 0.0503858 0.50178
2999 1 0.916139 0.0498494 0.502148
3001 1 0.928497 0.0507025 0.501201
3003 1 0.944248 0.0490635 0.500779
2934 1 0.958735 0.047 0.501391
71 1 0.973038 0.0453813 0.502806
2940 1 0.979426 0.0588496 0.502569
283 1 0.998826 0.044903 0.504417
3077 1 0.987173 0.0478 0.503786
3147 1 0.994032 0.05885 0.501697
3013 1 0.511597 0.0745353 0.500306
3015 1 0.525795 0.0782723 0.502854
2943 1 0.523172 0.0651804 0.500055
3017 1 0.538736 0.074028 0.501982
2949 1 0.554008 0.0727358 0.502977
2950 1 0.550336 0.0604738 0.500731
3025 1 0.569917 0.0722739 0.503395
3021 1 0.563432 0.0612883 0.502885
3023 1 0.584305 0.0716013 0.502806
2955 1 0.591566 0.0611113 0.501579
3022 1 0.596889 0.0731176 0.500007
3031 1 0.639605 0.0708705 0.500626
3105 1 0.655174 0.0727314 0.501263
3035 1 0.666992 0.0743152 0.500333
2970 1 0.703104 0.0618414 0.500368
3039 1 0.696879 0.0763624 0.500991
3051 1 0.785207 0.0726953 0.500144
3053 1 0.798675 0.0734094 0.501199
3055 1 0.817396 0.0728773 0.501468
3059 1 0.844661 0.0727205 0.501099
3057 1 0.828549 0.0735332 0.501706
3061 1 0.858334 0.0729917 0.500188
2992 1 0.863678 0.0618682 0.501327
2990 1 0.848808 0.0609393 0.50006
2994 1 0.877236 0.0628818 0.500621
2996 1 0.892756 0.0618299 0.501316
3065 1 0.886557 0.0746599 0.503172
3067 1 0.90182 0.0763762 0.504296
2998 1 0.907965 0.0634664 0.502551
3000 1 0.921922 0.0655145 0.501849
3069 1 0.916352 0.0796504 0.50295
3071 1 0.931385 0.0762727 0.502749
3004 1 0.943519 0.0725595 0.500805
3005 1 0.94919 0.0608353 0.501264
3006 1 0.958532 0.0731275 0.50203
2936 1 0.96449 0.0607722 0.502536
3074 1 0.973597 0.0763318 0.502152
3150 1 0.990154 0.0712517 0.502358
3012 1 0.503392 0.0909347 0.501005
3014 1 0.518923 0.0883689 0.503855
3087 1 0.53399 0.0890004 0.503489
3016 1 0.548432 0.0865144 0.502887
3020 1 0.558624 0.0967366 0.504232
3091 1 0.570282 0.0963095 0.505025
3018 1 0.561598 0.0840897 0.503597
3019 1 0.576509 0.0827563 0.50315
3024 1 0.589489 0.0860061 0.502107
3093 1 0.582728 0.0984693 0.503515
3026 1 0.603822 0.0843081 0.500652
3095 1 0.598357 0.0966518 0.502448
3098 1 0.611991 0.0956694 0.502157
3099 1 0.626386 0.09563 0.500579
3029 1 0.633371 0.0842369 0.50071
3030 1 0.641046 0.0978783 0.50016
3032 1 0.650732 0.0859052 0.501261
3175 1 0.669765 0.0987532 0.50398
3103 1 0.655272 0.0977658 0.502754
3036 1 0.663992 0.086363 0.5032
3107 1 0.68331 0.0961729 0.502452
3038 1 0.67691 0.0852045 0.502332
3109 1 0.690731 0.0858519 0.502619
3040 1 0.704832 0.0887738 0.501405
3179 1 0.698087 0.0998139 0.501496
3113 1 0.727355 0.0985379 0.501225
3111 1 0.713822 0.0996747 0.502054
3115 1 0.741273 0.0994987 0.500366
3048 1 0.761788 0.0871408 0.500227
3117 1 0.754457 0.0969704 0.501536
3121 1 0.784181 0.0982637 0.5045
3119 1 0.771422 0.0972388 0.501748
3050 1 0.77898 0.0868576 0.502455
3123 1 0.799154 0.0977978 0.504421
3052 1 0.792233 0.0856686 0.502564
3054 1 0.806661 0.0832245 0.501907
3125 1 0.811886 0.0974244 0.50342
3056 1 0.819179 0.0871005 0.502442
3129 1 0.842551 0.0987038 0.5053
3127 1 0.828087 0.0979048 0.505097
3058 1 0.833367 0.0866743 0.502813
3060 1 0.849148 0.0850728 0.50387
3131 1 0.857092 0.0964133 0.504819
3062 1 0.864083 0.0848784 0.502222
3064 1 0.879017 0.0846695 0.502283
3133 1 0.872776 0.097599 0.505509
3135 1 0.886556 0.0972853 0.503776
3066 1 0.893466 0.0870033 0.504919
3068 1 0.907117 0.0891072 0.504442
3070 1 0.924592 0.0899093 0.503468
3072 1 0.936609 0.0862853 0.501885
3073 1 0.950897 0.0865173 0.501546
3080 1 0.959323 0.0988893 0.503438
3143 1 0.944026 0.0990056 0.50369
3075 1 0.965476 0.085288 0.501318
3009 1 0.97463 0.0980304 0.503405
3076 1 0.982801 0.0839658 0.503663
3149 1 0.996978 0.0830061 0.503985
3010 1 0.990125 0.0961641 0.503974
3081 1 0.502076 0.106229 0.501354
3083 1 0.515459 0.103274 0.502017
3082 1 0.509068 0.117145 0.5024
3085 1 0.528073 0.101197 0.502861
3084 1 0.522719 0.115614 0.503182
3088 1 0.535744 0.114462 0.503645
3089 1 0.54096 0.100736 0.504168
3159 1 0.547582 0.112034 0.503775
3092 1 0.562581 0.111261 0.505315
3097 1 0.577058 0.112261 0.504832
3167 1 0.591645 0.10887 0.502097
3096 1 0.606161 0.107092 0.504235
3094 1 0.602024 0.119528 0.504924
3171 1 0.622334 0.107883 0.503549
3166 1 0.616079 0.119342 0.505131
3100 1 0.634968 0.11158 0.501682
3101 1 0.649436 0.10967 0.503198
3102 1 0.663622 0.109215 0.502821
3176 1 0.673031 0.119514 0.504869
3104 1 0.680188 0.1084 0.503786
3108 1 0.692139 0.111412 0.503339
3110 1 0.704399 0.111292 0.502808
3112 1 0.720393 0.110989 0.502633
3114 1 0.734398 0.111488 0.503959
3116 1 0.750328 0.108857 0.504139
3118 1 0.765242 0.107465 0.504271
3120 1 0.777445 0.107406 0.506138
3189 1 0.771266 0.11843 0.506729
3122 1 0.791226 0.110363 0.506434
3124 1 0.80374 0.109809 0.505636
3126 1 0.818355 0.109837 0.506883
3128 1 0.835248 0.110195 0.508289
3130 1 0.851264 0.109902 0.507326
3132 1 0.866601 0.108394 0.506601
3134 1 0.879324 0.111427 0.506794
3137 1 0.900214 0.100744 0.506594
3136 1 0.892582 0.11127 0.506801
3139 1 0.914669 0.100613 0.504743
3138 1 0.908158 0.111911 0.506492
3140 1 0.920974 0.112192 0.506491
3141 1 0.92819 0.101157 0.504646
3142 1 0.937613 0.110417 0.505919
3144 1 0.951701 0.111264 0.50472
3145 1 0.968467 0.108417 0.504952
3217 1 0.981754 0.109736 0.505085
355 1 0.99622 0.113324 0.503969
3153 1 0.514013 0.127993 0.503517
3151 1 0.500649 0.126698 0.501649
3154 1 0.522586 0.139514 0.504465
3155 1 0.529462 0.12814 0.503768
3157 1 0.537111 0.138636 0.504396
3158 1 0.543133 0.126222 0.503234
3086 1 0.551301 0.138603 0.50553
3090 1 0.557131 0.123805 0.504053
3161 1 0.570332 0.123842 0.506554
3229 1 0.565558 0.137116 0.505665
3231 1 0.581201 0.134252 0.5039
3160 1 0.587221 0.122606 0.505512
3163 1 0.596597 0.133643 0.506592
3165 1 0.607922 0.131975 0.504342
3168 1 0.62308 0.131434 0.504508
3169 1 0.629609 0.120913 0.50471
3170 1 0.638506 0.134547 0.504158
3241 1 0.653767 0.132436 0.502723
3172 1 0.644334 0.12277 0.504286
3173 1 0.659332 0.120573 0.504685
3174 1 0.66691 0.132702 0.50508
3106 1 0.685786 0.123572 0.50518
3247 1 0.678896 0.134871 0.505506
3177 1 0.693477 0.135435 0.505759
3180 1 0.698274 0.123832 0.503424
3178 1 0.708332 0.132427 0.504641
3181 1 0.712756 0.121063 0.503826
3182 1 0.722455 0.13609 0.504709
3183 1 0.727937 0.123742 0.504048
3185 1 0.742267 0.122192 0.505399
3184 1 0.736153 0.135651 0.506827
3186 1 0.750558 0.133758 0.506454
3187 1 0.757437 0.120865 0.506969
3188 1 0.765569 0.132811 0.506487
3190 1 0.778272 0.135004 0.506805
3191 1 0.782993 0.120741 0.506086
3192 1 0.789946 0.134201 0.505534
3193 1 0.79827 0.124046 0.506474
3194 1 0.807987 0.134292 0.50608
3195 1 0.814419 0.124015 0.506783
3196 1 0.822026 0.136933 0.507649
3199 1 0.844338 0.122823 0.508891
3197 1 0.829465 0.123178 0.508071
3198 1 0.836073 0.138741 0.508161
3201 1 0.85953 0.122999 0.50724
3200 1 0.850638 0.136987 0.507072
3202 1 0.864465 0.134654 0.508708
3203 1 0.873246 0.121826 0.509115
3204 1 0.877463 0.136221 0.510101
3207 1 0.901321 0.123537 0.507577
3205 1 0.887879 0.12579 0.50867
3206 1 0.893773 0.138608 0.509217
3209 1 0.915212 0.126452 0.507372
3208 1 0.908234 0.138016 0.508872
3210 1 0.923801 0.139076 0.507997
3212 1 0.936945 0.133586 0.506396
3211 1 0.928392 0.124342 0.507442
3213 1 0.943919 0.12228 0.505166
3215 1 0.960171 0.124052 0.50471
3214 1 0.951688 0.138419 0.504729
3216 1 0.966482 0.1363 0.503841
3146 1 0.975205 0.123297 0.505532
3218 1 0.981198 0.136016 0.506379
3148 1 0.989065 0.123257 0.505898
3220 1 0.996817 0.139182 0.505249
3152 1 0.507775 0.141089 0.502048
3223 1 0.514182 0.151257 0.50392
3221 1 0.500928 0.15136 0.503585
3224 1 0.529998 0.151809 0.505426
3228 1 0.54274 0.150966 0.506353
3299 1 0.557224 0.149891 0.505749
3230 1 0.572973 0.14881 0.505416
3164 1 0.585408 0.14699 0.506182
3162 1 0.599798 0.147641 0.504185
3235 1 0.614217 0.142297 0.504771
3237 1 0.629992 0.145744 0.504745
3238 1 0.620969 0.155645 0.503887
3239 1 0.644797 0.149039 0.50331
3240 1 0.634946 0.158714 0.504431
3243 1 0.659089 0.145553 0.502909
3245 1 0.672542 0.146753 0.50435
3246 1 0.68568 0.146133 0.505061
3248 1 0.68083 0.15871 0.503596
3249 1 0.699713 0.146081 0.505674
3317 1 0.694503 0.158543 0.505716
3250 1 0.706199 0.158174 0.505068
3251 1 0.713236 0.14682 0.506623
3252 1 0.720937 0.159641 0.505509
3253 1 0.727197 0.147388 0.505919
3255 1 0.742396 0.146625 0.507302
3254 1 0.73669 0.158689 0.506076
3257 1 0.757515 0.145345 0.508134
3256 1 0.75041 0.159085 0.507003
3259 1 0.771961 0.148558 0.507323
3261 1 0.785098 0.147329 0.509087
3263 1 0.797738 0.145262 0.507564
3262 1 0.794365 0.157369 0.5074
3265 1 0.811275 0.149663 0.506892
3266 1 0.820548 0.159819 0.505805
3267 1 0.829955 0.148883 0.507254
3269 1 0.844994 0.149362 0.506459
3271 1 0.858457 0.148018 0.507362
3273 1 0.870826 0.14783 0.50806
3274 1 0.878379 0.158453 0.50667
3275 1 0.885827 0.148646 0.507506
3277 1 0.900504 0.152012 0.508139
3279 1 0.915129 0.148945 0.506693
3281 1 0.93215 0.151442 0.506391
3283 1 0.942906 0.148341 0.504352
3285 1 0.959194 0.148427 0.504384
3284 1 0.953053 0.1587 0.504087
3287 1 0.974747 0.149116 0.504495
3289 1 0.989293 0.150669 0.505372
3291 1 0.500074 0.176268 0.505446
3222 1 0.507028 0.160929 0.505499
3293 1 0.511919 0.172757 0.505437
3296 1 0.521448 0.163956 0.504783
3225 1 0.535245 0.163444 0.506312
3156 1 0.526895 0.174443 0.506178
3227 1 0.548789 0.160452 0.506151
3297 1 0.541292 0.173344 0.506872
3226 1 0.555979 0.171318 0.506553
3301 1 0.565905 0.160179 0.505234
3300 1 0.572553 0.172687 0.506399
3232 1 0.578234 0.163437 0.504174
3233 1 0.592235 0.161145 0.504621
3303 1 0.586973 0.172548 0.50535
3236 1 0.60819 0.160087 0.505054
3234 1 0.601412 0.171404 0.506126
3305 1 0.61615 0.169938 0.505868
3309 1 0.62881 0.171834 0.506021
3242 1 0.649726 0.160998 0.502751
3313 1 0.642928 0.17402 0.505476
3315 1 0.666114 0.160607 0.502676
3244 1 0.657205 0.170382 0.503074
3316 1 0.672916 0.171604 0.501614
3383 1 0.687676 0.16962 0.503824
3319 1 0.698142 0.170912 0.505188
3321 1 0.710843 0.170844 0.505682
3323 1 0.730233 0.172724 0.505866
3325 1 0.744215 0.17202 0.507231
3258 1 0.763344 0.160847 0.508892
3327 1 0.758297 0.173687 0.509908
3331 1 0.787333 0.17174 0.507667
3329 1 0.773112 0.172752 0.509059
3260 1 0.779168 0.162234 0.508842
3264 1 0.804473 0.162464 0.507559
3333 1 0.799971 0.174711 0.507591
3335 1 0.812394 0.172519 0.506173
3339 1 0.841118 0.171446 0.507086
3337 1 0.827852 0.172569 0.506456
3268 1 0.835208 0.160616 0.507105
3270 1 0.851249 0.16079 0.506788
3341 1 0.854938 0.17363 0.508571
3272 1 0.864858 0.161356 0.50814
3343 1 0.87091 0.172909 0.508083
3276 1 0.891586 0.161369 0.506942
3345 1 0.885267 0.174349 0.506167
3347 1 0.899536 0.171325 0.504869
3278 1 0.907979 0.162116 0.506099
3280 1 0.922814 0.160888 0.505743
3349 1 0.914153 0.17286 0.505364
3282 1 0.937441 0.16268 0.502755
3351 1 0.929632 0.173475 0.503532
3353 1 0.945633 0.173447 0.502845
3355 1 0.95729 0.170807 0.503546
3286 1 0.967302 0.160527 0.504158
3357 1 0.973043 0.173919 0.504271
3288 1 0.982263 0.162248 0.505271
3290 1 0.998544 0.162472 0.50496
3358 1 0.989249 0.175067 0.50528
3294 1 0.506559 0.187114 0.506273
3364 1 0.514302 0.198512 0.506979
3365 1 0.519028 0.185103 0.507993
3367 1 0.53486 0.184358 0.507056
3368 1 0.527631 0.19563 0.507877
3298 1 0.54897 0.185526 0.507586
3439 1 0.542993 0.197015 0.506932
3369 1 0.557829 0.196979 0.50645
3295 1 0.565217 0.184006 0.507975
3302 1 0.571531 0.197309 0.509098
3371 1 0.579813 0.184612 0.508038
3304 1 0.593947 0.182925 0.506468
3373 1 0.583612 0.19823 0.507406
3377 1 0.608493 0.181484 0.506842
3308 1 0.614954 0.195473 0.507077
3306 1 0.600519 0.195347 0.508413
3307 1 0.622803 0.18498 0.505659
3379 1 0.628881 0.19888 0.505913
3311 1 0.63608 0.18486 0.506359
3312 1 0.650945 0.184083 0.503882
3310 1 0.642566 0.195536 0.505961
3381 1 0.664284 0.182103 0.503266
3382 1 0.656319 0.198256 0.505236
3314 1 0.670252 0.194488 0.50477
3318 1 0.679428 0.183679 0.502019
3387 1 0.685376 0.198005 0.503815
3391 1 0.708104 0.185926 0.503538
3320 1 0.693483 0.184342 0.503471
3389 1 0.698443 0.198404 0.503951
3322 1 0.721538 0.184099 0.504486
3393 1 0.713546 0.198418 0.503897
3465 1 0.728707 0.197868 0.504852
3324 1 0.737265 0.186888 0.507376
3395 1 0.744142 0.198099 0.505373
3326 1 0.749826 0.186966 0.509566
3328 1 0.764864 0.185174 0.509266
3399 1 0.758943 0.197864 0.507389
3330 1 0.779858 0.183806 0.50853
3397 1 0.771349 0.196387 0.509543
3401 1 0.784378 0.197412 0.509998
3332 1 0.792469 0.185102 0.507616
3403 1 0.799363 0.197929 0.509215
3334 1 0.809297 0.187121 0.507553
3336 1 0.822023 0.184483 0.50734
3405 1 0.813213 0.198379 0.507828
3338 1 0.834729 0.184087 0.507539
3407 1 0.827906 0.199189 0.506232
3409 1 0.841781 0.197839 0.506754
3340 1 0.848819 0.185909 0.507357
3342 1 0.860947 0.187396 0.509422
3344 1 0.876262 0.186101 0.507359
3415 1 0.88367 0.198345 0.507973
3413 1 0.868958 0.197868 0.509026
3346 1 0.892435 0.184665 0.506008
3417 1 0.901614 0.197647 0.506232
3348 1 0.905012 0.1854 0.505327
3419 1 0.914234 0.198995 0.505927
3350 1 0.920778 0.184034 0.504688
3352 1 0.936765 0.18405 0.503419
3421 1 0.931133 0.199445 0.504002
3423 1 0.944485 0.197178 0.503837
3354 1 0.950445 0.18693 0.503725
3425 1 0.959021 0.197657 0.502333
3427 1 0.963455 0.18584 0.504284
3359 1 0.978389 0.187045 0.504954
3429 1 0.993836 0.186469 0.504415
561 1 0.985063 0.198478 0.50406
3362 1 0.505533 0.209929 0.506245
3366 1 0.519595 0.211985 0.507732
3435 1 0.534241 0.208161 0.508258
3437 1 0.550474 0.20785 0.507262
3441 1 0.564485 0.210839 0.509191
3374 1 0.576576 0.211268 0.509249
3375 1 0.591856 0.207804 0.509357
3376 1 0.608373 0.20756 0.510519
3447 1 0.613617 0.219592 0.50987
3378 1 0.622523 0.207964 0.509326
3449 1 0.627116 0.21936 0.50859
3380 1 0.636385 0.207931 0.505994
3454 1 0.649613 0.208826 0.505031
3384 1 0.66458 0.210961 0.505385
3385 1 0.677983 0.212091 0.505626
3388 1 0.691954 0.211512 0.503668
3392 1 0.705749 0.209896 0.503095
3394 1 0.721091 0.21104 0.503543
3464 1 0.735848 0.211146 0.505686
3398 1 0.750513 0.212854 0.50722
3469 1 0.76369 0.211339 0.509302
3400 1 0.778517 0.209846 0.509274
3402 1 0.790739 0.210587 0.509371
3404 1 0.806657 0.21026 0.508303
3406 1 0.820911 0.212294 0.508129
3408 1 0.83484 0.212644 0.508936
3411 1 0.853676 0.200548 0.50831
3410 1 0.849672 0.213455 0.506198
3412 1 0.862721 0.21035 0.507192
3414 1 0.874563 0.210557 0.508183
3416 1 0.89087 0.211519 0.506409
3418 1 0.907322 0.210348 0.50529
3420 1 0.922776 0.211337 0.503839
3422 1 0.937995 0.211073 0.50428
3424 1 0.952701 0.208593 0.503721
3356 1 0.972964 0.200622 0.503048
3426 1 0.963429 0.212262 0.503743
3428 1 0.978653 0.211817 0.504314
3430 1 0.99342 0.211198 0.506522
3433 1 0.512209 0.223729 0.507534
3431 1 0.504118 0.23432 0.50683
3503 1 0.526734 0.222761 0.508873
3502 1 0.520188 0.238013 0.507612
3434 1 0.534248 0.234405 0.508792
3436 1 0.540162 0.220307 0.508454
3438 1 0.547176 0.235654 0.509882
3440 1 0.555507 0.223733 0.509495
3370 1 0.570576 0.225121 0.510268
3511 1 0.561514 0.23647 0.510274
3442 1 0.583542 0.221962 0.511051
3444 1 0.591628 0.234862 0.510012
3443 1 0.578461 0.237827 0.510249
3445 1 0.599573 0.223007 0.509383
3446 1 0.605131 0.234345 0.510243
3448 1 0.619359 0.231463 0.51061
3450 1 0.63235 0.23385 0.507834
3451 1 0.641936 0.22188 0.508336
3452 1 0.649665 0.236178 0.507357
3453 1 0.654963 0.222123 0.507346
3456 1 0.662439 0.234027 0.506392
3455 1 0.670348 0.223307 0.505884
3386 1 0.683272 0.224555 0.5049
3457 1 0.678114 0.235989 0.506511
3458 1 0.692055 0.234674 0.505016
3459 1 0.697992 0.222231 0.505594
3460 1 0.706011 0.237676 0.5054
3390 1 0.713434 0.223597 0.504255
3461 1 0.72602 0.223161 0.505064
3462 1 0.720023 0.23663 0.506018
3396 1 0.741337 0.222975 0.506575
3463 1 0.73293 0.233611 0.506293
3466 1 0.748613 0.237147 0.507378
3467 1 0.757794 0.225566 0.510023
3468 1 0.763178 0.236923 0.507021
3470 1 0.777321 0.23865 0.506973
3471 1 0.783148 0.223622 0.508096
3473 1 0.796706 0.221932 0.507651
3472 1 0.792305 0.235858 0.505854
3474 1 0.806314 0.237306 0.504746
3475 1 0.812779 0.224891 0.508025
3476 1 0.82017 0.23772 0.504931
3477 1 0.826588 0.223328 0.505747
3478 1 0.833981 0.237554 0.505451
3479 1 0.842222 0.2235 0.506689
3481 1 0.857948 0.225259 0.506584
3480 1 0.849452 0.236454 0.505616
3482 1 0.864979 0.238441 0.504193
3483 1 0.870736 0.223574 0.506012
3484 1 0.877931 0.236763 0.504542
3485 1 0.884507 0.222379 0.507074
3487 1 0.899396 0.224044 0.505893
3486 1 0.891885 0.236487 0.506691
3489 1 0.91627 0.224634 0.504855
3488 1 0.906303 0.236466 0.505139
3490 1 0.922597 0.235799 0.504363
3491 1 0.92928 0.223591 0.505551
3492 1 0.936561 0.233982 0.505438
3493 1 0.94532 0.221791 0.504405
3495 1 0.958223 0.223393 0.504915
3494 1 0.952155 0.235528 0.505145
3497 1 0.972552 0.222631 0.504466
3496 1 0.967443 0.23523 0.504223
3498 1 0.981501 0.239431 0.504874
3499 1 0.986171 0.226993 0.505995
631 1 0.993943 0.236695 0.505179
3571 1 0.510345 0.247416 0.506345
3505 1 0.526832 0.247912 0.508046
3504 1 0.535342 0.258702 0.506418
3573 1 0.5214 0.259888 0.506086
3507 1 0.541201 0.246291 0.508095
3509 1 0.554652 0.24754 0.508233
3372 1 0.569632 0.251303 0.508931
3513 1 0.584332 0.248636 0.508796
3514 1 0.59446 0.259033 0.508482
3515 1 0.597607 0.246114 0.507919
3517 1 0.614669 0.245752 0.509386
3516 1 0.608182 0.256945 0.507917
3519 1 0.628388 0.24862 0.507244
3518 1 0.620964 0.258519 0.508742
3521 1 0.641284 0.247779 0.508013
3520 1 0.635258 0.259195 0.50937
3523 1 0.65612 0.247419 0.507009
3525 1 0.669894 0.246776 0.505361
3524 1 0.664834 0.259986 0.507056
3527 1 0.686508 0.246372 0.506829
3526 1 0.679519 0.258671 0.507198
3529 1 0.699151 0.247277 0.50621
3528 1 0.694507 0.259751 0.507456
3531 1 0.713232 0.250946 0.505991
3533 1 0.727041 0.248968 0.507354
3535 1 0.740572 0.249578 0.506198
3537 1 0.756037 0.249653 0.508558
3539 1 0.769978 0.248478 0.508044
3541 1 0.786821 0.247407 0.504707
3540 1 0.777527 0.258229 0.505362
3543 1 0.799102 0.249203 0.505233
3545 1 0.813182 0.251441 0.50325
3547 1 0.827326 0.249819 0.504382
3549 1 0.842032 0.248402 0.5053
3551 1 0.855131 0.248127 0.504699
3550 1 0.849046 0.258821 0.504249
3552 1 0.863695 0.257266 0.503322
3553 1 0.872229 0.248248 0.50369
3555 1 0.88642 0.246636 0.502786
3557 1 0.902437 0.247117 0.502287
3556 1 0.894729 0.258109 0.501684
3559 1 0.915064 0.245702 0.503418
3558 1 0.911089 0.258047 0.501129
3560 1 0.922897 0.256461 0.503412
3561 1 0.930191 0.245963 0.503943
3562 1 0.937714 0.257126 0.503589
3563 1 0.94416 0.246769 0.504781
3565 1 0.959363 0.247823 0.505144
3567 1 0.972644 0.249735 0.503554
3569 1 0.987383 0.250272 0.504466
770 1 0.5012 0.273581 0.505492
3572 1 0.505684 0.260225 0.504971
3574 1 0.515189 0.272227 0.506189
3575 1 0.52906 0.272005 0.507303
3510 1 0.547042 0.260721 0.507433
3508 1 0.540924 0.272663 0.508893
3579 1 0.55496 0.273976 0.50782
3581 1 0.561211 0.260146 0.507232
3583 1 0.571011 0.270506 0.508275
3512 1 0.580869 0.260879 0.508037
3585 1 0.585744 0.274253 0.508277
3584 1 0.600793 0.270116 0.508577
3587 1 0.612032 0.271732 0.508845
3588 1 0.62651 0.270119 0.508907
3522 1 0.647285 0.260682 0.508935
3591 1 0.6413 0.270523 0.50986
3593 1 0.655438 0.270809 0.50817
3595 1 0.669495 0.271215 0.507292
3597 1 0.685808 0.271361 0.508272
3530 1 0.707425 0.264827 0.506817
3599 1 0.699948 0.274018 0.507752
3532 1 0.720175 0.261013 0.506201
3601 1 0.713058 0.275599 0.504233
3603 1 0.72949 0.2741 0.504953
3534 1 0.734928 0.262514 0.505816
3605 1 0.742812 0.275169 0.505582
3536 1 0.749694 0.262869 0.507182
3538 1 0.764322 0.263086 0.506649
3607 1 0.7563 0.275773 0.506642
3611 1 0.7832 0.270624 0.505664
3609 1 0.771402 0.274815 0.505139
3542 1 0.791599 0.261563 0.505645
3613 1 0.796533 0.273942 0.504653
3544 1 0.806744 0.263962 0.504866
3546 1 0.820255 0.262506 0.502767
3615 1 0.812503 0.274492 0.502329
3617 1 0.82724 0.2754 0.500037
3548 1 0.836043 0.261791 0.50273
3621 1 0.858321 0.271237 0.502024
3554 1 0.880163 0.260484 0.500678
3623 1 0.872128 0.271701 0.500987
3625 1 0.886721 0.272403 0.500233
3629 1 0.916478 0.273667 0.500286
3631 1 0.929361 0.267469 0.501863
3633 1 0.942182 0.27079 0.502059
3564 1 0.951716 0.261013 0.503868
3635 1 0.956402 0.273777 0.503478
3566 1 0.964771 0.261417 0.502635
3568 1 0.978291 0.262547 0.503128
3637 1 0.970079 0.274819 0.502777
3570 1 0.994728 0.261817 0.502554
3639 1 0.985214 0.273486 0.503328
840 1 0.507892 0.286386 0.506026
3643 1 0.513582 0.296662 0.507482
3576 1 0.52208 0.285059 0.507747
3506 1 0.536521 0.286914 0.508096
3645 1 0.526595 0.29877 0.508736
3577 1 0.549948 0.285731 0.509142
3647 1 0.543028 0.29898 0.509058
3649 1 0.558864 0.298411 0.50914
3651 1 0.571115 0.296449 0.509165
3580 1 0.563411 0.283153 0.509787
3578 1 0.57611 0.284773 0.509385
3653 1 0.585354 0.298583 0.50844
3582 1 0.591444 0.286833 0.509392
3655 1 0.601033 0.299086 0.508531
3586 1 0.604714 0.283697 0.508924
3657 1 0.613152 0.298418 0.50915
3590 1 0.633346 0.283959 0.508879
3659 1 0.62802 0.297162 0.509946
3589 1 0.619024 0.283479 0.508736
3592 1 0.647186 0.283462 0.509012
3661 1 0.644512 0.297672 0.51039
3594 1 0.662904 0.283832 0.508278
3665 1 0.672606 0.29805 0.507578
3663 1 0.65593 0.296919 0.507589
3596 1 0.676977 0.283655 0.508851
3667 1 0.685413 0.296923 0.50846
3598 1 0.692433 0.285728 0.50706
3600 1 0.707099 0.287162 0.506749
3669 1 0.697876 0.299828 0.505587
3602 1 0.721781 0.287244 0.505627
3673 1 0.730032 0.299113 0.506009
3604 1 0.736474 0.286395 0.505363
3606 1 0.750791 0.289144 0.505923
3608 1 0.765601 0.288335 0.504163
3677 1 0.758024 0.299782 0.505831
3610 1 0.779755 0.284445 0.503657
3681 1 0.785957 0.299182 0.503671
3612 1 0.794611 0.286832 0.504272
3614 1 0.806059 0.286677 0.502005
3616 1 0.820514 0.286931 0.501654
3685 1 0.81435 0.298088 0.503496
3687 1 0.82852 0.297923 0.50252
3689 1 0.840519 0.299439 0.500208
3624 1 0.880448 0.285693 0.500283
3630 1 0.92209 0.287678 0.502122
3699 1 0.916101 0.299341 0.500999
3632 1 0.93447 0.281567 0.502169
3701 1 0.929565 0.299334 0.501209
3703 1 0.94146 0.298242 0.502709
3634 1 0.947643 0.285256 0.502863
3705 1 0.955086 0.298177 0.501514
3636 1 0.962636 0.287644 0.50342
3638 1 0.9753 0.287122 0.502989
3707 1 0.970959 0.298857 0.502482
3640 1 0.990559 0.28573 0.503845
841 1 0.999595 0.298484 0.504409
3709 1 0.985023 0.298874 0.50247
3642 1 0.507852 0.307391 0.507193
3644 1 0.523378 0.309948 0.509164
3646 1 0.536803 0.309799 0.509356
3648 1 0.551865 0.310827 0.509784
3650 1 0.566839 0.309364 0.511059
3652 1 0.579808 0.30933 0.508735
3654 1 0.5957 0.310063 0.507862
3656 1 0.608155 0.312897 0.509144
3658 1 0.622027 0.310931 0.508548
3660 1 0.636072 0.309617 0.511064
3662 1 0.651548 0.310537 0.510171
3664 1 0.665534 0.310265 0.50839
3666 1 0.680486 0.310264 0.508312
3668 1 0.693653 0.311648 0.507595
3670 1 0.7069 0.312545 0.50595
3671 1 0.713223 0.300313 0.506818
3672 1 0.724156 0.313548 0.506586
3675 1 0.742699 0.300201 0.506107
3674 1 0.739738 0.314349 0.505118
3676 1 0.752511 0.309164 0.505077
3678 1 0.765138 0.314714 0.506457
3679 1 0.772671 0.302576 0.504575
3680 1 0.779113 0.314234 0.504433
3683 1 0.8005 0.300805 0.504125
3682 1 0.793666 0.31455 0.503989
3684 1 0.807202 0.313706 0.505554
3686 1 0.822645 0.310519 0.503084
3688 1 0.835951 0.310789 0.502161
3690 1 0.849809 0.31206 0.501092
3692 1 0.860937 0.314524 0.501206
3694 1 0.875346 0.309663 0.500043
3696 1 0.892139 0.311693 0.5005
3698 1 0.906839 0.309946 0.500039
3700 1 0.919275 0.312054 0.500326
3702 1 0.933051 0.310404 0.500758
3704 1 0.950532 0.309678 0.500924
3706 1 0.965588 0.312648 0.50348
3708 1 0.978549 0.310488 0.501974
3710 1 0.993338 0.312271 0.503672
3711 1 0.504597 0.320881 0.505974
3713 1 0.517356 0.322187 0.508193
3712 1 0.507687 0.335694 0.507383
3715 1 0.530889 0.324576 0.508006
3716 1 0.535611 0.337858 0.507664
3714 1 0.520062 0.336503 0.507631
3717 1 0.542705 0.323089 0.509573
3718 1 0.548744 0.33657 0.508963
3719 1 0.55793 0.324553 0.510908
3721 1 0.573428 0.322846 0.508367
3720 1 0.566815 0.332609 0.508581
3722 1 0.581433 0.335204 0.50714
3723 1 0.586816 0.321291 0.508599
3724 1 0.595106 0.334813 0.50705
3725 1 0.60232 0.324792 0.508591
3726 1 0.610064 0.336064 0.506897
3727 1 0.617931 0.324161 0.508661
3729 1 0.630073 0.322559 0.509204
3728 1 0.625766 0.336282 0.506955
3730 1 0.636833 0.336556 0.508406
3731 1 0.64309 0.322232 0.509847
3732 1 0.649257 0.332441 0.50772
3733 1 0.659518 0.322721 0.509378
3734 1 0.664976 0.334507 0.507516
3735 1 0.673717 0.323028 0.50721
3737 1 0.686799 0.323194 0.50878
3736 1 0.679242 0.336246 0.505687
3739 1 0.700367 0.322633 0.506938
3740 1 0.706364 0.33668 0.506572
3738 1 0.692959 0.333382 0.506123
3741 1 0.714794 0.323021 0.506859
3742 1 0.720771 0.335438 0.50478
3743 1 0.731048 0.324733 0.504474
3745 1 0.74596 0.323935 0.504836
3744 1 0.736084 0.335876 0.503978
3746 1 0.749916 0.334297 0.504915
3748 1 0.763416 0.337786 0.506362
3747 1 0.759161 0.324692 0.504825
3751 1 0.786107 0.328819 0.504586
3750 1 0.777842 0.339841 0.505771
3749 1 0.772463 0.326491 0.505889
3753 1 0.800086 0.326786 0.505043
3754 1 0.807434 0.338825 0.504164
3755 1 0.814236 0.325207 0.504001
3757 1 0.827083 0.327681 0.503774
3759 1 0.840453 0.323636 0.502518
3760 1 0.850434 0.339632 0.503592
3761 1 0.854751 0.324421 0.501293
3762 1 0.862717 0.336722 0.50239
3763 1 0.869701 0.324191 0.501079
3764 1 0.87732 0.337815 0.501255
3765 1 0.884902 0.325058 0.500756
3767 1 0.899091 0.322911 0.501327
3766 1 0.892776 0.339811 0.501768
3769 1 0.913082 0.324204 0.502333
3770 1 0.922064 0.338298 0.502179
3768 1 0.906635 0.335758 0.502355
3773 1 0.941666 0.321547 0.501212
3771 1 0.927445 0.324637 0.500792
3772 1 0.934909 0.337237 0.501041
3775 1 0.95642 0.321791 0.50276
3774 1 0.949538 0.335162 0.501071
3778 1 0.97859 0.337008 0.503844
3777 1 0.971702 0.324455 0.503821
3776 1 0.96432 0.335722 0.502385
911 1 0.99733 0.325241 0.504876
3780 1 0.991779 0.338364 0.502725
3779 1 0.984882 0.322621 0.504557
3783 1 0.509235 0.349498 0.506999
3785 1 0.527843 0.347705 0.507586
3787 1 0.541346 0.350439 0.507763
3789 1 0.557407 0.347091 0.506647
3788 1 0.551964 0.358288 0.505818
3791 1 0.571506 0.343409 0.50458
3790 1 0.56486 0.359847 0.504257
3793 1 0.587597 0.34639 0.506016
3794 1 0.59374 0.359902 0.505892
3792 1 0.578865 0.356993 0.504824
3795 1 0.602662 0.349771 0.506218
3796 1 0.607899 0.359534 0.504688
3797 1 0.616357 0.346621 0.50548
3799 1 0.630291 0.350007 0.506398
3798 1 0.622311 0.359265 0.504474
3801 1 0.643946 0.34886 0.506216
3800 1 0.636515 0.359104 0.504683
3803 1 0.656751 0.34789 0.504905
3805 1 0.66941 0.346366 0.506176
3807 1 0.686894 0.344901 0.507141
3806 1 0.680146 0.356874 0.50541
3809 1 0.699757 0.349099 0.505555
3811 1 0.714411 0.349088 0.50499
3813 1 0.727074 0.349522 0.50435
3815 1 0.741651 0.349937 0.505492
3817 1 0.756651 0.349374 0.505144
3819 1 0.770275 0.353222 0.504283
3821 1 0.78523 0.352072 0.503091
3752 1 0.792417 0.340925 0.503829
3823 1 0.798199 0.351814 0.504593
3756 1 0.8231 0.340616 0.504285
3825 1 0.814545 0.352492 0.50413
3758 1 0.836157 0.340227 0.503832
3827 1 0.83055 0.353972 0.504257
3829 1 0.843769 0.353065 0.50281
3831 1 0.85819 0.353321 0.503093
3833 1 0.870571 0.350184 0.502348
3835 1 0.885745 0.350752 0.501702
3837 1 0.899694 0.351742 0.502144
3839 1 0.912106 0.349659 0.50368
3843 1 0.941929 0.348852 0.501461
3841 1 0.927464 0.350434 0.503129
3845 1 0.957673 0.349918 0.50165
3847 1 0.970154 0.349674 0.502805
3849 1 0.98468 0.350894 0.502548
981 1 0.999097 0.349611 0.502781
3782 1 0.506736 0.363044 0.506588
3853 1 0.514353 0.373091 0.505564
3786 1 0.535649 0.361552 0.506372
3784 1 0.520962 0.360042 0.506192
3855 1 0.529462 0.374546 0.505934
3857 1 0.543417 0.373442 0.507013
3859 1 0.556857 0.372606 0.505332
3861 1 0.572281 0.372674 0.504495
3863 1 0.587651 0.370845 0.503917
3865 1 0.600207 0.371647 0.503797
3867 1 0.613407 0.372316 0.503118
3869 1 0.627912 0.36898 0.504236
3802 1 0.652033 0.360542 0.503059
3871 1 0.642454 0.3718 0.503217
3804 1 0.665643 0.360782 0.504193
3873 1 0.657563 0.373631 0.502767
3875 1 0.670275 0.372955 0.504331
3877 1 0.685205 0.371176 0.505166
3808 1 0.693254 0.360746 0.504037
3810 1 0.707098 0.361826 0.50275
3879 1 0.69952 0.372548 0.502387
3812 1 0.72124 0.363457 0.504055
3881 1 0.714923 0.374624 0.502004
3883 1 0.728522 0.37438 0.50254
3814 1 0.73445 0.363565 0.50341
3816 1 0.749746 0.363441 0.503645
3885 1 0.742689 0.375759 0.502831
3887 1 0.757255 0.375456 0.504304
3818 1 0.763096 0.363673 0.504686
3820 1 0.77947 0.36574 0.504462
3889 1 0.773663 0.37705 0.503438
3891 1 0.78806 0.377221 0.502767
3893 1 0.800293 0.378654 0.503914
3822 1 0.7934 0.365049 0.503628
3824 1 0.807448 0.367004 0.505768
3826 1 0.821976 0.364813 0.504791
3895 1 0.815296 0.378096 0.504216
3897 1 0.828178 0.376659 0.504064
3899 1 0.844337 0.377148 0.504065
3828 1 0.83653 0.367544 0.503233
3832 1 0.86487 0.363729 0.502073
3901 1 0.858644 0.37752 0.504508
3830 1 0.849789 0.365022 0.500779
3903 1 0.873607 0.377699 0.503592
3834 1 0.878543 0.363518 0.503657
3836 1 0.894243 0.364332 0.503288
3905 1 0.886248 0.376419 0.503167
3907 1 0.898286 0.376998 0.504521
3840 1 0.921641 0.362105 0.502576
3838 1 0.905754 0.364032 0.501737
3909 1 0.910524 0.375502 0.503565
3913 1 0.941224 0.374524 0.501052
3842 1 0.935033 0.362419 0.50207
3911 1 0.924161 0.376558 0.502465
3844 1 0.948366 0.361974 0.501093
3846 1 0.961525 0.362301 0.500267
3848 1 0.975735 0.361517 0.501277
3921 1 0.500432 0.39846 0.504787
3852 1 0.508008 0.386855 0.504982
3854 1 0.522738 0.388766 0.504522
3856 1 0.536521 0.387769 0.504843
3858 1 0.550711 0.385223 0.504962
3929 1 0.555201 0.39949 0.504593
3860 1 0.563389 0.384971 0.505059
3931 1 0.569769 0.399157 0.503234
3862 1 0.58022 0.385935 0.503881
3864 1 0.592623 0.385364 0.503679
3933 1 0.586813 0.397319 0.500369
3866 1 0.607611 0.384602 0.502846
3937 1 0.612923 0.396288 0.500878
3868 1 0.621824 0.381615 0.501932
3872 1 0.648566 0.384386 0.501898
3941 1 0.642685 0.397623 0.500246
3870 1 0.63651 0.38348 0.502139
3874 1 0.662929 0.38589 0.50138
3945 1 0.671596 0.396606 0.501601
3876 1 0.679052 0.384632 0.503583
3947 1 0.685599 0.398974 0.502593
3878 1 0.695285 0.387817 0.502061
3880 1 0.707487 0.384428 0.503057
3949 1 0.700829 0.399389 0.5033
3882 1 0.720123 0.387854 0.502901
3951 1 0.712842 0.397869 0.503256
3953 1 0.725336 0.398747 0.503229
3884 1 0.736556 0.391336 0.50312
3886 1 0.748661 0.388277 0.50258
3888 1 0.762872 0.389507 0.50398
3890 1 0.779473 0.38835 0.502779
3892 1 0.794597 0.389998 0.503499
3894 1 0.809755 0.391276 0.505011
3896 1 0.823194 0.389251 0.503982
3898 1 0.837328 0.388388 0.504814
3900 1 0.849952 0.389421 0.502373
3902 1 0.864115 0.389254 0.504117
3904 1 0.878051 0.388647 0.504541
3973 1 0.870612 0.399893 0.504875
3906 1 0.890171 0.39088 0.505561
3908 1 0.904269 0.390324 0.504878
3910 1 0.91791 0.388119 0.505047
3912 1 0.936052 0.385884 0.502605
3983 1 0.941893 0.399054 0.502788
3914 1 0.948469 0.386961 0.502197
3923 1 0.514514 0.402147 0.503802
3922 1 0.507259 0.413079 0.504209
3925 1 0.527548 0.400978 0.503958
3924 1 0.522164 0.412827 0.504081
3926 1 0.536209 0.413542 0.503654
3927 1 0.542443 0.400456 0.504606
3928 1 0.548802 0.416311 0.501954
3930 1 0.564381 0.412052 0.50123
3932 1 0.579249 0.408418 0.500794
3944 1 0.662596 0.4091 0.500889
3946 1 0.678292 0.4111 0.50101
3948 1 0.69311 0.412035 0.502792
3950 1 0.705303 0.41259 0.503125
3954 1 0.71856 0.412722 0.502069
3955 1 0.744037 0.400667 0.501862
4025 1 0.734538 0.411777 0.500403
3956 1 0.748967 0.412756 0.502598
3957 1 0.757177 0.401836 0.502805
3958 1 0.765828 0.411983 0.502532
3959 1 0.774407 0.402432 0.503071
3960 1 0.784234 0.413834 0.503045
3961 1 0.786888 0.401891 0.503363
3963 1 0.799608 0.403833 0.504784
3962 1 0.795011 0.417267 0.50463
3964 1 0.808115 0.415524 0.504888
3965 1 0.815517 0.402357 0.505917
3966 1 0.820883 0.413221 0.505659
3968 1 0.83728 0.412055 0.50669
3969 1 0.845801 0.404124 0.504797
3967 1 0.831012 0.401123 0.506528
3971 1 0.858437 0.402227 0.505455
3970 1 0.852335 0.414618 0.505244
3972 1 0.86369 0.415803 0.507609
3974 1 0.8769 0.413561 0.506413
3975 1 0.885283 0.402093 0.506307
3977 1 0.900162 0.404469 0.50472
3976 1 0.890239 0.413647 0.506348
3979 1 0.914454 0.402955 0.505679
3980 1 0.920372 0.414352 0.504648
3978 1 0.906375 0.416422 0.5047
3981 1 0.928545 0.402215 0.503732
3982 1 0.934724 0.416318 0.504019
3984 1 0.946923 0.412923 0.501747
3986 1 0.960865 0.413535 0.50068
3985 1 0.954163 0.400286 0.500035
3993 1 0.51244 0.424224 0.503846
3992 1 0.50826 0.43663 0.504456
3994 1 0.52282 0.435732 0.502404
3995 1 0.528607 0.425302 0.501808
3996 1 0.537017 0.437867 0.500755
3997 1 0.54298 0.426603 0.501509
4013 1 0.655739 0.420625 0.500234
4014 1 0.664256 0.434276 0.500172
4015 1 0.670566 0.421322 0.501488
4017 1 0.685572 0.422181 0.502841
4016 1 0.679133 0.434364 0.501255
4018 1 0.692434 0.43584 0.502442
4019 1 0.699169 0.42481 0.502061
4020 1 0.707341 0.437865 0.503102
4021 1 0.712555 0.426584 0.502371
4022 1 0.721689 0.43872 0.501792
3952 1 0.726326 0.424449 0.500514
4023 1 0.738625 0.424474 0.503273
4024 1 0.737374 0.439052 0.503012
4027 1 0.757763 0.425006 0.504012
4026 1 0.751542 0.436691 0.503332
4028 1 0.765868 0.437082 0.503309
4029 1 0.773979 0.42434 0.503209
4031 1 0.789265 0.42817 0.504279
4033 1 0.801696 0.42844 0.504656
4034 1 0.806082 0.438817 0.506067
4035 1 0.814873 0.427267 0.505115
4036 1 0.821003 0.437875 0.507964
4037 1 0.828104 0.424223 0.506196
4039 1 0.842166 0.426371 0.506503
4038 1 0.835931 0.436167 0.507673
4041 1 0.858268 0.427028 0.506577
4040 1 0.850795 0.437364 0.507447
4042 1 0.864412 0.437206 0.508322
4043 1 0.871971 0.427138 0.507581
4044 1 0.878145 0.438215 0.508897
4047 1 0.90049 0.429626 0.506064
4045 1 0.886391 0.426757 0.50677
4046 1 0.894057 0.439872 0.50799
4049 1 0.915624 0.426708 0.50492
4050 1 0.921946 0.439716 0.506275
4051 1 0.929376 0.42757 0.505968
4052 1 0.937542 0.438512 0.506453
4053 1 0.944066 0.426838 0.503772
4055 1 0.958444 0.42706 0.501598
4054 1 0.950208 0.438678 0.50482
4057 1 0.972268 0.428079 0.500744
4061 1 0.503338 0.448446 0.503955
4063 1 0.516914 0.447838 0.503068
4065 1 0.530471 0.44893 0.502483
4087 1 0.685777 0.448144 0.50076
4089 1 0.700821 0.449668 0.502575
4091 1 0.714418 0.450481 0.503324
4093 1 0.729553 0.450472 0.502753
4095 1 0.744942 0.450763 0.50366
4097 1 0.758168 0.450874 0.504274
4030 1 0.779866 0.44041 0.504233
4099 1 0.772437 0.44917 0.505438
4101 1 0.787035 0.452864 0.505903
4032 1 0.792798 0.441446 0.505595
4103 1 0.801142 0.451186 0.506951
4105 1 0.815883 0.449807 0.508487
4109 1 0.845005 0.449236 0.507668
4107 1 0.830998 0.45034 0.508117
4111 1 0.857513 0.450375 0.507782
4113 1 0.873077 0.450908 0.508909
4115 1 0.886125 0.452137 0.510366
4117 1 0.901578 0.451601 0.510889
4048 1 0.90928 0.442052 0.50752
4119 1 0.915473 0.453151 0.509165
4121 1 0.927256 0.453504 0.506953
4123 1 0.941385 0.453476 0.50492
4125 1 0.956638 0.452525 0.504954
4056 1 0.963821 0.44236 0.501511
4058 1 0.979199 0.440712 0.50212
4127 1 0.971168 0.453945 0.50267
4129 1 0.987532 0.451941 0.50301
4062 1 0.510928 0.461806 0.503616
4131 1 0.501888 0.473287 0.502528
4133 1 0.516227 0.474106 0.500989
4066 1 0.535129 0.462951 0.500209
4135 1 0.530196 0.475701 0.500427
4064 1 0.523664 0.461391 0.502718
4157 1 0.68483 0.471846 0.500788
4088 1 0.694925 0.460971 0.501474
4090 1 0.708968 0.4623 0.502169
4159 1 0.700887 0.474699 0.502037
4092 1 0.72321 0.461759 0.502551
4161 1 0.714983 0.473683 0.502019
4163 1 0.729747 0.474792 0.50235
4165 1 0.743132 0.475539 0.503913
4094 1 0.737689 0.462092 0.503138
4096 1 0.751615 0.462006 0.50416
4098 1 0.765631 0.463267 0.50514
4167 1 0.757933 0.478835 0.504949
4169 1 0.771809 0.476059 0.504736
4171 1 0.786292 0.475098 0.506404
4100 1 0.781009 0.464065 0.505855
4102 1 0.795003 0.464944 0.505265
4173 1 0.800383 0.477086 0.503592
4104 1 0.808868 0.464122 0.506924
4106 1 0.822542 0.462635 0.507951
4175 1 0.813221 0.477862 0.505676
4177 1 0.826591 0.47477 0.508077
4179 1 0.841799 0.47501 0.507764
4108 1 0.835308 0.461738 0.508621
4181 1 0.856211 0.47614 0.507435
4110 1 0.852632 0.462113 0.507803
4112 1 0.863889 0.463519 0.508561
4183 1 0.870473 0.475899 0.507458
4114 1 0.878551 0.464985 0.508828
4185 1 0.884456 0.478864 0.506604
4116 1 0.892318 0.464336 0.509501
4187 1 0.900278 0.477448 0.507756
4118 1 0.907477 0.465085 0.509048
4189 1 0.915761 0.479448 0.508095
4120 1 0.920714 0.46581 0.509002
4191 1 0.930004 0.476008 0.507407
4122 1 0.937195 0.464379 0.506913
4193 1 0.943781 0.475334 0.504937
4124 1 0.952311 0.463337 0.504106
4195 1 0.958579 0.47689 0.503629
4197 1 0.975623 0.474422 0.502332
4126 1 0.96548 0.465438 0.502828
4128 1 0.982155 0.46395 0.501874
4199 1 0.989906 0.477218 0.501803
4130 1 0.995093 0.464345 0.500463
4203 1 0.515007 0.498714 0.501032
4201 1 0.502679 0.497212 0.500625
4132 1 0.510124 0.485837 0.502467
4134 1 0.522918 0.4876 0.500759
4227 1 0.68321 0.498919 0.500083
4229 1 0.70029 0.499254 0.500578
4160 1 0.70704 0.485604 0.501996
4158 1 0.693045 0.48761 0.500942
4231 1 0.712336 0.49795 0.502435
4162 1 0.722516 0.48728 0.502478
4166 1 0.749966 0.489858 0.502797
4164 1 0.735646 0.488946 0.503652
4168 1 0.766463 0.492416 0.504807
4170 1 0.778744 0.488291 0.506398
4172 1 0.794006 0.489037 0.506094
4176 1 0.821584 0.487446 0.506272
4174 1 0.809246 0.490582 0.505478
4178 1 0.83595 0.490691 0.508087
4182 1 0.862962 0.489147 0.506904
4180 1 0.848828 0.489806 0.507765
4184 1 0.877663 0.490778 0.507007
4186 1 0.895331 0.490119 0.506257
4188 1 0.907773 0.48875 0.506871
4261 1 0.929064 0.49917 0.504065
4192 1 0.939106 0.489849 0.504794
4190 1 0.925349 0.488878 0.507764
4194 1 0.953124 0.487597 0.503983
4198 1 0.978075 0.486622 0.501493
4196 1 0.967045 0.487307 0.502939
4200 1 0.992872 0.491982 0.501718
4206 1 0.537802 0.511724 0.497512
4275 1 0.52495 0.515069 0.499053
4205 1 0.528735 0.500946 0.498983
4208 1 0.552385 0.512491 0.496915
4210 1 0.565552 0.511928 0.497662
4212 1 0.579052 0.510589 0.497148
4214 1 0.593065 0.51121 0.497768
4216 1 0.607821 0.510524 0.497229
4218 1 0.621382 0.509774 0.497628
4220 1 0.633667 0.513613 0.49745
4222 1 0.649662 0.514723 0.497722
4224 1 0.662438 0.513278 0.498492
4223 1 0.655919 0.500143 0.497611
4226 1 0.676118 0.513393 0.499833
4273 1 0.515019 0.526122 0.499389
4272 1 0.505309 0.532755 0.496344
4345 1 0.535015 0.539751 0.496932
4276 1 0.528664 0.527396 0.496624
4277 1 0.545067 0.524271 0.497232
4278 1 0.548741 0.53689 0.497032
4279 1 0.559043 0.525596 0.49712
4281 1 0.571852 0.523134 0.497175
4282 1 0.564661 0.537768 0.496528
4284 1 0.579494 0.53482 0.497745
4283 1 0.585931 0.523234 0.496693
4286 1 0.592627 0.535306 0.497437
4287 1 0.608475 0.537553 0.499
4285 1 0.601885 0.524061 0.496828
4289 1 0.616621 0.523927 0.499336
4290 1 0.628492 0.525259 0.4987
4288 1 0.622293 0.536914 0.498917
4291 1 0.642012 0.527514 0.499278
4361 1 0.636528 0.539343 0.499358
4293 1 0.657404 0.527843 0.499461
4295 1 0.672426 0.526912 0.499712
4296 1 0.680411 0.537385 0.499951
4332 1 0.937217 0.539185 0.49951
4334 1 0.95142 0.535582 0.498979
4335 1 0.954697 0.523325 0.499828
4336 1 0.966155 0.537335 0.499123
4338 1 0.979345 0.537578 0.498804
4337 1 0.968565 0.524204 0.499028
4340 1 0.994901 0.537066 0.49858
1471 1 0.999146 0.524411 0.499453
4339 1 0.987446 0.52663 0.49968
4274 1 0.515564 0.542201 0.498491
4343 1 0.503044 0.544704 0.496389
4342 1 0.511955 0.556149 0.4971
4341 1 0.525901 0.551364 0.497493
4347 1 0.543092 0.550953 0.497655
4280 1 0.557465 0.550564 0.497995
4351 1 0.573817 0.547713 0.498201
4349 1 0.565811 0.55894 0.497146
4353 1 0.587872 0.548907 0.497692
4354 1 0.596125 0.558935 0.49804
4355 1 0.601254 0.547012 0.49864
4357 1 0.614041 0.551532 0.499803
4399 1 0.912438 0.549113 0.498267
4401 1 0.926708 0.550704 0.497769
4403 1 0.942185 0.551192 0.496771
4405 1 0.957305 0.550537 0.497807
4407 1 0.972492 0.548893 0.497413
1541 1 0.999912 0.549542 0.497136
4409 1 0.984854 0.549394 0.49733
4411 1 0.50739 0.566968 0.494468
4413 1 0.517005 0.574958 0.49472
4346 1 0.537897 0.560972 0.495606
4344 1 0.523242 0.564403 0.495915
4415 1 0.53042 0.577194 0.493457
4348 1 0.550249 0.562595 0.496793
4417 1 0.542302 0.574306 0.494211
4419 1 0.558253 0.574229 0.496515
4350 1 0.572789 0.573769 0.496618
4352 1 0.581658 0.5629 0.497705
4423 1 0.589034 0.573395 0.497282
4356 1 0.607853 0.564171 0.498645
4425 1 0.602471 0.575349 0.498779
4427 1 0.617458 0.575571 0.497857
4358 1 0.622892 0.56393 0.498967
4467 1 0.898446 0.575552 0.499206
4469 1 0.913494 0.573312 0.4992
4400 1 0.919187 0.562794 0.497395
4398 1 0.904662 0.561401 0.498869
4402 1 0.933982 0.563659 0.495695
4471 1 0.929905 0.57483 0.497894
4473 1 0.943244 0.575992 0.496482
4475 1 0.958867 0.575105 0.496007
4404 1 0.950305 0.562661 0.497407
4477 1 0.972119 0.575624 0.496837
4408 1 0.977978 0.562366 0.497406
4406 1 0.964215 0.562024 0.497114
4410 1 0.992282 0.563808 0.498106
4479 1 0.985176 0.575731 0.498148
1680 1 0.501205 0.580096 0.493223
4412 1 0.50953 0.590801 0.493777
4416 1 0.537147 0.588171 0.49328
4414 1 0.521602 0.589475 0.494286
4418 1 0.551543 0.583511 0.494152
4420 1 0.567467 0.585702 0.495294
4489 1 0.559435 0.597282 0.495255
4422 1 0.574158 0.596215 0.495356
4421 1 0.581074 0.585515 0.49748
4493 1 0.58711 0.599467 0.497137
4424 1 0.594527 0.586943 0.498749
4495 1 0.609301 0.588323 0.499095
4426 1 0.624786 0.58621 0.499391
4500 1 0.645819 0.599208 0.499806
4434 1 0.667117 0.58777 0.498394
4503 1 0.660349 0.599018 0.498447
4432 1 0.655799 0.585675 0.49908
4436 1 0.681925 0.588131 0.499222
4470 1 0.92201 0.585882 0.497618
4472 1 0.937907 0.587944 0.498682
4541 1 0.930736 0.59769 0.499521
4474 1 0.95039 0.586265 0.496896
4545 1 0.956487 0.599332 0.496842
4478 1 0.97772 0.588661 0.496762
4476 1 0.965219 0.589485 0.496628
4480 1 0.99281 0.588747 0.49813
4482 1 0.502271 0.604509 0.495691
4483 1 0.51525 0.604963 0.494582
4551 1 0.507855 0.616928 0.494885
4485 1 0.529454 0.600347 0.494245
4484 1 0.523328 0.617002 0.494372
4488 1 0.536922 0.614762 0.494729
4487 1 0.544509 0.601824 0.495226
4490 1 0.552468 0.610421 0.494975
4491 1 0.567334 0.610276 0.494968
4492 1 0.580133 0.610845 0.496604
4494 1 0.591385 0.614626 0.498949
4496 1 0.600519 0.600774 0.499951
4498 1 0.637755 0.61291 0.499862
4502 1 0.652075 0.61159 0.497785
4504 1 0.666204 0.613561 0.4973
4505 1 0.674311 0.600941 0.498085
4506 1 0.682057 0.613313 0.497806
4508 1 0.696021 0.614056 0.499835
4510 1 0.708614 0.614075 0.49988
4543 1 0.945043 0.602356 0.498358
4544 1 0.949607 0.613652 0.497886
4548 1 0.977551 0.615956 0.49558
4547 1 0.970782 0.601642 0.496631
4546 1 0.964059 0.611693 0.497742
4549 1 0.985149 0.601511 0.496309
4550 1 0.992746 0.614058 0.495596
1681 1 0.999193 0.601217 0.495621
4555 1 0.514275 0.629169 0.495126
4552 1 0.522332 0.639315 0.495098
4486 1 0.528049 0.627394 0.495363
4557 1 0.547976 0.623446 0.493218
4558 1 0.551485 0.639046 0.494507
4556 1 0.539038 0.63688 0.494106
4559 1 0.5594 0.622974 0.494625
4561 1 0.571765 0.625474 0.496151
4560 1 0.564892 0.637392 0.495296
4563 1 0.585799 0.625416 0.49675
4562 1 0.577737 0.637688 0.495036
4633 1 0.592305 0.638531 0.496539
4637 1 0.606891 0.63828 0.497494
4564 1 0.599952 0.62738 0.497142
4566 1 0.614424 0.628829 0.499525
4568 1 0.627181 0.637722 0.49925
4567 1 0.630233 0.625551 0.49991
4570 1 0.645867 0.626306 0.498278
4571 1 0.658537 0.623951 0.499298
4574 1 0.665905 0.636977 0.498868
4577 1 0.688041 0.627555 0.498573
4575 1 0.673548 0.62558 0.497905
4576 1 0.680973 0.639285 0.499118
4579 1 0.704098 0.626408 0.499126
4578 1 0.694697 0.637082 0.499298
4580 1 0.706986 0.638198 0.499691
4614 1 0.958936 0.625079 0.498446
4612 1 0.950046 0.636329 0.499742
4615 1 0.943761 0.625146 0.499008
4617 1 0.971184 0.626686 0.496689
4685 1 0.963736 0.639168 0.499694
4616 1 0.978332 0.637826 0.498788
1751 1 0.999281 0.626384 0.498881
4620 1 0.99326 0.639876 0.499284
4619 1 0.986423 0.628805 0.49763
4622 1 0.506711 0.640702 0.494627
4554 1 0.515644 0.652408 0.493587
4625 1 0.530536 0.652829 0.494004
4627 1 0.544767 0.651064 0.492584
4629 1 0.562984 0.6518 0.493356
4631 1 0.576193 0.649255 0.494023
4632 1 0.590523 0.649864 0.497364
4635 1 0.605637 0.6521 0.497843
4638 1 0.618446 0.647256 0.497495
4639 1 0.632685 0.651405 0.499596
4643 1 0.672548 0.650255 0.499726
4647 1 0.68644 0.650608 0.499331
4651 1 0.71561 0.652879 0.499765
1960 1 0.501288 0.676319 0.493427
4623 1 0.507343 0.663551 0.493114
4693 1 0.51398 0.678387 0.492648
4553 1 0.523823 0.665348 0.493377
4624 1 0.53279 0.677861 0.493046
4626 1 0.539154 0.664351 0.49229
4695 1 0.548132 0.676593 0.490642
4697 1 0.552972 0.664613 0.491689
4628 1 0.567676 0.662736 0.493187
4699 1 0.561419 0.674826 0.490931
4701 1 0.576997 0.673395 0.493102
4630 1 0.582439 0.661854 0.494081
4703 1 0.589469 0.674785 0.496068
4634 1 0.595759 0.662085 0.498674
4636 1 0.610515 0.661505 0.49875
4705 1 0.60436 0.672863 0.498938
4779 1 0.617712 0.677036 0.499038
4706 1 0.623612 0.66315 0.499292
4707 1 0.631181 0.676047 0.499372
4640 1 0.638757 0.664976 0.499244
4709 1 0.646424 0.675136 0.499521
4642 1 0.653506 0.661585 0.499926
4650 1 0.708409 0.667599 0.499433
4719 1 0.699197 0.677906 0.499398
4692 1 0.506521 0.689208 0.49407
4694 1 0.524341 0.688981 0.492773
4696 1 0.539218 0.687008 0.490626
4698 1 0.553453 0.68643 0.490564
4767 1 0.546767 0.698212 0.49096
4700 1 0.567811 0.68481 0.491735
4771 1 0.575848 0.697874 0.492795
4769 1 0.560003 0.697307 0.491486
4702 1 0.582525 0.686503 0.492514
4773 1 0.590124 0.698627 0.494405
4704 1 0.5978 0.687452 0.496857
4708 1 0.610057 0.687911 0.497352
4777 1 0.623566 0.68765 0.498926
4711 1 0.640596 0.686367 0.499381
4720 1 0.707665 0.68608 0.499827
4789 1 0.694248 0.689607 0.499991
4793 1 0.717702 0.69732 0.499981
2030 1 0.504558 0.702933 0.494764
4763 1 0.518673 0.702101 0.495361
4762 1 0.509986 0.715925 0.494889
4765 1 0.5319 0.700571 0.49139
4764 1 0.52515 0.713124 0.494586
4766 1 0.540894 0.708537 0.49306
4768 1 0.55438 0.711861 0.49252
4770 1 0.566802 0.707685 0.492767
4772 1 0.581945 0.711315 0.493412
4774 1 0.595843 0.712925 0.495545
4775 1 0.603374 0.701732 0.496497
4847 1 0.609714 0.713649 0.496492
4776 1 0.617686 0.700534 0.496638
4780 1 0.62916 0.701564 0.499458
4778 1 0.621352 0.714581 0.498218
4781 1 0.638487 0.712554 0.49974
4791 1 0.702952 0.702104 0.498913
4824 1 0.948061 0.716468 0.499759
4831 1 0.502421 0.725854 0.496364
4833 1 0.516971 0.72817 0.495674
4832 1 0.506693 0.737359 0.494282
4835 1 0.530215 0.725303 0.495966
4834 1 0.525046 0.738015 0.495976
4836 1 0.537805 0.737909 0.495688
4837 1 0.543999 0.723924 0.494492
4838 1 0.549375 0.735635 0.494549
4839 1 0.560753 0.725021 0.49314
4841 1 0.572794 0.722761 0.494801
4840 1 0.568652 0.736756 0.493616
4842 1 0.58197 0.738151 0.495375
4843 1 0.586974 0.724146 0.495792
4844 1 0.594041 0.739512 0.497191
4845 1 0.600722 0.725633 0.49693
4915 1 0.608309 0.73856 0.498049
4848 1 0.61535 0.726964 0.499287
4868 1 0.765346 0.738083 0.498593
4873 1 0.780523 0.735294 0.497976
4802 1 0.787643 0.72458 0.499826
4875 1 0.795808 0.737755 0.498934
4880 1 0.857037 0.727976 0.499586
4890 1 0.879705 0.737788 0.499728
4818 1 0.894678 0.739513 0.498829
4885 1 0.885408 0.723919 0.49997
4959 1 0.922243 0.738984 0.499589
4888 1 0.908011 0.736019 0.499146
4892 1 0.929241 0.726886 0.499861
4891 1 0.941206 0.728191 0.499844
4896 1 0.954576 0.729341 0.49884
4901 1 0.502472 0.755911 0.49515
4903 1 0.514415 0.747073 0.495045
4905 1 0.530799 0.751552 0.496427
4907 1 0.545272 0.748998 0.494898
4909 1 0.558794 0.74771 0.495223
4911 1 0.575713 0.748229 0.49451
4910 1 0.566796 0.757017 0.495665
4913 1 0.58957 0.75214 0.496298
4846 1 0.603806 0.750506 0.496185
4916 1 0.617301 0.748877 0.498366
4936 1 0.748854 0.758973 0.49845
4935 1 0.75698 0.748556 0.498073
4939 1 0.761452 0.759799 0.497191
4872 1 0.78677 0.748549 0.498531
4870 1 0.772322 0.749144 0.497753
4945 1 0.80163 0.748891 0.499102
4951 1 0.850035 0.740857 0.499023
4953 1 0.865793 0.741686 0.499848
4882 1 0.874657 0.752663 0.499213
4955 1 0.887848 0.751428 0.499492
4957 1 0.903422 0.750916 0.499357
4960 1 0.915818 0.750572 0.49986
4894 1 0.928249 0.751057 0.49901
4961 1 0.939141 0.740426 0.499839
4963 1 0.947052 0.7536 0.499747
4898 1 0.965601 0.743342 0.499917
2031 1 0.991553 0.743275 0.499693
4971 1 0.505746 0.769411 0.49419
4902 1 0.517533 0.760807 0.496989
4973 1 0.517502 0.775538 0.495293
4904 1 0.527284 0.766188 0.495524
4975 1 0.532185 0.777338 0.496448
4906 1 0.539025 0.763367 0.49548
4908 1 0.552366 0.761944 0.496502
4977 1 0.545436 0.774587 0.496375
4979 1 0.559986 0.774235 0.494793
4981 1 0.574129 0.774197 0.49412
4912 1 0.580866 0.762718 0.494781
4983 1 0.587909 0.773591 0.49384
4914 1 0.5972 0.764477 0.494623
4985 1 0.610644 0.762002 0.496665
4984 1 0.606381 0.776311 0.495358
4988 1 0.618042 0.775273 0.496141
4918 1 0.623728 0.761523 0.498244
4989 1 0.631664 0.774919 0.498867
5007 1 0.743384 0.772724 0.499317
4938 1 0.756074 0.775575 0.498158
4941 1 0.776956 0.764261 0.497691
5009 1 0.771824 0.77702 0.499053
4940 1 0.784861 0.775842 0.499178
4943 1 0.7925 0.763114 0.498429
4952 1 0.879649 0.764934 0.498899
5029 1 0.909179 0.764858 0.499803
5033 1 0.93649 0.764574 0.499965
4964 1 0.949777 0.767354 0.499224
5037 1 0.973813 0.779799 0.499264
5041 1 0.502855 0.79893 0.493585
4972 1 0.507256 0.784751 0.494508
5043 1 0.515916 0.798952 0.49572
4974 1 0.521052 0.787205 0.494972
4976 1 0.537428 0.788859 0.494987
4978 1 0.551687 0.787466 0.494814
4980 1 0.565748 0.785851 0.494952
5051 1 0.572901 0.799564 0.495463
4982 1 0.58071 0.786044 0.494906
5055 1 0.595128 0.78851 0.49473
4986 1 0.607966 0.789212 0.496541
5056 1 0.601013 0.79998 0.495096
4987 1 0.621823 0.787169 0.497947
5057 1 0.615978 0.799048 0.496067
5059 1 0.630155 0.796535 0.497164
4990 1 0.638956 0.786732 0.49865
5061 1 0.643413 0.797854 0.498243
4992 1 0.659623 0.799944 0.498504
5071 1 0.706404 0.790012 0.499573
5070 1 0.716511 0.799008 0.498378
5073 1 0.728798 0.79951 0.499248
5003 1 0.720922 0.785723 0.499885
5006 1 0.764614 0.78844 0.499679
5005 1 0.750668 0.788657 0.499844
5108 1 0.964781 0.791961 0.498853
5040 1 0.99481 0.794696 0.499691
5042 1 0.508585 0.812112 0.496247
5045 1 0.530505 0.801865 0.496183
5044 1 0.520714 0.811662 0.496218
5046 1 0.536775 0.814039 0.496213
5049 1 0.557255 0.800029 0.495531
5047 1 0.544869 0.801064 0.49591
5048 1 0.551158 0.814429 0.495339
5050 1 0.5662 0.811893 0.495702
5053 1 0.586638 0.800619 0.494222
5052 1 0.578797 0.812363 0.495113
5054 1 0.594368 0.813724 0.495482
5058 1 0.609219 0.812006 0.495693
5127 1 0.624086 0.811694 0.498053
5060 1 0.636961 0.80964 0.498404
5131 1 0.652329 0.810839 0.498728
5063 1 0.666199 0.810881 0.49849
5067 1 0.688206 0.800867 0.499518
5065 1 0.676529 0.801017 0.499983
5064 1 0.679395 0.812367 0.499177
5000 1 0.700381 0.801708 0.498538
5068 1 0.707988 0.810836 0.499661
5069 1 0.692557 0.813523 0.498848
5072 1 0.721227 0.812211 0.49976
5078 1 0.762735 0.813405 0.498459
5075 1 0.755635 0.802657 0.499024
5077 1 0.770378 0.801931 0.499463
5082 1 0.791692 0.81525 0.499714
5036 1 0.957289 0.803106 0.499759
5110 1 0.975766 0.812467 0.499262
5111 1 0.514262 0.822573 0.495977
5114 1 0.508022 0.836065 0.496183
5115 1 0.525325 0.823487 0.497053
5113 1 0.523353 0.836948 0.496771
5117 1 0.540532 0.829047 0.496426
5118 1 0.552161 0.837814 0.495978
5119 1 0.555329 0.824375 0.496313
5120 1 0.565518 0.837586 0.495945
5121 1 0.570532 0.823813 0.495024
5124 1 0.578991 0.835569 0.494652
5123 1 0.587179 0.82373 0.495357
5191 1 0.59235 0.838501 0.494341
5125 1 0.602137 0.8259 0.495259
5128 1 0.614903 0.825216 0.497314
5126 1 0.606052 0.83729 0.496492
5129 1 0.628658 0.822757 0.497576
5197 1 0.61939 0.837318 0.497265
5201 1 0.635921 0.834601 0.497302
5130 1 0.641226 0.822363 0.498107
5133 1 0.649557 0.836693 0.499422
5062 1 0.655516 0.824755 0.499811
5135 1 0.663733 0.837253 0.499414
5137 1 0.671195 0.824946 0.499272
5205 1 0.678425 0.837438 0.499398
5066 1 0.685712 0.823754 0.499166
5136 1 0.694059 0.836883 0.499764
5143 1 0.739632 0.825134 0.499965
5149 1 0.768577 0.825714 0.498691
5146 1 0.750187 0.837889 0.499459
5148 1 0.755235 0.82231 0.499849
5151 1 0.783438 0.824777 0.499308
5156 1 0.807308 0.837318 0.499342
5154 1 0.791818 0.835348 0.499053
5155 1 0.81301 0.8231 0.499763
5178 1 0.980214 0.836891 0.499885
2311 1 0.998634 0.821342 0.498596
5180 1 0.993507 0.835167 0.499313
5179 1 0.98441 0.822377 0.499506
5183 1 0.511587 0.847356 0.497058
5116 1 0.536752 0.84155 0.497184
5185 1 0.522447 0.851267 0.497489
5188 1 0.533894 0.854039 0.497032
5187 1 0.546905 0.853643 0.496431
5189 1 0.558424 0.849808 0.495432
5192 1 0.573903 0.848263 0.495585
5193 1 0.58548 0.849228 0.494543
5195 1 0.600107 0.851453 0.494917
5198 1 0.61386 0.849144 0.496902
5199 1 0.628383 0.84962 0.497532
5269 1 0.6192 0.859297 0.497346
5132 1 0.6414 0.848395 0.499759
5204 1 0.656968 0.850626 0.499812
5207 1 0.671283 0.85021 0.499725
5217 1 0.75626 0.851247 0.49951
5221 1 0.784438 0.850344 0.499966
5219 1 0.770638 0.848589 0.499487
5223 1 0.798431 0.850783 0.499722
2381 1 0.999775 0.846612 0.498797
2519 1 0.500765 0.877689 0.495957
5253 1 0.515378 0.877324 0.49616
5182 1 0.508103 0.863246 0.496779
5184 1 0.524269 0.866372 0.498468
5186 1 0.529888 0.877232 0.497608
5257 1 0.539021 0.865666 0.497904
5259 1 0.552939 0.866557 0.49581
5256 1 0.544071 0.877103 0.49705
5261 1 0.558252 0.878229 0.496293
5190 1 0.565002 0.864004 0.496518
5263 1 0.571195 0.876029 0.497163
5122 1 0.578341 0.862324 0.496182
5265 1 0.584972 0.875357 0.498036
5194 1 0.590358 0.86154 0.495774
5196 1 0.604853 0.862937 0.497406
5266 1 0.601376 0.873837 0.496844
5267 1 0.613309 0.873997 0.496257
5271 1 0.625894 0.872141 0.496581
5200 1 0.633512 0.861437 0.498491
5202 1 0.640286 0.874526 0.497243
5203 1 0.648567 0.863227 0.498508
5134 1 0.663142 0.862755 0.499356
5273 1 0.65666 0.875139 0.499038
5287 1 0.755602 0.875554 0.499214
5218 1 0.764982 0.863496 0.497959
5216 1 0.751376 0.862705 0.499108
2451 1 0.999677 0.875835 0.49964
5250 1 0.993134 0.862077 0.499326
5251 1 0.509426 0.889394 0.495216
5324 1 0.536268 0.889421 0.497658
5255 1 0.522115 0.888594 0.495582
5325 1 0.528712 0.899637 0.496491
5258 1 0.550549 0.888961 0.496794
5329 1 0.557212 0.89993 0.495853
5260 1 0.564366 0.887526 0.497801
5331 1 0.571604 0.897694 0.495943
5262 1 0.577026 0.887616 0.497651
5264 1 0.591507 0.886644 0.496353
5333 1 0.583149 0.897955 0.495908
5337 1 0.606471 0.886936 0.494972
5338 1 0.612635 0.899141 0.496013
5268 1 0.620643 0.886138 0.496148
5339 1 0.627921 0.899447 0.496942
5270 1 0.634062 0.884841 0.49724
5272 1 0.650098 0.885674 0.498849
5341 1 0.64444 0.899457 0.499587
2590 1 0.502166 0.900715 0.493041
5254 1 0.516554 0.900342 0.495156
5321 1 0.508508 0.913102 0.494382
5252 1 0.521499 0.914965 0.495846
5326 1 0.533582 0.913738 0.496742
5327 1 0.54325 0.901159 0.497644
5328 1 0.551052 0.912966 0.495723
5330 1 0.567698 0.913439 0.495198
5332 1 0.579755 0.91364 0.495195
5334 1 0.592582 0.913991 0.494073
5335 1 0.598062 0.900758 0.495921
5336 1 0.606419 0.914208 0.494396
5409 1 0.620162 0.911355 0.495086
5340 1 0.635087 0.910261 0.497928
5342 1 0.648975 0.912176 0.499304
5390 1 0.99455 0.9145 0.499895
5391 1 0.502096 0.92491 0.493379
5323 1 0.515507 0.925461 0.49502
5392 1 0.508354 0.937125 0.495626
5395 1 0.529263 0.927861 0.495267
5396 1 0.538396 0.937938 0.494474
5393 1 0.522242 0.936737 0.494136
5397 1 0.542776 0.92398 0.495246
5398 1 0.550992 0.937426 0.494842
5399 1 0.55747 0.924298 0.494267
5401 1 0.569154 0.925242 0.495006
5400 1 0.563626 0.937558 0.495045
5403 1 0.583147 0.925712 0.492821
5402 1 0.577749 0.938873 0.492579
5405 1 0.597519 0.927329 0.493881
5406 1 0.606833 0.936761 0.493229
5407 1 0.61233 0.924027 0.493698
5408 1 0.621274 0.934485 0.49329
5413 1 0.627107 0.922103 0.495234
5479 1 0.634362 0.933647 0.495051
5411 1 0.640936 0.921565 0.499035
5410 1 0.647426 0.933649 0.496571
5463 1 0.516561 0.94946 0.495633
5464 1 0.506637 0.959808 0.496903
5394 1 0.530126 0.946507 0.496745
5466 1 0.535019 0.959139 0.497108
5465 1 0.546086 0.949311 0.494734
5467 1 0.558962 0.949584 0.495035
5471 1 0.572281 0.948687 0.494556
5404 1 0.592777 0.940887 0.494145
5469 1 0.587026 0.951616 0.493302
5475 1 0.61278 0.949382 0.494393
5473 1 0.599373 0.94986 0.49322
5477 1 0.62699 0.947967 0.494076
5481 1 0.640419 0.94675 0.494642
5483 1 0.653507 0.947351 0.497885
5482 1 0.646408 0.95963 0.49762
5485 1 0.668463 0.949688 0.499864
5484 1 0.660735 0.959055 0.498119
5486 1 0.675886 0.959764 0.497997
5505 1 0.812372 0.95162 0.499926
5507 1 0.826268 0.948468 0.499168
2800 1 0.502119 0.973092 0.497744
5531 1 0.513296 0.972273 0.497935
5533 1 0.520019 0.963685 0.49848
5535 1 0.529384 0.972312 0.497161
5537 1 0.541746 0.97264 0.496401
5468 1 0.552031 0.961752 0.495371
5541 1 0.574106 0.971836 0.496461
5470 1 0.566884 0.962427 0.493711
5539 1 0.557806 0.973232 0.496573
5472 1 0.585286 0.963626 0.494335
2813 1 0.587772 0.976122 0.49492
5474 1 0.596584 0.963794 0.492786
5476 1 0.608848 0.961972 0.493707
5545 1 0.600232 0.977977 0.494525
5547 1 0.613064 0.975651 0.493864
5549 1 0.627603 0.975147 0.493149
5478 1 0.620339 0.960732 0.493419
5480 1 0.634072 0.961442 0.495089
5551 1 0.642041 0.972176 0.496171
5555 1 0.66917 0.971201 0.498638
5553 1 0.655382 0.972154 0.497332
5557 1 0.683856 0.972911 0.49661
5488 1 0.689426 0.961094 0.498226
5490 1 0.703967 0.960574 0.498627
5559 1 0.696051 0.973753 0.498339
5561 1 0.709565 0.971496 0.499239
5577 1 0.829049 0.978652 0.498738
5508 1 0.836505 0.965109 0.499602
5510 1 0.850086 0.964818 0.499141
5581 1 0.85867 0.975411 0.499985
5532 1 0.507402 0.985743 0.498522
2801 1 0.501478 0.997703 0.498384
2803 1 0.51737 0.999872 0.499825
5536 1 0.535475 0.984657 0.498789
5534 1 0.521784 0.982262 0.498802
2805 1 0.531957 0.996592 0.498924
5538 1 0.547247 0.985129 0.498047
2807 1 0.546104 0.997452 0.498116
5540 1 0.566607 0.985399 0.496678
5542 1 0.570639 0.999297 0.496589
2809 1 0.558918 0.995727 0.497672
2814 1 0.58262 0.998383 0.494058
2815 1 0.593835 0.989843 0.492416
5543 1 0.579078 0.986064 0.495889
5546 1 0.611764 0.999469 0.49474
5544 1 0.606507 0.988537 0.494038
5550 1 0.631919 0.987777 0.494945
5548 1 0.620088 0.986952 0.494401
2819 1 0.624507 0.999461 0.495645
2823 1 0.653713 0.997737 0.496886
5552 1 0.647203 0.986045 0.495946
2821 1 0.640032 0.997624 0.496369
2825 1 0.667972 0.998623 0.497068
5554 1 0.662236 0.985141 0.49764
2827 1 0.683035 0.998983 0.496998
5556 1 0.67526 0.985745 0.497341
5558 1 0.68929 0.986172 0.498119
2829 1 0.695471 0.999415 0.498974
2841 1 0.782054 0.999713 0.499286
5570 1 0.776128 0.988348 0.499966
5574 1 0.806071 0.986629 0.499472
2847 1 0.830354 0.998494 0.498952
2851 1 0.860434 0.99797 0.498753
5584 1 0.882644 0.985488 0.499876
4204 1 0.51008 0.513506 0.501139
4230 1 0.706381 0.511676 0.502886
4228 1 0.693198 0.510692 0.501575
4232 1 0.720242 0.511932 0.502589
4233 1 0.727462 0.500287 0.503428
4234 1 0.734285 0.51347 0.503549
4236 1 0.748695 0.51349 0.504615
4235 1 0.741701 0.502967 0.504973
4238 1 0.761907 0.516042 0.504428
4237 1 0.757905 0.50204 0.504771
4239 1 0.772577 0.504683 0.504184
4240 1 0.775175 0.514853 0.505045
4241 1 0.78733 0.500637 0.505756
4242 1 0.792868 0.510781 0.50406
4243 1 0.801319 0.501047 0.505072
4244 1 0.807286 0.51347 0.504718
4246 1 0.821298 0.516592 0.507084
4245 1 0.81644 0.50265 0.505988
4249 1 0.840975 0.504857 0.507321
4248 1 0.837941 0.51608 0.508144
4247 1 0.82782 0.503671 0.50749
4250 1 0.850895 0.51639 0.50871
4252 1 0.86477 0.511529 0.505463
4251 1 0.855918 0.502213 0.507175
4253 1 0.871848 0.502497 0.505248
4254 1 0.877931 0.515273 0.505128
4256 1 0.892567 0.514366 0.504294
4257 1 0.90077 0.501601 0.505607
4255 1 0.886374 0.50197 0.505444
4258 1 0.905838 0.511961 0.50433
4259 1 0.916149 0.500757 0.505859
4260 1 0.921999 0.511526 0.502574
4262 1 0.934986 0.510759 0.503243
4263 1 0.946861 0.501996 0.502097
4264 1 0.949381 0.512561 0.501783
4265 1 0.958046 0.500172 0.502287
4266 1 0.963061 0.513104 0.5011
4268 1 0.977682 0.514513 0.501093
4267 1 0.972537 0.50113 0.501626
4269 1 0.983726 0.501475 0.500943
4270 1 0.991741 0.51316 0.50075
4292 1 0.648907 0.539976 0.50144
4294 1 0.663153 0.539361 0.500747
4297 1 0.68682 0.524145 0.500881
4298 1 0.693065 0.539062 0.500815
4299 1 0.70027 0.526782 0.501953
4300 1 0.707669 0.539485 0.501376
4303 1 0.726954 0.52634 0.503438
4301 1 0.712921 0.524991 0.502324
4302 1 0.722338 0.539141 0.503785
4305 1 0.743808 0.524324 0.504516
4304 1 0.736355 0.536081 0.504005
4307 1 0.761252 0.532399 0.502125
4306 1 0.751933 0.538973 0.502779
4309 1 0.771153 0.524229 0.503788
4311 1 0.785091 0.524374 0.504808
4310 1 0.778727 0.536547 0.502637
4313 1 0.797403 0.525453 0.503268
4312 1 0.792635 0.538155 0.502681
4314 1 0.806041 0.536963 0.504634
4315 1 0.814335 0.526199 0.507347
4316 1 0.821932 0.539108 0.505861
4317 1 0.828956 0.527344 0.506583
4319 1 0.84274 0.529348 0.507288
4318 1 0.835737 0.539945 0.50605
4321 1 0.856966 0.526471 0.504539
4323 1 0.87051 0.526727 0.503658
4324 1 0.880918 0.539296 0.500942
4325 1 0.885369 0.525779 0.50217
4327 1 0.900731 0.524251 0.502532
4326 1 0.894229 0.535912 0.501906
4329 1 0.914126 0.521312 0.500766
4328 1 0.90643 0.535324 0.500536
4330 1 0.920774 0.537251 0.500123
4331 1 0.926821 0.523268 0.501675
4333 1 0.941852 0.523639 0.500733
4359 1 0.627362 0.551284 0.500351
4360 1 0.641598 0.552068 0.500862
4363 1 0.657548 0.550801 0.501537
4365 1 0.67302 0.550882 0.500904
4367 1 0.684747 0.550728 0.500717
4369 1 0.700613 0.550426 0.50078
4373 1 0.729246 0.549756 0.502085
4371 1 0.715148 0.552288 0.502204
4375 1 0.743894 0.551565 0.501612
4308 1 0.766568 0.544429 0.501265
4377 1 0.759446 0.553819 0.501283
4379 1 0.774581 0.553421 0.502944
4381 1 0.786395 0.55189 0.504342
4383 1 0.799186 0.548797 0.503632
4385 1 0.815057 0.551961 0.503809
4387 1 0.829341 0.552569 0.504623
4389 1 0.841153 0.552671 0.504637
4320 1 0.85198 0.54093 0.504816
4391 1 0.857586 0.552281 0.502862
4322 1 0.866547 0.540906 0.502801
4393 1 0.872434 0.552821 0.500992
4397 1 0.899235 0.547017 0.500355
4395 1 0.885092 0.552076 0.500383
4430 1 0.631967 0.576691 0.500633
4429 1 0.637392 0.565506 0.501062
4431 1 0.646809 0.576101 0.501169
4362 1 0.651323 0.562762 0.501514
4364 1 0.663482 0.562222 0.501637
4433 1 0.661128 0.57307 0.500247
4437 1 0.688996 0.575118 0.501053
4366 1 0.677687 0.564587 0.501562
4435 1 0.673316 0.575516 0.501334
4439 1 0.701863 0.575085 0.500911
4370 1 0.708133 0.563186 0.501302
4368 1 0.692877 0.562023 0.50111
4443 1 0.728556 0.575537 0.500366
4372 1 0.722806 0.563165 0.500109
4441 1 0.716108 0.575318 0.501123
4374 1 0.73672 0.565344 0.502094
4445 1 0.743326 0.577598 0.501357
4376 1 0.751425 0.565005 0.501336
4378 1 0.766503 0.565668 0.501255
4447 1 0.759518 0.576987 0.501332
4380 1 0.779131 0.566155 0.500778
4451 1 0.787561 0.577305 0.503078
4449 1 0.774939 0.578551 0.50223
4382 1 0.794019 0.562955 0.50367
4453 1 0.800748 0.577533 0.503972
4384 1 0.80981 0.562363 0.504925
4386 1 0.821882 0.564563 0.504401
4455 1 0.815083 0.577846 0.503974
4388 1 0.836581 0.565219 0.503627
4459 1 0.844 0.578537 0.504586
4390 1 0.851731 0.565594 0.504196
4461 1 0.857739 0.575681 0.502625
4392 1 0.864739 0.563231 0.502014
4463 1 0.869799 0.575049 0.501307
4465 1 0.884465 0.576439 0.500294
4394 1 0.878958 0.562397 0.502224
4396 1 0.891857 0.564432 0.500379
4501 1 0.640654 0.588288 0.500049
4440 1 0.709833 0.587981 0.500774
4438 1 0.694986 0.588842 0.500465
4509 1 0.703443 0.599912 0.501011
4442 1 0.721965 0.587916 0.50199
4444 1 0.734924 0.587078 0.501645
4446 1 0.750962 0.589532 0.501389
4448 1 0.764801 0.58916 0.502493
4450 1 0.781532 0.58816 0.503986
4519 1 0.773172 0.596679 0.502492
4452 1 0.794799 0.589172 0.503782
4454 1 0.808583 0.591626 0.504406
4456 1 0.823025 0.590471 0.505095
4457 1 0.830711 0.580006 0.504437
4458 1 0.837981 0.592043 0.504242
4460 1 0.852771 0.589635 0.50247
4462 1 0.866384 0.587441 0.502205
4464 1 0.878821 0.586951 0.501613
4533 1 0.873082 0.598637 0.502395
4535 1 0.88605 0.599214 0.502939
4466 1 0.892141 0.58953 0.500046
4539 1 0.914191 0.598029 0.50043
4468 1 0.907333 0.586857 0.500004
4565 1 0.608051 0.615071 0.500575
4499 1 0.624646 0.612973 0.500606
4428 1 0.630902 0.600122 0.500244
4497 1 0.618024 0.602473 0.500519
4507 1 0.68708 0.601842 0.501112
4512 1 0.721049 0.615947 0.500644
4511 1 0.718104 0.6023 0.501148
4513 1 0.731978 0.600145 0.500968
4515 1 0.745071 0.60051 0.501668
4514 1 0.736173 0.611815 0.502309
4588 1 0.749767 0.612969 0.501429
4516 1 0.759488 0.602295 0.501833
4518 1 0.763041 0.618726 0.502732
4517 1 0.771604 0.608135 0.503404
4521 1 0.780479 0.615752 0.504129
4523 1 0.78817 0.601366 0.504083
4525 1 0.801879 0.603591 0.503949
4522 1 0.792387 0.61401 0.504077
4524 1 0.80755 0.61408 0.504694
4526 1 0.815161 0.602358 0.504125
4528 1 0.823925 0.614434 0.505377
4527 1 0.829259 0.601929 0.505985
4529 1 0.837132 0.612076 0.505246
4601 1 0.860094 0.601308 0.503373
4531 1 0.847894 0.602837 0.503723
4530 1 0.851927 0.613256 0.503921
4532 1 0.866685 0.612964 0.50377
4534 1 0.880508 0.612829 0.503426
4537 1 0.899918 0.600756 0.500408
4536 1 0.893705 0.612477 0.502778
4538 1 0.906974 0.611554 0.502247
4540 1 0.921364 0.611561 0.500729
4542 1 0.935415 0.611439 0.50066
4569 1 0.639289 0.636941 0.500959
4573 1 0.653237 0.63922 0.50075
4583 1 0.726709 0.626842 0.500217
4581 1 0.715343 0.627151 0.500516
4582 1 0.721557 0.638496 0.50168
4585 1 0.74116 0.62552 0.501499
4586 1 0.735972 0.639249 0.501489
4655 1 0.749027 0.637362 0.505072
4587 1 0.752513 0.625023 0.502724
4590 1 0.762142 0.636039 0.504438
4589 1 0.773392 0.629937 0.50366
4520 1 0.786127 0.629098 0.505
4593 1 0.798535 0.625474 0.505199
4592 1 0.7936 0.63765 0.505935
4595 1 0.814202 0.625614 0.506158
4594 1 0.808583 0.63775 0.506687
4597 1 0.829033 0.627472 0.504594
4599 1 0.843447 0.624896 0.504352
4598 1 0.835637 0.638001 0.505052
4671 1 0.858798 0.626173 0.504656
4600 1 0.84776 0.639495 0.506337
4674 1 0.861452 0.638588 0.504886
4602 1 0.871249 0.627404 0.504551
4604 1 0.875041 0.638905 0.504218
4603 1 0.884132 0.625263 0.50457
4607 1 0.898466 0.623951 0.501366
4606 1 0.890909 0.635289 0.502377
4605 1 0.912994 0.623 0.500869
4608 1 0.905536 0.632746 0.502165
4680 1 0.922535 0.634031 0.502639
4609 1 0.930246 0.624002 0.50122
4613 1 0.934917 0.636537 0.50207
4641 1 0.645627 0.651523 0.500378
4572 1 0.659615 0.650424 0.50047
4649 1 0.70075 0.650291 0.500429
4584 1 0.730285 0.650506 0.501174
4653 1 0.744637 0.651487 0.503145
4657 1 0.758368 0.648844 0.504913
4591 1 0.780082 0.640578 0.504621
4659 1 0.770334 0.648946 0.505253
4661 1 0.785453 0.650712 0.505159
4663 1 0.79853 0.651454 0.505816
4596 1 0.822994 0.64128 0.505441
4665 1 0.812463 0.653142 0.504682
4669 1 0.828104 0.654135 0.505389
4741 1 0.842869 0.65268 0.505831
4673 1 0.857136 0.652768 0.506564
4743 1 0.872449 0.652533 0.505119
4675 1 0.885456 0.651235 0.503916
4677 1 0.899219 0.645443 0.501916
4679 1 0.914653 0.646879 0.502583
4676 1 0.906186 0.658813 0.502565
4749 1 0.919767 0.658677 0.503961
4681 1 0.929313 0.647286 0.503532
4611 1 0.942109 0.647748 0.500451
4683 1 0.935579 0.659725 0.50299
4610 1 0.954448 0.651443 0.500536
4686 1 0.971341 0.648969 0.50217
4687 1 0.984992 0.649732 0.500682
4644 1 0.671056 0.663971 0.500426
4713 1 0.659993 0.672784 0.500704
4717 1 0.674532 0.677631 0.501193
4645 1 0.682851 0.661824 0.501251
4718 1 0.687047 0.674427 0.501006
4648 1 0.696274 0.664226 0.500772
4723 1 0.730686 0.676042 0.503383
4721 1 0.717956 0.675264 0.501841
4652 1 0.72557 0.664869 0.500221
4725 1 0.744671 0.67664 0.504308
4654 1 0.738199 0.662266 0.503634
4658 1 0.765881 0.664296 0.503918
4727 1 0.758397 0.677487 0.503614
4656 1 0.75373 0.663444 0.504675
4729 1 0.774367 0.676454 0.502798
4660 1 0.776717 0.66143 0.50467
4731 1 0.787287 0.678177 0.504609
4662 1 0.78997 0.664559 0.503876
4733 1 0.800868 0.678364 0.503577
4664 1 0.804699 0.664745 0.50404
4666 1 0.813636 0.677054 0.503151
4667 1 0.820203 0.66465 0.503292
4739 1 0.835652 0.664797 0.502779
4668 1 0.828212 0.677384 0.503265
4811 1 0.84536 0.677124 0.503826
4744 1 0.856109 0.67547 0.507269
4670 1 0.852605 0.664281 0.506212
4672 1 0.864542 0.66511 0.507362
4747 1 0.87907 0.665103 0.505433
4742 1 0.868697 0.677872 0.505136
4745 1 0.892828 0.66187 0.503426
4815 1 0.899632 0.674731 0.502773
4746 1 0.885359 0.675155 0.503755
4748 1 0.913858 0.67221 0.502434
4751 1 0.927656 0.673035 0.503075
4682 1 0.940667 0.674666 0.501423
4684 1 0.948359 0.66065 0.50202
4753 1 0.954598 0.675593 0.502086
4689 1 0.978084 0.6643 0.503252
4755 1 0.963979 0.663529 0.502227
4757 1 0.9702 0.675588 0.502524
4690 1 0.999328 0.674834 0.501473
4688 1 0.984672 0.673574 0.50342
4618 1 0.994464 0.663819 0.501232
4646 1 0.66643 0.687375 0.500374
4783 1 0.657469 0.698831 0.501116
4785 1 0.671874 0.699915 0.500314
4714 1 0.654727 0.683831 0.501999
4787 1 0.681626 0.687086 0.500158
4722 1 0.724286 0.688582 0.501576
4795 1 0.731752 0.698554 0.501888
4724 1 0.737689 0.687975 0.502782
4797 1 0.766394 0.690166 0.506026
4726 1 0.752496 0.691769 0.505016
4730 1 0.778298 0.689832 0.504085
4801 1 0.792066 0.690752 0.503898
4736 1 0.806685 0.688701 0.503414
4735 1 0.821265 0.689179 0.503017
4737 1 0.836883 0.689421 0.503328
4740 1 0.850103 0.68919 0.504167
4814 1 0.86239 0.687938 0.504888
4816 1 0.877294 0.688253 0.505147
4813 1 0.892895 0.68639 0.502699
4887 1 0.884849 0.699863 0.50356
4886 1 0.90061 0.698028 0.502623
4678 1 0.907831 0.685394 0.502013
4819 1 0.921607 0.68708 0.501892
4821 1 0.913707 0.698846 0.501745
4752 1 0.935258 0.68843 0.50146
4822 1 0.93047 0.699137 0.500904
4754 1 0.950628 0.689269 0.502064
4758 1 0.978905 0.688041 0.503385
4825 1 0.963301 0.687849 0.50226
4826 1 0.985036 0.699153 0.504075
4760 1 0.992026 0.6863 0.502217
4710 1 0.643357 0.700421 0.500686
4782 1 0.649099 0.713646 0.500631
4715 1 0.663451 0.711764 0.501556
4855 1 0.677546 0.713734 0.501964
4716 1 0.684915 0.701785 0.501319
4786 1 0.6925 0.712283 0.501508
4790 1 0.707366 0.713364 0.501473
4792 1 0.721965 0.711762 0.501424
4794 1 0.735905 0.713529 0.502753
4728 1 0.743031 0.701186 0.502754
4869 1 0.765696 0.714968 0.502014
4796 1 0.758154 0.703675 0.503501
4865 1 0.750658 0.714445 0.502314
4798 1 0.779143 0.713752 0.50247
4799 1 0.784144 0.700409 0.503713
4800 1 0.771068 0.703753 0.503933
4732 1 0.792541 0.711397 0.501748
4805 1 0.807583 0.713063 0.502282
4734 1 0.8001 0.700493 0.502673
4738 1 0.812136 0.700917 0.503348
4806 1 0.82107 0.712795 0.501849
4808 1 0.834143 0.712722 0.502356
4809 1 0.844894 0.700215 0.502521
4807 1 0.82791 0.701201 0.502048
4879 1 0.848294 0.71495 0.502524
4810 1 0.858302 0.700738 0.503434
4881 1 0.86462 0.713141 0.501898
4883 1 0.870561 0.700686 0.503905
4812 1 0.878446 0.713253 0.501668
4817 1 0.893388 0.711488 0.501743
4889 1 0.921664 0.711754 0.50146
4750 1 0.908091 0.713331 0.500474
4893 1 0.935646 0.713824 0.501114
4756 1 0.945754 0.703805 0.501503
4823 1 0.960063 0.701144 0.501688
4828 1 0.95865 0.715542 0.500969
4759 1 0.974643 0.716843 0.502113
4895 1 0.971486 0.700745 0.502895
4829 1 0.999032 0.70124 0.502897
4827 1 0.987984 0.714872 0.501867
4849 1 0.630267 0.724122 0.500746
4919 1 0.624462 0.737151 0.500177
4851 1 0.63825 0.737315 0.503158
4850 1 0.651602 0.736753 0.503613
4712 1 0.643915 0.726707 0.500863
4852 1 0.663742 0.736928 0.503473
4853 1 0.656988 0.722524 0.502548
4784 1 0.669 0.725561 0.503432
4854 1 0.680311 0.737273 0.501688
4788 1 0.684665 0.725009 0.501389
4861 1 0.702029 0.723764 0.500671
4859 1 0.694808 0.734791 0.500892
4860 1 0.707592 0.737508 0.500015
4863 1 0.716097 0.72361 0.501005
4931 1 0.724022 0.736858 0.502214
4862 1 0.728899 0.723455 0.501743
4864 1 0.742402 0.72734 0.502766
4866 1 0.734572 0.736396 0.501571
4867 1 0.756736 0.725207 0.50094
4937 1 0.750964 0.737434 0.500151
4871 1 0.772302 0.725845 0.500106
4803 1 0.801777 0.725091 0.501749
4874 1 0.808925 0.737906 0.500784
4876 1 0.821175 0.739001 0.501733
4804 1 0.815627 0.72609 0.502067
4877 1 0.829616 0.726155 0.501191
4878 1 0.834683 0.739108 0.501273
4949 1 0.842014 0.727509 0.501083
4954 1 0.868146 0.725557 0.500272
4884 1 0.899237 0.726236 0.50006
4820 1 0.913733 0.72546 0.500028
4897 1 0.96738 0.729457 0.501537
1964 1 0.997968 0.731125 0.50069
4830 1 0.981795 0.728623 0.500326
4917 1 0.631603 0.747928 0.500393
4921 1 0.645478 0.749634 0.50218
4923 1 0.65962 0.750658 0.50374
4857 1 0.673776 0.749654 0.500876
4856 1 0.685368 0.751579 0.500803
4858 1 0.698923 0.747692 0.500417
4929 1 0.7162 0.747827 0.501381
4933 1 0.72809 0.749771 0.501775
4934 1 0.742493 0.747442 0.500905
4944 1 0.814429 0.751961 0.501564
4947 1 0.827835 0.75255 0.501962
5017 1 0.84164 0.752769 0.50111
4948 1 0.856724 0.752072 0.500001
4966 1 0.959905 0.752774 0.500204
4965 1 0.951928 0.741077 0.500007
4899 1 0.977437 0.742121 0.501109
2032 1 0.975757 0.754706 0.501618
4970 1 0.999969 0.755408 0.501654
4968 1 0.988211 0.754921 0.501054
4925 1 0.652032 0.761727 0.501691
4920 1 0.638972 0.761084 0.500849
4922 1 0.647022 0.775494 0.500676
4993 1 0.660625 0.777396 0.501756
4924 1 0.664651 0.763658 0.501072
4996 1 0.672671 0.776682 0.501169
4926 1 0.677375 0.762558 0.501586
4997 1 0.686719 0.77455 0.502067
4927 1 0.692458 0.762884 0.500531
4928 1 0.707688 0.760446 0.50127
4999 1 0.698528 0.7759 0.501143
5001 1 0.713218 0.773662 0.501359
4930 1 0.722031 0.760308 0.501671
5002 1 0.728513 0.773651 0.500412
4932 1 0.734359 0.762372 0.500504
4942 1 0.807493 0.763355 0.501707
5011 1 0.797015 0.775152 0.50001
5013 1 0.813821 0.77694 0.50269
5015 1 0.820838 0.766041 0.502375
5016 1 0.828307 0.778704 0.50244
5018 1 0.844137 0.778977 0.501984
4946 1 0.835735 0.766251 0.503344
5022 1 0.857064 0.778111 0.502168
5019 1 0.849646 0.764971 0.502386
4950 1 0.865982 0.764046 0.500764
5021 1 0.872272 0.77722 0.502269
5023 1 0.88642 0.776376 0.50266
4956 1 0.893269 0.763169 0.500329
4958 1 0.900393 0.774666 0.501548
5030 1 0.915444 0.777635 0.501228
4962 1 0.920845 0.764175 0.500467
5031 1 0.929436 0.775939 0.501308
5032 1 0.942593 0.778725 0.500456
4967 1 0.963748 0.766944 0.501188
4969 1 0.980166 0.769501 0.501442
5039 1 0.994163 0.769622 0.501003
4991 1 0.652437 0.788725 0.501094
4995 1 0.66588 0.788397 0.501391
4994 1 0.682025 0.788113 0.501836
4998 1 0.694327 0.788972 0.501027
5074 1 0.741948 0.799662 0.500625
5004 1 0.736716 0.785692 0.500427
5008 1 0.778483 0.789832 0.501279
5010 1 0.790522 0.788098 0.501574
5012 1 0.805367 0.788088 0.50222
5014 1 0.822443 0.789786 0.503743
5083 1 0.814245 0.798748 0.501841
5087 1 0.835327 0.789642 0.502564
5020 1 0.849775 0.792148 0.501987
5024 1 0.865813 0.788923 0.502827
5025 1 0.881814 0.788609 0.50251
5027 1 0.896235 0.786769 0.501906
5095 1 0.886939 0.798997 0.503983
5103 1 0.923015 0.789716 0.501593
5028 1 0.907749 0.788145 0.500608
5101 1 0.936681 0.789125 0.502204
5035 1 0.957508 0.781224 0.500157
5034 1 0.950113 0.790394 0.500063
5109 1 0.981462 0.796725 0.502031
5038 1 0.986266 0.783405 0.500449
5142 1 0.733326 0.812118 0.501277
5076 1 0.746443 0.812877 0.500121
5079 1 0.784517 0.801604 0.500854
5080 1 0.777882 0.814127 0.500144
5081 1 0.797962 0.802716 0.50217
5084 1 0.806099 0.811496 0.501516
5086 1 0.81898 0.812711 0.502511
5085 1 0.827412 0.801395 0.503355
5089 1 0.842774 0.802376 0.502026
5088 1 0.83393 0.814954 0.503794
5090 1 0.849398 0.815392 0.503432
5091 1 0.85794 0.802437 0.502912
5093 1 0.864222 0.814932 0.503437
5094 1 0.870563 0.80182 0.502052
5163 1 0.877475 0.812157 0.504763
5026 1 0.901378 0.801938 0.502834
5096 1 0.892632 0.813121 0.504822
5099 1 0.913765 0.802017 0.502014
5097 1 0.906495 0.814986 0.504089
5102 1 0.920219 0.813802 0.5033
5173 1 0.929578 0.805764 0.502422
5107 1 0.934576 0.817431 0.502059
5104 1 0.941712 0.802361 0.500925
5175 1 0.948013 0.815388 0.500322
5105 1 0.961187 0.815307 0.500274
2242 1 0.990974 0.808214 0.500332
5140 1 0.706971 0.83861 0.501077
5139 1 0.699269 0.825083 0.50045
5145 1 0.721166 0.83841 0.501149
5144 1 0.726651 0.82622 0.500336
5141 1 0.712135 0.824456 0.500495
5147 1 0.736264 0.838052 0.501626
5150 1 0.762723 0.837011 0.500056
5152 1 0.775992 0.838125 0.50117
5153 1 0.800189 0.824224 0.500234
5158 1 0.819371 0.837607 0.500379
5157 1 0.827423 0.826683 0.502552
5231 1 0.842668 0.826914 0.504385
5159 1 0.834099 0.83862 0.502218
5232 1 0.851534 0.838073 0.504467
5161 1 0.855958 0.826614 0.504316
5233 1 0.863704 0.838946 0.5037
5162 1 0.871499 0.826516 0.504027
5166 1 0.878208 0.838162 0.502681
5165 1 0.884847 0.823735 0.503723
5167 1 0.899285 0.825475 0.503884
5168 1 0.892044 0.838817 0.503229
5100 1 0.913673 0.82673 0.502826
5098 1 0.906469 0.835816 0.504536
5171 1 0.926136 0.828077 0.504256
5106 1 0.94119 0.82691 0.503179
5170 1 0.935893 0.838503 0.504711
5172 1 0.947752 0.839179 0.503766
5174 1 0.955545 0.82639 0.501406
5176 1 0.963282 0.839417 0.501566
5177 1 0.970233 0.826184 0.500631
5138 1 0.685372 0.851617 0.50096
5209 1 0.698292 0.849944 0.501633
5211 1 0.714348 0.851473 0.501026
5213 1 0.72869 0.849064 0.500517
5215 1 0.744807 0.849318 0.502074
5225 1 0.812694 0.85098 0.500986
5160 1 0.825301 0.850339 0.502212
5229 1 0.840989 0.85052 0.50197
5230 1 0.854926 0.851342 0.503251
5234 1 0.8627 0.859709 0.502997
5092 1 0.870512 0.850348 0.502764
5164 1 0.885229 0.851805 0.503169
5237 1 0.896605 0.850977 0.503173
5169 1 0.922287 0.840823 0.504069
5239 1 0.911838 0.849238 0.504788
5241 1 0.926726 0.852196 0.504053
5243 1 0.941647 0.852164 0.503532
5245 1 0.956489 0.852575 0.501913
5247 1 0.97315 0.849532 0.500573
5249 1 0.987976 0.850614 0.500116
5275 1 0.67186 0.875499 0.500543
5206 1 0.677553 0.862244 0.502165
5277 1 0.684249 0.875355 0.50223
5208 1 0.690153 0.864566 0.502597
5210 1 0.704816 0.863287 0.50229
5279 1 0.700332 0.876856 0.503322
5281 1 0.713483 0.87371 0.502989
5283 1 0.727898 0.87383 0.502362
5212 1 0.720954 0.861404 0.501775
5285 1 0.74232 0.872219 0.502015
5214 1 0.736537 0.861641 0.502291
5291 1 0.785514 0.875683 0.500747
5289 1 0.772099 0.876463 0.500303
5220 1 0.777283 0.862802 0.500026
5293 1 0.799066 0.876891 0.502488
5222 1 0.790526 0.862988 0.501392
5224 1 0.804705 0.863643 0.502493
5226 1 0.818587 0.863501 0.503389
5295 1 0.811352 0.87641 0.503116
5297 1 0.828071 0.873252 0.503669
5227 1 0.831723 0.860273 0.502218
5298 1 0.841355 0.873723 0.503526
5228 1 0.847499 0.860957 0.501714
5301 1 0.855363 0.873675 0.502689
5235 1 0.875405 0.863429 0.502093
5303 1 0.86864 0.873964 0.50155
5307 1 0.882878 0.876536 0.502319
5305 1 0.890687 0.865524 0.503637
5236 1 0.900022 0.876614 0.503828
5240 1 0.918762 0.863084 0.504179
5238 1 0.906742 0.863536 0.503812
5309 1 0.916045 0.876053 0.503073
5242 1 0.936567 0.864832 0.503547
5311 1 0.927243 0.874704 0.50336
5313 1 0.94551 0.876409 0.504254
5315 1 0.95976 0.877333 0.502613
5244 1 0.950925 0.864026 0.502917
5248 1 0.980069 0.861317 0.5019
5246 1 0.96556 0.865319 0.50192
5317 1 0.974338 0.876113 0.501353
5319 1 0.986989 0.875071 0.5012
5274 1 0.665364 0.888944 0.500791
5343 1 0.657518 0.899167 0.500621
5278 1 0.691334 0.888135 0.50392
5276 1 0.676551 0.889993 0.50314
5280 1 0.704528 0.887837 0.503006
5282 1 0.720865 0.887431 0.503089
5353 1 0.728821 0.898287 0.502869
5284 1 0.735662 0.884949 0.502837
5355 1 0.742284 0.898774 0.502181
5286 1 0.750042 0.885589 0.50187
5288 1 0.763137 0.891384 0.500358
5290 1 0.778264 0.890604 0.501617
5294 1 0.8045 0.890678 0.503323
5292 1 0.791222 0.889111 0.502175
5296 1 0.818505 0.889792 0.504434
5369 1 0.833061 0.8851 0.50242
5299 1 0.847752 0.887106 0.503096
5302 1 0.859671 0.886289 0.502106
5371 1 0.853048 0.89991 0.501846
5374 1 0.875104 0.887051 0.501431
5304 1 0.881847 0.899746 0.503751
5373 1 0.868381 0.899135 0.503037
5306 1 0.893992 0.887104 0.502655
5377 1 0.897366 0.899185 0.50509
5308 1 0.907265 0.891588 0.504265
5310 1 0.920696 0.88887 0.502851
5312 1 0.934513 0.885198 0.503229
5381 1 0.931339 0.898639 0.504691
5314 1 0.951365 0.890498 0.502997
5316 1 0.965285 0.890108 0.502444
5318 1 0.981445 0.888834 0.501072
5320 1 0.993848 0.888817 0.500728
5344 1 0.660503 0.913443 0.50095
5345 1 0.669893 0.902693 0.502585
5347 1 0.684072 0.902457 0.504016
5346 1 0.677561 0.913103 0.502615
5348 1 0.692492 0.913627 0.504543
5349 1 0.698467 0.900867 0.504883
5350 1 0.708644 0.91538 0.504851
5351 1 0.714134 0.900592 0.503855
5352 1 0.721615 0.913039 0.503256
5354 1 0.734825 0.910744 0.502744
5356 1 0.749557 0.913633 0.502855
5357 1 0.758041 0.901653 0.501583
5358 1 0.763707 0.914951 0.501763
5359 1 0.771864 0.903806 0.50146
5361 1 0.784843 0.900937 0.50221
5360 1 0.778222 0.914233 0.502501
5362 1 0.7924 0.915109 0.503025
5364 1 0.80551 0.914738 0.501329
5363 1 0.797662 0.903675 0.502979
5367 1 0.826597 0.901691 0.502271
5365 1 0.812336 0.902613 0.502894
5366 1 0.820473 0.913946 0.502877
5300 1 0.8403 0.90167 0.502914
5437 1 0.833442 0.914942 0.502814
5368 1 0.848005 0.91312 0.502416
5370 1 0.86246 0.910985 0.50272
5376 1 0.876771 0.911043 0.504878
5375 1 0.890357 0.912367 0.506162
5379 1 0.913891 0.902493 0.504761
5378 1 0.905253 0.911148 0.505826
5380 1 0.92332 0.911615 0.504567
5382 1 0.937576 0.911677 0.505099
5385 1 0.959613 0.900651 0.502189
5383 1 0.946583 0.902515 0.504548
5384 1 0.953858 0.913016 0.502376
5387 1 0.973796 0.902087 0.502411
5386 1 0.967581 0.913495 0.502558
5389 1 0.989012 0.900272 0.501398
5388 1 0.980991 0.913355 0.502038
5412 1 0.659978 0.937516 0.501097
5414 1 0.654182 0.925268 0.501297
5415 1 0.669945 0.926912 0.503245
5417 1 0.684728 0.927128 0.503059
5418 1 0.691124 0.939068 0.501534
5416 1 0.675487 0.937707 0.500424
5419 1 0.698369 0.927677 0.503464
5420 1 0.706335 0.9396 0.501438
5421 1 0.711207 0.927892 0.502444
5422 1 0.71888 0.938147 0.501964
5423 1 0.725242 0.925259 0.50177
5425 1 0.742759 0.923608 0.502167
5424 1 0.73447 0.936564 0.503109
5426 1 0.748342 0.935265 0.505816
5427 1 0.754878 0.924881 0.504035
5428 1 0.764152 0.938018 0.503631
5429 1 0.769664 0.925438 0.503668
5431 1 0.783078 0.92696 0.502985
5434 1 0.805004 0.938154 0.502097
5432 1 0.791056 0.939781 0.502736
5433 1 0.799184 0.92726 0.501915
5435 1 0.812979 0.922935 0.500969
5436 1 0.819431 0.937962 0.501049
5439 1 0.826046 0.926055 0.50113
5441 1 0.842034 0.925455 0.502419
5438 1 0.835877 0.93722 0.500858
5443 1 0.855448 0.925127 0.5034
5440 1 0.849454 0.935397 0.502135
5442 1 0.863174 0.937391 0.503752
5444 1 0.875316 0.936369 0.505176
5372 1 0.869617 0.924169 0.504888
5445 1 0.882479 0.923394 0.505246
5446 1 0.892305 0.934026 0.50648
5447 1 0.898406 0.922578 0.505233
5449 1 0.914799 0.924549 0.504744
5448 1 0.907609 0.936461 0.506866
5450 1 0.92419 0.934882 0.504309
5452 1 0.938539 0.936522 0.505843
5451 1 0.929955 0.923691 0.504176
5455 1 0.96046 0.925971 0.503802
5453 1 0.942775 0.924685 0.505857
5454 1 0.950243 0.937181 0.503987
5456 1 0.965055 0.939615 0.504755
5457 1 0.975839 0.926223 0.503321
5458 1 0.981366 0.936996 0.504059
5459 1 0.988519 0.926238 0.501623
5460 1 0.996285 0.935591 0.501431
5487 1 0.682237 0.94946 0.500114
5491 1 0.711491 0.949933 0.500861
5489 1 0.696406 0.950106 0.501169
5492 1 0.719323 0.959709 0.501403
5493 1 0.725462 0.948543 0.5017
5494 1 0.734402 0.959941 0.50318
5495 1 0.740595 0.947099 0.50359
5497 1 0.75589 0.946982 0.503156
5430 1 0.776296 0.940124 0.503764
5499 1 0.769422 0.95095 0.504601
5501 1 0.782306 0.951871 0.502838
5503 1 0.79794 0.951813 0.502346
5509 1 0.841059 0.950765 0.500689
5511 1 0.853962 0.947764 0.50185
5513 1 0.870224 0.951322 0.502901
5517 1 0.897809 0.94843 0.505691
5515 1 0.885437 0.949213 0.505036
5519 1 0.913954 0.947268 0.506693
5518 1 0.908607 0.957939 0.505497
5521 1 0.93024 0.948904 0.505939
5525 1 0.960783 0.950517 0.505532
5523 1 0.946506 0.949687 0.505898
5527 1 0.974578 0.948874 0.505454
5529 1 0.98766 0.948204 0.503964
5563 1 0.725743 0.971232 0.501242
5565 1 0.740003 0.972947 0.50288
5496 1 0.749252 0.961673 0.504085
5498 1 0.762713 0.963323 0.502456
5567 1 0.755064 0.975995 0.503319
5500 1 0.776476 0.963596 0.501711
5571 1 0.785522 0.97406 0.50246
5569 1 0.770243 0.975402 0.50183
5573 1 0.79839 0.973544 0.500925
5502 1 0.789983 0.964594 0.502091
5575 1 0.814932 0.975123 0.501028
5506 1 0.822385 0.96307 0.500446
5504 1 0.80834 0.961826 0.500747
5579 1 0.846124 0.976353 0.500405
5512 1 0.86206 0.963559 0.50083
5583 1 0.873733 0.973299 0.500482
5514 1 0.880073 0.961897 0.503687
5587 1 0.901305 0.973631 0.503388
5585 1 0.888758 0.975939 0.502902
5516 1 0.893437 0.961662 0.505085
5589 1 0.917194 0.972094 0.505073
5522 1 0.937958 0.962443 0.506367
5591 1 0.9298 0.97378 0.505936
5520 1 0.923846 0.960061 0.506595
5524 1 0.953852 0.963141 0.505932
5595 1 0.958181 0.976817 0.505333
5593 1 0.94389 0.974792 0.505925
5528 1 0.980293 0.961069 0.504837
5526 1 0.968927 0.961917 0.505302
5597 1 0.973203 0.975581 0.505871
5599 1 0.988011 0.973832 0.504007
5530 1 0.995122 0.960637 0.505393
5560 1 0.701456 0.985407 0.500121
2831 1 0.712026 0.998912 0.500415
5562 1 0.717443 0.984564 0.5001
2833 1 0.723873 0.998493 0.501535
2835 1 0.737445 0.997303 0.501491
5564 1 0.732796 0.986021 0.501787
5566 1 0.745071 0.984633 0.502795
2837 1 0.753121 0.996557 0.501137
5568 1 0.761107 0.984923 0.501011
2839 1 0.767871 0.998982 0.500635
5572 1 0.791025 0.9862 0.500967
5576 1 0.820041 0.988261 0.501345
2849 1 0.844856 0.997879 0.500248
5578 1 0.838007 0.986804 0.500123
5580 1 0.853065 0.989028 0.501403
2853 1 0.875661 0.995641 0.500204
5582 1 0.868 0.984853 0.500467
2855 1 0.89048 0.997113 0.501987
5586 1 0.897807 0.985424 0.501618
5588 1 0.909626 0.983686 0.504065
2859 1 0.91734 0.998483 0.503443
5590 1 0.924953 0.986814 0.503443
2861 1 0.931817 0.999256 0.503233
5592 1 0.938241 0.987105 0.505864
2866 1 0.959631 0.998653 0.504565
2863 1 0.945525 0.999145 0.50357
5594 1 0.951426 0.98809 0.506598
5596 1 0.965294 0.988313 0.506116
2865 1 0.972445 0.99977 0.50483
5600 1 0.993508 0.986084 0.504701
1 1 0.987707 0.999308 0.504867
5598 1 0.981094 0.987366 0.506071
ITEM: TIMESTEP
400000
ITEM: NUMBER OF ATOMS
5600
ITEM: BOX BOUNDS pp pp pp
-3.7835000000000008e+01 3.7835000000000008e+01
-3.7446938459639213e+01 3.7446938459639213e+01
-6.4860000000000014e+01 6.4860000000000014e+01
ITEM: ATOMS id type xs ys zs
77 1 0.0519576 0.0143369 0.498191
75 1 0.0405801 0.00547733 0.499733
6 1 0.0571744 0.00352511 0.499284
8 1 0.0652207 0.0162761 0.499226
2742 1 0.0698679 0.00196378 0.497911
7 1 0.079015 0.0148204 0.498016
14 1 0.0928879 0.0146334 0.497926
9 1 0.0845672 0.0032145 0.497219
87 1 0.10582 0.0163511 0.498368
15 1 0.0973822 0.00138682 0.49838
33 1 0.221811 0.0116395 0.498544
34 1 0.234215 0.000682729 0.497978
103 1 0.238456 0.0133816 0.497334
40 1 0.259271 0.00310431 0.498157
38 1 0.267348 0.0127477 0.499325
105 1 0.250243 0.012603 0.498023
41 1 0.281003 0.0106215 0.49908
113 1 0.29359 0.0125845 0.498526
51 1 0.322513 0.0111737 0.498327
48 1 0.307094 0.0117968 0.499471
46 1 0.339317 0.0114905 0.498618
120 1 0.351834 0.0114269 0.497693
2782 1 0.360504 -0.0017952 0.497147
123 1 0.365244 0.0134178 0.497997
54 1 0.38184 0.0104054 0.499652
56 1 0.394781 0.0148031 0.497086
55 1 0.389469 -0.000353298 0.498522
2790 1 0.401691 0.00377037 0.498283
57 1 0.40992 0.0165446 0.49689
58 1 0.415984 0.0053511 0.498019
60 1 0.425933 0.0156536 0.496454
63 1 0.441589 0.0141925 0.495978
2791 1 0.429956 0.00230236 0.497763
62 1 0.453926 0.0151208 0.496676
61 1 0.444835 0.000378474 0.496112
67 1 0.458891 0.00289473 0.496616
64 1 0.46758 0.0145232 0.496702
2798 1 0.47293 0.00297639 0.496678
70 1 0.494564 0.0112057 0.498318
137 1 0.482024 0.0103581 0.497736
147 1 0.034326 0.0367101 0.499621
10 1 0.0548736 0.0281119 0.496057
79 1 0.0489812 0.0372552 0.497507
11 1 0.0693844 0.0285271 0.498179
82 1 0.0770682 0.0400518 0.49474
83 1 0.0874109 0.0259181 0.497336
84 1 0.0939092 0.0393767 0.495696
88 1 0.112558 0.0282468 0.497767
85 1 0.100771 0.0288216 0.497044
86 1 0.109022 0.039295 0.498333
91 1 0.141506 0.0279926 0.499775
104 1 0.228512 0.0255407 0.498805
101 1 0.213963 0.0250902 0.499758
102 1 0.221809 0.0373744 0.500034
106 1 0.243374 0.0241322 0.498398
173 1 0.236018 0.0373317 0.500633
177 1 0.250977 0.0350924 0.499584
107 1 0.265251 0.0352141 0.499019
175 1 0.258718 0.0223269 0.498903
112 1 0.278542 0.037356 0.497656
109 1 0.273304 0.0252839 0.499661
111 1 0.287055 0.0259878 0.499235
115 1 0.295655 0.0385135 0.498178
44 1 0.300762 0.0249067 0.498588
116 1 0.322715 0.0362744 0.498794
117 1 0.314319 0.0250293 0.498516
114 1 0.308307 0.0381953 0.498783
50 1 0.329123 0.0231377 0.499411
118 1 0.341849 0.0226188 0.49839
119 1 0.338181 0.0354385 0.50013
52 1 0.350775 0.0358682 0.496746
121 1 0.357055 0.0246085 0.498297
191 1 0.364894 0.0370392 0.496565
122 1 0.372817 0.0248324 0.49862
124 1 0.37755 0.0383392 0.498006
125 1 0.387696 0.026657 0.497736
127 1 0.403731 0.0275886 0.49723
126 1 0.392426 0.0395229 0.497676
129 1 0.418005 0.0261895 0.498272
128 1 0.409759 0.0392212 0.497109
131 1 0.433926 0.0259399 0.49626
130 1 0.425654 0.0366194 0.498163
135 1 0.448197 0.0282909 0.497063
136 1 0.461783 0.028182 0.496898
66 1 0.476542 0.0268058 0.496463
139 1 0.488138 0.0261278 0.498041
138 1 0.481048 0.0398019 0.496637
140 1 0.495549 0.0393957 0.498272
146 1 0.0273119 0.0512298 0.5002
81 1 0.0558125 0.0513919 0.497083
149 1 0.0415694 0.0499571 0.498501
12 1 0.0642419 0.0385851 0.494552
80 1 0.0703957 0.0526101 0.495383
153 1 0.085385 0.052153 0.495475
155 1 0.100556 0.0506013 0.497423
157 1 0.121999 0.0406266 0.499089
159 1 0.127928 0.0519707 0.498762
89 1 0.136597 0.0423925 0.498716
161 1 0.142845 0.0555621 0.499058
178 1 0.264873 0.0602027 0.499249
179 1 0.27208 0.0495184 0.498509
181 1 0.287179 0.0498435 0.497831
183 1 0.300048 0.0504656 0.497254
185 1 0.315318 0.0517856 0.497751
187 1 0.330367 0.0480943 0.498285
190 1 0.343935 0.0479828 0.498144
189 1 0.358816 0.0493851 0.497335
195 1 0.371582 0.0501178 0.495939
197 1 0.384359 0.0493163 0.496443
199 1 0.399103 0.0506563 0.496472
201 1 0.416891 0.050432 0.49723
133 1 0.437871 0.0398272 0.498651
132 1 0.428121 0.0525761 0.497742
134 1 0.45178 0.0400884 0.497767
203 1 0.442742 0.0554417 0.498567
205 1 0.458507 0.0521579 0.498522
207 1 0.465167 0.0401432 0.497176
209 1 0.472239 0.0501976 0.498401
2942 1 0.487298 0.0525503 0.498191
144 1 0.0486898 0.0637936 0.497295
217 1 0.0583159 0.0744442 0.496926
148 1 0.0404658 0.0748184 0.49818
150 1 0.0636252 0.064582 0.496456
221 1 0.0722976 0.0759334 0.495957
151 1 0.0781376 0.0646208 0.4963
152 1 0.0924688 0.0623246 0.495154
223 1 0.0881726 0.0753755 0.497329
156 1 0.105303 0.065475 0.497509
225 1 0.100349 0.0777176 0.497453
228 1 0.114589 0.0771366 0.499981
158 1 0.133845 0.0667305 0.499906
180 1 0.277583 0.0609636 0.49817
250 1 0.270054 0.0734785 0.498899
251 1 0.283446 0.073127 0.497497
253 1 0.297289 0.0769414 0.495136
182 1 0.291816 0.0609785 0.496632
184 1 0.304668 0.0641262 0.49714
186 1 0.321697 0.0627103 0.497995
255 1 0.313454 0.075348 0.497776
188 1 0.335277 0.0609426 0.497847
257 1 0.325845 0.077064 0.498731
259 1 0.342819 0.0741228 0.49724
192 1 0.350057 0.0611237 0.496994
333 1 0.355708 0.0747621 0.495685
261 1 0.364929 0.0634229 0.495348
193 1 0.37791 0.0639465 0.495268
263 1 0.370032 0.0766721 0.495272
196 1 0.389752 0.0607514 0.495273
194 1 0.383696 0.0749265 0.495583
267 1 0.39833 0.0755273 0.494276
198 1 0.407025 0.062161 0.495852
269 1 0.414708 0.0744713 0.495305
200 1 0.422399 0.0643983 0.497901
271 1 0.428445 0.0796886 0.495028
202 1 0.438294 0.068093 0.497179
204 1 0.452285 0.065025 0.497607
273 1 0.442974 0.0794228 0.496737
275 1 0.457107 0.0769482 0.497622
206 1 0.464722 0.0633435 0.498022
277 1 0.471147 0.0773723 0.497935
208 1 0.47684 0.0633554 0.497538
279 1 0.483343 0.076911 0.498138
210 1 0.493541 0.0634967 0.499085
3011 1 0.495635 0.0768755 0.498186
216 1 0.0504344 0.0824405 0.498495
287 1 0.0424112 0.0995212 0.499728
219 1 0.0639102 0.0878559 0.497713
220 1 0.0700831 0.0982711 0.498277
222 1 0.0794881 0.0877001 0.496494
224 1 0.0950679 0.0902283 0.497527
293 1 0.0864045 0.0997263 0.498046
226 1 0.108303 0.0896898 0.498963
301 1 0.121288 0.0906194 0.500504
319 1 0.273882 0.0846342 0.499472
321 1 0.280215 0.0978522 0.499319
252 1 0.288558 0.0863473 0.497152
323 1 0.296401 0.0975574 0.497963
254 1 0.304671 0.0863524 0.497927
256 1 0.319709 0.0865443 0.498235
325 1 0.310719 0.0997333 0.498378
327 1 0.323906 0.0994604 0.498172
329 1 0.340459 0.0979966 0.496447
258 1 0.334761 0.0885099 0.498306
260 1 0.347049 0.0857549 0.497306
331 1 0.353538 0.0984832 0.49595
262 1 0.361423 0.0870739 0.49572
265 1 0.378815 0.0862715 0.496004
264 1 0.369842 0.0993188 0.495685
266 1 0.39313 0.0874663 0.494483
268 1 0.407709 0.0883597 0.493687
270 1 0.420903 0.0894555 0.494068
272 1 0.436562 0.0908159 0.496606
274 1 0.451547 0.0918972 0.497621
276 1 0.463819 0.0926639 0.497973
278 1 0.477216 0.0895341 0.499566
289 1 0.0643662 0.11056 0.50059
292 1 0.0783551 0.111276 0.498677
295 1 0.0997944 0.104131 0.498639
297 1 0.115397 0.102806 0.499935
324 1 0.302158 0.112682 0.498009
322 1 0.287096 0.109528 0.49874
326 1 0.319 0.111955 0.496581
328 1 0.333352 0.108515 0.496663
330 1 0.347552 0.110903 0.49524
332 1 0.36319 0.110097 0.494212
334 1 0.376274 0.111066 0.494019
335 1 0.385089 0.101319 0.495158
337 1 0.398339 0.10121 0.495825
336 1 0.391258 0.114889 0.495382
339 1 0.413241 0.100682 0.494992
338 1 0.406622 0.11223 0.496698
340 1 0.420955 0.114078 0.496888
341 1 0.427993 0.102276 0.495588
342 1 0.435615 0.116199 0.496465
345 1 0.458585 0.10582 0.497851
343 1 0.442633 0.104461 0.495485
344 1 0.450591 0.115387 0.496335
347 1 0.47489 0.102344 0.498607
349 1 0.486954 0.103361 0.50009
361 1 0.0680343 0.138939 0.500436
393 1 0.282143 0.125587 0.50016
395 1 0.29732 0.127236 0.498652
394 1 0.306994 0.134629 0.497357
396 1 0.311505 0.122953 0.496605
467 1 0.319798 0.133747 0.496687
397 1 0.327168 0.123358 0.496806
398 1 0.334124 0.136795 0.49795
399 1 0.341539 0.124209 0.496741
401 1 0.355995 0.123681 0.494999
402 1 0.361195 0.13755 0.493688
400 1 0.345928 0.13631 0.495277
403 1 0.369996 0.122597 0.493511
405 1 0.382682 0.127039 0.494301
404 1 0.374178 0.137543 0.494633
406 1 0.388175 0.138188 0.495134
407 1 0.398395 0.127434 0.496622
408 1 0.402417 0.139166 0.497762
409 1 0.414012 0.123254 0.498389
410 1 0.4198 0.137317 0.498199
411 1 0.428834 0.128278 0.497018
413 1 0.443476 0.126897 0.497489
415 1 0.458383 0.128425 0.498141
414 1 0.451105 0.140204 0.498839
417 1 0.471353 0.128901 0.499833
431 1 0.0730257 0.152234 0.499728
434 1 0.0857285 0.151101 0.499321
370 1 0.127967 0.154615 0.49972
392 1 0.299604 0.146838 0.498465
466 1 0.325585 0.151896 0.498921
465 1 0.312761 0.14756 0.497691
469 1 0.340483 0.14864 0.499121
471 1 0.35282 0.148088 0.494993
472 1 0.35962 0.160102 0.496705
473 1 0.368413 0.149269 0.49439
475 1 0.38159 0.152504 0.496021
477 1 0.393746 0.152065 0.496859
479 1 0.412019 0.150017 0.497344
481 1 0.427464 0.149334 0.496986
412 1 0.439399 0.140465 0.497163
483 1 0.445577 0.152225 0.498674
485 1 0.458171 0.15024 0.499825
433 1 0.0758732 0.164222 0.499213
503 1 0.0823396 0.175895 0.498672
432 1 0.0904504 0.163721 0.499734
505 1 0.0974507 0.178147 0.498329
436 1 0.106848 0.165339 0.499266
507 1 0.111412 0.177489 0.498263
440 1 0.132514 0.16686 0.500446
509 1 0.126227 0.177224 0.498829
442 1 0.147338 0.165677 0.49987
511 1 0.140783 0.180078 0.498863
513 1 0.154844 0.178101 0.499088
470 1 0.346819 0.16184 0.498175
468 1 0.333605 0.163157 0.500001
539 1 0.340473 0.175215 0.499176
541 1 0.352476 0.173473 0.498417
474 1 0.374351 0.162901 0.497143
545 1 0.381658 0.174636 0.497082
543 1 0.367082 0.171993 0.497955
547 1 0.40026 0.17792 0.498068
476 1 0.389153 0.164251 0.496296
478 1 0.403145 0.163559 0.495673
549 1 0.412756 0.172784 0.498645
480 1 0.417798 0.161639 0.498084
482 1 0.434601 0.161978 0.498338
484 1 0.448329 0.165573 0.499853
504 1 0.0910186 0.189148 0.497406
502 1 0.0774993 0.18973 0.498713
506 1 0.103975 0.188792 0.498333
508 1 0.1183 0.190195 0.498543
512 1 0.147028 0.1918 0.499639
514 1 0.161138 0.191115 0.499628
542 1 0.357788 0.185073 0.499226
613 1 0.366579 0.196279 0.500338
544 1 0.37298 0.185812 0.498611
546 1 0.388012 0.186991 0.498693
617 1 0.397585 0.197368 0.499728
548 1 0.408073 0.186 0.500263
571 1 0.071298 0.202569 0.500232
572 1 0.0791471 0.215541 0.499682
573 1 0.0861575 0.204408 0.498268
574 1 0.0929356 0.214532 0.495838
575 1 0.0968636 0.202684 0.496898
647 1 0.105708 0.214261 0.495226
577 1 0.110212 0.201743 0.497527
578 1 0.124252 0.203033 0.497042
576 1 0.117274 0.218357 0.496247
580 1 0.13078 0.215453 0.495806
581 1 0.145194 0.215387 0.49704
579 1 0.139615 0.203031 0.49902
583 1 0.154616 0.202696 0.499594
584 1 0.160616 0.215471 0.499542
639 1 0.0582335 0.226483 0.500622
641 1 0.0713736 0.227366 0.498453
643 1 0.0860547 0.229489 0.497045
640 1 0.0771741 0.240761 0.498949
649 1 0.110702 0.228563 0.49693
645 1 0.0989074 0.226509 0.495539
646 1 0.104937 0.239353 0.495834
651 1 0.127715 0.227642 0.497091
582 1 0.13996 0.227836 0.497278
653 1 0.152135 0.228503 0.497898
650 1 0.133752 0.239295 0.496867
652 1 0.147282 0.241745 0.496951
655 1 0.166237 0.22729 0.498618
588 1 0.182018 0.228351 0.498257
743 1 0.291814 0.234581 0.500109
642 1 0.0927356 0.240327 0.495559
713 1 0.0841618 0.251349 0.497536
717 1 0.113113 0.249224 0.496162
644 1 0.0994752 0.254051 0.496422
648 1 0.120481 0.238693 0.495732
719 1 0.126202 0.251218 0.496948
721 1 0.140033 0.252085 0.499741
723 1 0.152215 0.253875 0.498249
725 1 0.16578 0.252528 0.496542
654 1 0.161616 0.240137 0.499386
727 1 0.179861 0.253875 0.496548
656 1 0.176062 0.240939 0.497811
657 1 0.190867 0.243214 0.498729
730 1 0.199968 0.255381 0.498354
729 1 0.203104 0.240156 0.499516
731 1 0.215662 0.253836 0.499053
740 1 0.285671 0.2465 0.498822
742 1 0.277239 0.258699 0.499024
737 1 0.271129 0.247912 0.499985
741 1 0.299792 0.245999 0.498736
744 1 0.29184 0.260438 0.499026
746 1 0.305652 0.259909 0.49941
714 1 0.0923653 0.265789 0.497854
716 1 0.11335 0.276947 0.497951
715 1 0.105629 0.26533 0.496298
783 1 0.0994652 0.277819 0.4986
787 1 0.126497 0.273799 0.498042
718 1 0.119324 0.261747 0.497267
720 1 0.133603 0.263091 0.496944
722 1 0.148709 0.265884 0.499613
791 1 0.140015 0.277586 0.498746
793 1 0.155011 0.277848 0.498419
794 1 0.166916 0.278561 0.498135
795 1 0.160647 0.265227 0.49747
726 1 0.173383 0.267521 0.497693
728 1 0.187414 0.264289 0.496879
724 1 0.182883 0.277419 0.499615
799 1 0.19734 0.273147 0.49714
801 1 0.210762 0.265008 0.497275
800 1 0.215538 0.276331 0.497804
732 1 0.223637 0.265443 0.498749
805 1 0.24599 0.273958 0.499091
807 1 0.260316 0.273652 0.500091
809 1 0.2762 0.269975 0.49861
811 1 0.290806 0.273186 0.498852
813 1 0.302774 0.272498 0.498633
789 1 0.135413 0.2898 0.500665
857 1 0.121552 0.286251 0.499978
796 1 0.174753 0.288144 0.499636
867 1 0.186124 0.299251 0.499452
658 1 0.205646 0.284492 0.498243
869 1 0.20169 0.299203 0.499057
798 1 0.216077 0.291533 0.498818
804 1 0.237888 0.287077 0.499543
806 1 0.252461 0.284509 0.498824
808 1 0.267408 0.285905 0.497661
877 1 0.258048 0.295427 0.498638
810 1 0.280808 0.285457 0.498503
881 1 0.286001 0.29827 0.496685
878 1 0.274029 0.297874 0.497248
883 1 0.30402 0.297181 0.498491
812 1 0.294707 0.287558 0.498257
814 1 0.308983 0.284765 0.499208
885 1 0.316997 0.301637 0.497321
856 1 0.111619 0.302722 0.500127
861 1 0.147607 0.313437 0.498705
871 1 0.212541 0.303404 0.501076
949 1 0.265883 0.308652 0.498812
879 1 0.280548 0.310292 0.497346
880 1 0.294332 0.310344 0.49577
884 1 0.307542 0.310503 0.495576
886 1 0.322167 0.313574 0.496602
888 1 0.334774 0.312456 0.497158
890 1 0.348682 0.313237 0.498563
898 1 0.404832 0.315411 0.499849
900 1 0.419042 0.312401 0.499004
902 1 0.434592 0.311847 0.499339
860 1 0.145041 0.326531 0.499218
1003 1 0.136291 0.338141 0.499991
862 1 0.157818 0.323798 0.498969
936 1 0.175508 0.338385 0.500188
952 1 0.27753 0.33504 0.499769
950 1 0.285705 0.322289 0.497187
951 1 0.272408 0.322646 0.49868
953 1 0.293542 0.334499 0.496404
954 1 0.30674 0.335827 0.494182
882 1 0.300826 0.323239 0.494686
956 1 0.3203 0.338263 0.495644
955 1 0.315292 0.326867 0.495258
957 1 0.328688 0.325704 0.496693
958 1 0.336067 0.338013 0.499058
959 1 0.342519 0.325351 0.497769
961 1 0.356935 0.324353 0.499897
960 1 0.351484 0.338722 0.498482
965 1 0.383726 0.322638 0.499712
964 1 0.378192 0.338368 0.499214
966 1 0.392405 0.335013 0.499806
970 1 0.420774 0.336036 0.498594
968 1 0.405669 0.334795 0.499388
969 1 0.414995 0.323232 0.498161
971 1 0.42889 0.32266 0.497756
989 1 0.0697125 0.350534 0.500285
924 1 0.0984003 0.351364 0.499721
930 1 0.140918 0.352591 0.499292
1005 1 0.154815 0.351415 0.500027
1021 1 0.284658 0.346168 0.497924
1022 1 0.278068 0.360511 0.498347
1019 1 0.271475 0.347944 0.499274
1023 1 0.29889 0.348073 0.496684
1025 1 0.311806 0.351642 0.49608
1027 1 0.328701 0.349258 0.498557
1035 1 0.385681 0.350188 0.499338
984 1 0.0164283 0.364768 0.499232
1053 1 0.012578 0.379511 0.497992
982 1 0.0034739 0.362356 0.499792
1057 1 0.0323548 0.368104 0.499803
1055 1 0.0261704 0.379036 0.498765
990 1 0.0512248 0.375599 0.498675
1061 1 0.0647331 0.376242 0.498841
992 1 0.0612544 0.363285 0.500113
993 1 0.0744253 0.364275 0.49796
1063 1 0.0825153 0.376718 0.497216
1067 1 0.0884725 0.36186 0.50005
1065 1 0.096806 0.373364 0.498665
997 1 0.105207 0.363423 0.499174
996 1 0.112165 0.376446 0.498871
1069 1 0.12686 0.375666 0.499648
1000 1 0.120614 0.364847 0.500376
1072 1 0.150114 0.36532 0.499299
1073 1 0.155407 0.37688 0.499556
931 1 0.163288 0.363175 0.500604
1078 1 0.186664 0.376321 0.499068
1002 1 0.179083 0.365129 0.498199
1008 1 0.199926 0.377216 0.499278
1009 1 0.196188 0.362905 0.498492
1089 1 0.271198 0.373038 0.499148
1091 1 0.282795 0.372894 0.498073
1020 1 0.290245 0.361844 0.498141
1093 1 0.297519 0.372998 0.497341
1024 1 0.30622 0.362569 0.498002
1026 1 0.32003 0.361066 0.499428
1095 1 0.314038 0.374523 0.497913
1097 1 0.327805 0.375419 0.498375
1028 1 0.333912 0.360753 0.499713
1036 1 0.391429 0.364449 0.500048
1052 1 0.00437461 0.389623 0.496858
1054 1 0.0175868 0.39085 0.498375
1056 1 0.0297881 0.392014 0.497002
1059 1 0.0395082 0.380459 0.498599
1129 1 0.0444778 0.392539 0.497305
1060 1 0.0576521 0.390901 0.497019
1062 1 0.0711393 0.387783 0.496667
1064 1 0.0879953 0.388843 0.496838
1135 1 0.095018 0.400148 0.497176
1066 1 0.102048 0.388322 0.497029
998 1 0.119808 0.388061 0.498132
1070 1 0.132273 0.387662 0.499403
1141 1 0.147391 0.388654 0.498725
1143 1 0.155533 0.399491 0.497679
1075 1 0.16269 0.388666 0.497268
1074 1 0.170198 0.399867 0.49768
1076 1 0.177197 0.388208 0.497691
1079 1 0.190498 0.388686 0.4988
1080 1 0.204177 0.388282 0.498665
1153 1 0.228749 0.399365 0.498348
1155 1 0.241461 0.399815 0.50018
1084 1 0.233513 0.385462 0.50048
1088 1 0.26267 0.385176 0.499141
1090 1 0.276414 0.38613 0.498292
1159 1 0.269622 0.397858 0.499423
1161 1 0.284514 0.39823 0.498455
1092 1 0.291044 0.385658 0.498938
1094 1 0.306252 0.385819 0.499013
1163 1 0.300505 0.397268 0.498308
1096 1 0.32089 0.387053 0.498255
1165 1 0.314222 0.397531 0.498895
1169 1 0.339746 0.399371 0.498591
1098 1 0.333632 0.388556 0.499167
1100 1 0.346507 0.384459 0.49899
1102 1 0.362206 0.386289 0.500788
1171 1 0.353262 0.397509 0.499316
1173 1 0.367155 0.399465 0.499653
1106 1 0.389534 0.389832 0.499644
1123 1 0.0124194 0.400487 0.498665
1122 1 0.00467524 0.416467 0.499365
1124 1 0.01618 0.41579 0.49804
1125 1 0.0242508 0.404317 0.49814
1126 1 0.0308726 0.418855 0.498421
1127 1 0.0368565 0.404206 0.49598
1058 1 0.0525234 0.405027 0.495256
1128 1 0.0439495 0.418096 0.496185
1131 1 0.0646808 0.403505 0.496559
1130 1 0.0599726 0.416884 0.497083
1132 1 0.0743669 0.414712 0.497067
1134 1 0.0883523 0.413575 0.496327
1133 1 0.0789849 0.399688 0.49661
1136 1 0.102812 0.411312 0.497337
1137 1 0.109829 0.400839 0.497447
1068 1 0.126066 0.400213 0.499135
1138 1 0.118677 0.412195 0.498117
1140 1 0.134608 0.413296 0.499022
1142 1 0.149399 0.41195 0.498595
1139 1 0.140502 0.400756 0.498168
1144 1 0.163355 0.410356 0.497464
1145 1 0.184026 0.400584 0.499223
1146 1 0.175303 0.41242 0.497595
1148 1 0.19166 0.412684 0.498867
1147 1 0.199778 0.401188 0.500175
1149 1 0.206778 0.411211 0.498511
1152 1 0.221807 0.410944 0.49915
1151 1 0.214562 0.400315 0.498806
1154 1 0.235675 0.412914 0.499317
1156 1 0.249637 0.410814 0.500118
1160 1 0.276818 0.409342 0.5001
1164 1 0.303908 0.409424 0.498365
1162 1 0.291882 0.410248 0.498215
1166 1 0.316385 0.414052 0.498269
1167 1 0.324649 0.404628 0.496441
1168 1 0.333105 0.415957 0.4993
1172 1 0.360572 0.413158 0.499944
1175 1 0.384194 0.402116 0.500062
1193 1 0.0128125 0.428335 0.499655
1195 1 0.0253267 0.430428 0.497728
1197 1 0.0381623 0.430387 0.496852
1199 1 0.0532324 0.430118 0.497237
1201 1 0.0699581 0.429091 0.497468
1203 1 0.0838137 0.426077 0.49666
1204 1 0.0914693 0.438382 0.498066
1202 1 0.0776717 0.437782 0.497212
1205 1 0.0972834 0.424427 0.497165
1206 1 0.104734 0.436443 0.498334
1207 1 0.111307 0.424735 0.497744
1209 1 0.127903 0.424374 0.496747
1208 1 0.118123 0.43621 0.498362
1210 1 0.13449 0.435826 0.496865
1211 1 0.141991 0.423138 0.496398
1212 1 0.148751 0.435821 0.495541
1213 1 0.155839 0.422025 0.496555
1215 1 0.171589 0.424014 0.496688
1214 1 0.163634 0.436683 0.495526
1217 1 0.184988 0.424728 0.497389
1216 1 0.177927 0.436765 0.496035
1218 1 0.193212 0.435884 0.496625
1219 1 0.200052 0.424146 0.496627
1220 1 0.207525 0.436387 0.498051
1150 1 0.215678 0.42425 0.498592
1229 1 0.272019 0.422582 0.498832
1231 1 0.284582 0.420875 0.498597
1230 1 0.278483 0.435562 0.500005
1232 1 0.295922 0.435761 0.499333
1233 1 0.299542 0.421173 0.498115
1234 1 0.308013 0.438354 0.49948
1235 1 0.312524 0.426501 0.498176
1239 1 0.338635 0.427945 0.501447
1241 1 0.355217 0.426206 0.49958
1240 1 0.347832 0.437303 0.500439
1244 1 0.376494 0.437543 0.499695
1243 1 0.367212 0.427644 0.499321
1263 1 0.0147164 0.452991 0.498691
1192 1 0.00814138 0.441513 0.498574
1194 1 0.0217479 0.439871 0.497778
1196 1 0.0334029 0.443518 0.497875
1265 1 0.0291379 0.457283 0.496859
1198 1 0.047116 0.443365 0.497935
1267 1 0.042609 0.454509 0.497677
1269 1 0.056027 0.454329 0.496887
1200 1 0.0631795 0.440791 0.496787
1271 1 0.0709672 0.451417 0.496523
1273 1 0.0847713 0.45239 0.497505
1275 1 0.098129 0.451003 0.497535
1277 1 0.10964 0.450343 0.499317
1279 1 0.1261 0.449758 0.497528
1281 1 0.141507 0.447105 0.49552
1283 1 0.156997 0.447605 0.494807
1285 1 0.17232 0.448812 0.494177
1287 1 0.185156 0.448078 0.4952
1289 1 0.199562 0.446092 0.496162
1291 1 0.213952 0.449738 0.498799
1293 1 0.231778 0.451316 0.499869
1299 1 0.269341 0.447673 0.500163
1301 1 0.28624 0.447951 0.499145
1311 1 0.356949 0.448992 0.499645
1313 1 0.372378 0.451324 0.49939
1318 1 0.406376 0.45967 0.497818
1319 1 0.413115 0.449287 0.499456
1323 1 0.445415 0.448267 0.500289
1262 1 0.00973895 0.46461 0.498581
1333 1 0.0164947 0.477661 0.498241
1264 1 0.0213239 0.466097 0.498807
1266 1 0.0367834 0.467371 0.498042
1335 1 0.0302705 0.480098 0.498182
1337 1 0.0430206 0.478489 0.499017
1268 1 0.0507933 0.466006 0.49874
1339 1 0.0584311 0.477651 0.498963
1270 1 0.0650311 0.463768 0.497738
1341 1 0.0728052 0.475503 0.497381
1274 1 0.0940282 0.46425 0.497876
1272 1 0.0819885 0.465499 0.498366
1343 1 0.0865127 0.477201 0.498142
1345 1 0.100776 0.479293 0.497204
1276 1 0.107517 0.46401 0.49776
1347 1 0.115238 0.476761 0.497704
1278 1 0.121218 0.463855 0.498063
1349 1 0.127884 0.475779 0.497623
1280 1 0.136079 0.461826 0.495881
1351 1 0.142106 0.474939 0.497527
1282 1 0.148117 0.461341 0.495062
1355 1 0.171576 0.473415 0.496387
1353 1 0.157855 0.47328 0.497719
1284 1 0.162984 0.461876 0.495419
1357 1 0.186898 0.472543 0.496196
1286 1 0.178574 0.461549 0.494201
1288 1 0.193463 0.460315 0.494177
1290 1 0.206233 0.461617 0.495889
1359 1 0.199233 0.473425 0.49571
1292 1 0.223327 0.461921 0.498557
1361 1 0.214418 0.472927 0.496732
1363 1 0.231064 0.475907 0.499455
1298 1 0.265561 0.465338 0.499933
1371 1 0.284033 0.474836 0.500195
1373 1 0.302517 0.475299 0.499472
1306 1 0.321243 0.462856 0.499242
1375 1 0.314439 0.477837 0.497643
1308 1 0.334926 0.465286 0.499962
1379 1 0.340772 0.475232 0.50087
1381 1 0.35612 0.476295 0.49864
1310 1 0.349359 0.462525 0.498254
1312 1 0.364325 0.463263 0.499094
1383 1 0.370407 0.476087 0.498419
1314 1 0.37832 0.46128 0.499426
1385 1 0.382489 0.47416 0.49827
1387 1 0.398135 0.472348 0.498703
1316 1 0.391106 0.462401 0.498459
1320 1 0.4218 0.462421 0.49826
1389 1 0.411696 0.4706 0.496539
1322 1 0.435408 0.461621 0.500629
1391 1 0.430928 0.474819 0.498367
1393 1 0.444659 0.471658 0.499381
1334 1 0.0206183 0.492858 0.499253
1336 1 0.0363366 0.490333 0.498524
1338 1 0.0522026 0.489862 0.49948
1340 1 0.0685847 0.489043 0.498001
1344 1 0.0936979 0.489852 0.498047
1342 1 0.0805635 0.489081 0.497853
1346 1 0.107812 0.490612 0.497077
1348 1 0.121805 0.488761 0.497518
1352 1 0.151315 0.485784 0.497035
1350 1 0.135998 0.48831 0.498072
1354 1 0.16559 0.487848 0.496516
1356 1 0.179553 0.485008 0.497545
1427 1 0.185809 0.499736 0.497731
1425 1 0.172407 0.499889 0.497875
1358 1 0.193279 0.487008 0.496776
1360 1 0.208075 0.485084 0.498084
1362 1 0.223005 0.490573 0.497477
1364 1 0.236914 0.490898 0.497514
1368 1 0.264528 0.489423 0.500378
1366 1 0.250738 0.490338 0.497915
1370 1 0.278726 0.488545 0.498099
1372 1 0.292418 0.48699 0.497967
1374 1 0.306125 0.489524 0.49604
1447 1 0.326133 0.498765 0.496682
1376 1 0.31904 0.48825 0.498731
1449 1 0.339034 0.501704 0.497309
1378 1 0.333255 0.487604 0.499917
1382 1 0.362804 0.488604 0.497831
1380 1 0.346569 0.48765 0.50023
1453 1 0.370039 0.50145 0.496125
1384 1 0.376017 0.488162 0.497838
1457 1 0.397863 0.500052 0.496561
1388 1 0.404113 0.48459 0.497724
1386 1 0.389439 0.484356 0.496735
1390 1 0.416732 0.483623 0.498941
1459 1 0.413083 0.496162 0.496637
1461 1 0.426454 0.496926 0.497418
1392 1 0.438028 0.485123 0.497553
1394 1 0.452191 0.484253 0.499142
1463 1 0.443399 0.497868 0.497144
1465 1 0.458122 0.496543 0.498736
1469 1 0.48877 0.496215 0.499718
142 1 0.00415652 0.0109593 0.502701
78 1 0.0192049 0.0136167 0.50091
4 1 0.0143906 -0.000955538 0.501158
74 1 0.0325951 0.01574 0.50124
2736 1 0.0261206 0.00200138 0.501119
17 1 0.112155 0.00516642 0.500197
19 1 0.126566 0.00493655 0.500085
18 1 0.120551 0.015952 0.499949
22 1 0.14763 0.0158996 0.501636
21 1 0.139946 0.00282293 0.502035
20 1 0.134896 0.0148034 0.501701
25 1 0.161905 0.0140205 0.499876
23 1 0.154196 0.000701403 0.501805
2756 1 0.170145 0.0044546 0.501242
2757 1 0.183875 0.00152362 0.5006
27 1 0.177147 0.0150605 0.500722
28 1 0.191448 0.0119569 0.500961
30 1 0.205484 0.0117178 0.500138
29 1 0.198723 -0.000357831 0.500168
215 1 0.00877791 0.0369524 0.504091
3008 1 0.0136874 0.0241601 0.503167
73 1 0.000135299 0.0242609 0.505394
145 1 0.0222529 0.0365336 0.502182
141 1 0.0270839 0.0250139 0.500622
76 1 0.0428794 0.0251076 0.499593
16 1 0.127716 0.0271288 0.498883
93 1 0.153713 0.0296421 0.501436
26 1 0.167215 0.0257749 0.502076
24 1 0.162381 0.0410626 0.501479
95 1 0.185086 0.0252412 0.50231
97 1 0.191546 0.0370738 0.504028
99 1 0.199858 0.0249697 0.501602
100 1 0.205819 0.0361253 0.502367
72 1 0.0152629 0.0470395 0.503058
214 1 0.00656025 0.0570936 0.503568
154 1 0.113554 0.0510146 0.500788
90 1 0.149361 0.0430767 0.501469
164 1 0.156494 0.0521141 0.501709
94 1 0.169383 0.0535653 0.501021
163 1 0.185152 0.0483274 0.502838
165 1 0.175049 0.0394147 0.501252
239 1 0.20414 0.0626045 0.502503
96 1 0.19641 0.0501437 0.502743
98 1 0.210678 0.050115 0.501408
170 1 0.229264 0.0506516 0.500215
108 1 0.24235 0.0465464 0.500481
245 1 0.249932 0.05868 0.50079
110 1 0.2571 0.0481577 0.500242
211 1 0.00702426 0.0733687 0.502993
3078 1 0.017851 0.0614028 0.50355
282 1 0.0276397 0.0720924 0.501209
213 1 0.0343697 0.0603948 0.500102
227 1 0.122031 0.0661389 0.500413
160 1 0.12702 0.079676 0.501678
92 1 0.148861 0.0646268 0.50142
162 1 0.142077 0.077112 0.501385
231 1 0.156509 0.0780991 0.501586
167 1 0.163116 0.0660965 0.502222
237 1 0.172342 0.0796574 0.502957
166 1 0.176758 0.0629656 0.502412
238 1 0.184881 0.0739853 0.504463
169 1 0.190813 0.0620993 0.502911
168 1 0.198328 0.0755913 0.503016
241 1 0.211351 0.0732534 0.502706
171 1 0.217944 0.0616966 0.502282
243 1 0.22762 0.0731284 0.50391
176 1 0.237787 0.0610671 0.501682
174 1 0.241215 0.0714979 0.502635
247 1 0.256069 0.072384 0.501536
212 1 0.00704964 0.0902228 0.503626
143 1 0.0188729 0.0805822 0.502968
285 1 0.0325952 0.0875996 0.501924
218 1 0.0546375 0.0975072 0.499939
229 1 0.135205 0.0899384 0.500479
233 1 0.149735 0.0898561 0.502156
234 1 0.164396 0.0902279 0.503238
235 1 0.17907 0.0893016 0.503869
240 1 0.192069 0.088601 0.50246
172 1 0.204966 0.0864683 0.503079
310 1 0.211665 0.0999484 0.50334
242 1 0.216815 0.0860302 0.50333
313 1 0.22412 0.0970549 0.503619
317 1 0.240356 0.100534 0.503495
246 1 0.233098 0.0840424 0.505637
315 1 0.246174 0.0862224 0.50303
320 1 0.268282 0.097607 0.50126
248 1 0.255374 0.098356 0.502476
249 1 0.259749 0.0843128 0.502462
280 1 0.490734 0.0904357 0.501554
3079 1 0.00256432 0.100837 0.504835
353 1 0.0199212 0.10047 0.504993
281 1 0.0106739 0.113623 0.504928
284 1 0.0321267 0.102021 0.501718
354 1 0.0234173 0.115146 0.503678
286 1 0.0380457 0.114196 0.502788
290 1 0.0509974 0.111191 0.500328
296 1 0.09209 0.115338 0.500705
298 1 0.105662 0.114891 0.499967
300 1 0.12063 0.116778 0.500371
232 1 0.128189 0.103798 0.501305
369 1 0.135906 0.114775 0.500105
371 1 0.148587 0.11211 0.503722
299 1 0.143003 0.101284 0.501725
303 1 0.156701 0.100784 0.504154
230 1 0.160897 0.114816 0.505038
304 1 0.16955 0.102836 0.505167
305 1 0.174292 0.112115 0.505593
307 1 0.185259 0.100679 0.505126
308 1 0.190824 0.112667 0.503686
236 1 0.205803 0.113835 0.504629
309 1 0.19873 0.100761 0.503198
244 1 0.220527 0.112123 0.503564
312 1 0.232501 0.111069 0.502293
316 1 0.249303 0.113399 0.503189
318 1 0.261696 0.110961 0.503149
389 1 0.274742 0.11099 0.500249
346 1 0.469767 0.114649 0.499449
350 1 0.49466 0.114761 0.502242
348 1 0.482618 0.113538 0.500768
3219 1 0.00180901 0.127775 0.506065
352 1 0.0114262 0.138122 0.505481
351 1 0.0158467 0.127249 0.505271
423 1 0.024908 0.137608 0.505347
288 1 0.0304686 0.125632 0.50422
357 1 0.039839 0.138668 0.503682
358 1 0.0455196 0.12447 0.502227
362 1 0.0534162 0.138352 0.501805
360 1 0.0605481 0.124107 0.502063
291 1 0.0751238 0.126959 0.499396
363 1 0.0796804 0.138326 0.499929
294 1 0.0907337 0.129655 0.500993
365 1 0.103736 0.129723 0.500232
367 1 0.116029 0.13212 0.500563
368 1 0.129814 0.129746 0.49951
302 1 0.142466 0.126865 0.501217
375 1 0.168738 0.124637 0.505049
373 1 0.154384 0.125882 0.503999
306 1 0.184169 0.125405 0.504706
377 1 0.190511 0.137714 0.50443
376 1 0.1751 0.138139 0.505188
380 1 0.204448 0.136517 0.503172
381 1 0.211472 0.124975 0.504538
379 1 0.197438 0.125841 0.505005
383 1 0.231766 0.136688 0.502221
311 1 0.224645 0.12419 0.502076
382 1 0.21885 0.136456 0.503754
386 1 0.245689 0.136532 0.501854
314 1 0.240629 0.124505 0.502826
385 1 0.260086 0.136623 0.502115
388 1 0.270125 0.124076 0.500914
387 1 0.255139 0.124294 0.503362
390 1 0.27498 0.138102 0.501436
391 1 0.288764 0.140449 0.500784
487 1 0.465052 0.138584 0.50052
419 1 0.485489 0.125774 0.501238
420 1 0.494022 0.139171 0.500639
421 1 0.00361436 0.149612 0.504616
425 1 0.0182625 0.149557 0.504818
356 1 0.0316273 0.151306 0.503755
359 1 0.0455994 0.151378 0.502448
427 1 0.05816 0.151014 0.502287
364 1 0.0936422 0.142536 0.500787
435 1 0.108236 0.142245 0.501097
437 1 0.0994877 0.153573 0.500725
439 1 0.114444 0.154789 0.501547
372 1 0.135827 0.14266 0.501157
366 1 0.120908 0.143252 0.501228
374 1 0.147308 0.139114 0.502652
441 1 0.141098 0.155687 0.50115
515 1 0.167338 0.152342 0.504344
443 1 0.152032 0.151891 0.503798
445 1 0.16026 0.138868 0.504829
447 1 0.181475 0.1503 0.502123
448 1 0.193279 0.15113 0.503064
451 1 0.203572 0.150484 0.50415
453 1 0.216175 0.150416 0.503792
384 1 0.226982 0.149162 0.503392
455 1 0.240143 0.150719 0.502284
457 1 0.251449 0.150987 0.501698
459 1 0.265162 0.149872 0.501276
461 1 0.279086 0.151611 0.502758
462 1 0.289668 0.158127 0.500954
416 1 0.479173 0.139301 0.500573
489 1 0.473368 0.150982 0.501119
418 1 0.486855 0.151899 0.502932
491 1 0.00196698 0.174941 0.504241
422 1 0.0119032 0.16259 0.504681
493 1 0.0184144 0.174375 0.503469
424 1 0.0255899 0.162838 0.5024
495 1 0.0309129 0.175674 0.502226
426 1 0.0381834 0.162837 0.501817
497 1 0.0440888 0.174692 0.503319
428 1 0.052629 0.165111 0.502393
499 1 0.0548187 0.177991 0.501366
429 1 0.0631977 0.165193 0.500981
430 1 0.0691111 0.178242 0.500458
438 1 0.120099 0.167156 0.499376
444 1 0.160422 0.165365 0.501506
518 1 0.168627 0.178343 0.501148
517 1 0.182409 0.177045 0.502025
378 1 0.18919 0.16268 0.503697
446 1 0.174547 0.163952 0.502458
519 1 0.196569 0.175278 0.503234
450 1 0.202765 0.163399 0.504252
522 1 0.211481 0.176328 0.503632
449 1 0.215582 0.162492 0.504285
452 1 0.224357 0.176047 0.502267
454 1 0.230845 0.162469 0.503761
456 1 0.244221 0.164351 0.503768
523 1 0.236999 0.177055 0.502559
458 1 0.259864 0.163651 0.502503
527 1 0.25319 0.174634 0.501392
529 1 0.26799 0.173727 0.501223
460 1 0.275722 0.162808 0.50293
531 1 0.285852 0.172046 0.502133
463 1 0.30441 0.162829 0.500819
533 1 0.299931 0.173749 0.502854
464 1 0.318824 0.162109 0.499605
537 1 0.32732 0.175048 0.500889
535 1 0.313798 0.173858 0.501798
553 1 0.440152 0.175871 0.500669
551 1 0.426371 0.171974 0.499854
555 1 0.455119 0.177282 0.502029
486 1 0.461077 0.164974 0.501224
488 1 0.475397 0.161781 0.50399
557 1 0.469309 0.176119 0.503276
559 1 0.483582 0.173782 0.504803
490 1 0.494004 0.163738 0.504299
3360 1 0.00714825 0.187206 0.503837
494 1 0.0213652 0.187924 0.504354
496 1 0.0374226 0.188417 0.50288
567 1 0.0284994 0.199953 0.503168
498 1 0.0487899 0.190475 0.501095
501 1 0.0641926 0.192045 0.50015
510 1 0.131606 0.190049 0.499568
516 1 0.188646 0.188981 0.501666
585 1 0.173589 0.191447 0.500878
521 1 0.203769 0.188206 0.501901
591 1 0.217687 0.188163 0.501534
525 1 0.244391 0.186582 0.502003
524 1 0.231003 0.189977 0.502753
599 1 0.267575 0.19815 0.50299
528 1 0.25984 0.186371 0.502364
597 1 0.251592 0.197661 0.500986
601 1 0.283675 0.196785 0.503624
530 1 0.276274 0.184213 0.501112
532 1 0.291117 0.18595 0.502274
602 1 0.298392 0.199804 0.502218
534 1 0.305162 0.187904 0.502324
536 1 0.318699 0.188177 0.501359
603 1 0.314953 0.20235 0.501479
607 1 0.327076 0.197849 0.50137
609 1 0.34163 0.197721 0.500894
538 1 0.335767 0.187021 0.500211
540 1 0.347334 0.185519 0.499937
611 1 0.353864 0.197985 0.50046
615 1 0.381388 0.196384 0.50064
550 1 0.419155 0.184674 0.50094
621 1 0.424296 0.198884 0.501665
552 1 0.430981 0.184986 0.500879
623 1 0.437772 0.197949 0.500408
554 1 0.445675 0.185911 0.502143
627 1 0.453184 0.197852 0.502357
625 1 0.462046 0.189103 0.50232
556 1 0.476304 0.187135 0.504469
3363 1 0.497563 0.197471 0.50448
3292 1 0.49106 0.186342 0.505425
560 1 0.482021 0.198901 0.504906
492 1 -0.000757357 0.199636 0.504617
565 1 0.0135926 0.199875 0.505904
562 1 0.00690573 0.211551 0.507597
566 1 0.0371164 0.212939 0.503448
563 1 0.0204267 0.210673 0.506198
569 1 0.0421078 0.201767 0.501657
568 1 0.0507682 0.214038 0.500927
500 1 0.0570301 0.202836 0.500824
570 1 0.0645931 0.216512 0.500081
586 1 0.167587 0.202777 0.499553
590 1 0.175181 0.219507 0.499565
587 1 0.181934 0.202773 0.500519
592 1 0.188062 0.214885 0.500034
589 1 0.195958 0.20055 0.501619
661 1 0.201655 0.213945 0.502343
520 1 0.209436 0.199042 0.502384
593 1 0.221834 0.200553 0.501546
594 1 0.215625 0.21189 0.501852
595 1 0.231467 0.212047 0.501612
526 1 0.235999 0.202477 0.501259
596 1 0.248021 0.210404 0.500572
598 1 0.260698 0.208422 0.501211
600 1 0.275582 0.210746 0.501255
671 1 0.291004 0.209208 0.501607
604 1 0.306232 0.212131 0.500335
605 1 0.320592 0.211654 0.500689
608 1 0.333758 0.208791 0.501887
679 1 0.342651 0.219717 0.500503
612 1 0.363817 0.20952 0.501308
610 1 0.350211 0.209709 0.501808
614 1 0.375319 0.207823 0.500217
616 1 0.389599 0.209483 0.502142
618 1 0.403778 0.20921 0.502401
620 1 0.417594 0.211523 0.503709
619 1 0.410167 0.198606 0.500708
622 1 0.432948 0.209795 0.502561
624 1 0.446788 0.208879 0.503822
626 1 0.460378 0.209322 0.504742
558 1 0.469477 0.199861 0.50376
629 1 0.475893 0.210213 0.505029
3361 1 0.491161 0.209479 0.505195
3500 1 0.00113461 0.223536 0.505952
632 1 0.00786492 0.23585 0.504988
633 1 0.0163514 0.22464 0.506623
634 1 0.0232145 0.234749 0.5048
635 1 0.0369863 0.235838 0.503487
564 1 0.0315061 0.22571 0.506691
637 1 0.0447367 0.225538 0.502405
638 1 0.051397 0.239284 0.502147
709 1 0.0637896 0.239065 0.501885
659 1 0.195736 0.228134 0.499688
660 1 0.208052 0.223939 0.50073
663 1 0.223597 0.224625 0.500826
662 1 0.217395 0.2382 0.500146
664 1 0.233304 0.234987 0.500745
667 1 0.24853 0.234915 0.500371
665 1 0.241159 0.220211 0.500962
668 1 0.260722 0.236028 0.500559
669 1 0.256081 0.223145 0.501411
670 1 0.266985 0.222977 0.501284
672 1 0.283106 0.224079 0.501699
739 1 0.276583 0.236247 0.50029
674 1 0.306612 0.232451 0.500674
673 1 0.296647 0.220711 0.500861
675 1 0.314239 0.222986 0.500781
676 1 0.321384 0.235076 0.501171
606 1 0.329324 0.222201 0.502402
677 1 0.335577 0.233431 0.501799
681 1 0.356371 0.221629 0.499995
682 1 0.363239 0.235257 0.502681
680 1 0.348691 0.23262 0.501912
684 1 0.377888 0.235649 0.504258
685 1 0.385494 0.22253 0.501865
683 1 0.371926 0.222464 0.501945
686 1 0.391162 0.236996 0.50255
687 1 0.397298 0.222777 0.502253
688 1 0.404301 0.235889 0.503479
690 1 0.420031 0.235279 0.50302
689 1 0.412653 0.224384 0.503489
691 1 0.425879 0.223982 0.503356
693 1 0.440536 0.222707 0.504637
692 1 0.436475 0.234105 0.502767
694 1 0.44917 0.236098 0.503413
695 1 0.452087 0.223136 0.503097
697 1 0.46853 0.221935 0.505611
698 1 0.474194 0.234799 0.505329
696 1 0.462388 0.233387 0.505337
630 1 0.497835 0.220713 0.506909
628 1 0.483137 0.220906 0.506934
699 1 0.489983 0.234889 0.506181
701 1 0.000465137 0.248227 0.504689
705 1 0.0158564 0.247471 0.504426
702 1 0.00827157 0.258172 0.503355
706 1 0.0298634 0.248863 0.504443
703 1 0.0432389 0.25136 0.503893
707 1 0.0590411 0.253124 0.501887
711 1 0.0711021 0.251322 0.500757
733 1 0.227517 0.24928 0.50101
666 1 0.243588 0.248033 0.500259
734 1 0.236153 0.259696 0.49992
735 1 0.255858 0.247988 0.499269
738 1 0.264969 0.259187 0.499924
747 1 0.320038 0.260284 0.501178
745 1 0.312749 0.246658 0.500899
678 1 0.327094 0.248273 0.502228
749 1 0.341211 0.245693 0.50343
748 1 0.335176 0.261101 0.502932
751 1 0.354695 0.248556 0.503462
755 1 0.384632 0.249912 0.504332
753 1 0.368991 0.248672 0.503455
757 1 0.400053 0.250196 0.503513
759 1 0.412215 0.2487 0.504379
760 1 0.420288 0.259913 0.503269
761 1 0.430061 0.246735 0.502303
763 1 0.442923 0.248636 0.504255
765 1 0.458137 0.246343 0.505733
767 1 0.470598 0.248829 0.50549
3432 1 0.499384 0.248329 0.506805
700 1 0.483801 0.246455 0.505436
771 1 0.0001754 0.273179 0.505044
772 1 0.0154066 0.273163 0.504359
775 1 0.0282128 0.278725 0.505194
773 1 0.0235825 0.258863 0.50453
704 1 0.0370808 0.26488 0.504783
708 1 0.0445838 0.277578 0.50437
636 1 0.0513776 0.266199 0.503998
779 1 0.0588066 0.277698 0.502073
710 1 0.0660174 0.265627 0.50108
781 1 0.0719219 0.279341 0.501438
712 1 0.0789927 0.26433 0.50059
785 1 0.0853869 0.278854 0.500818
803 1 0.235731 0.271098 0.500165
736 1 0.249958 0.25944 0.500344
815 1 0.31757 0.273099 0.500717
817 1 0.330568 0.274502 0.501031
819 1 0.344364 0.274242 0.502913
750 1 0.349619 0.260462 0.504064
821 1 0.357039 0.274231 0.503654
752 1 0.364446 0.261205 0.503637
754 1 0.379382 0.263898 0.505412
823 1 0.369332 0.274789 0.504677
825 1 0.384982 0.27412 0.503663
756 1 0.390946 0.260875 0.503411
827 1 0.397372 0.272923 0.503289
758 1 0.406442 0.26324 0.504327
829 1 0.415743 0.274354 0.503461
762 1 0.435384 0.260822 0.503367
831 1 0.427449 0.272917 0.502375
833 1 0.442542 0.273145 0.502377
764 1 0.449984 0.260182 0.503183
835 1 0.454467 0.275045 0.50282
769 1 0.477363 0.261403 0.505135
766 1 0.462059 0.260864 0.505054
768 1 0.46897 0.272345 0.50532
3501 1 0.49223 0.261159 0.505249
839 1 0.484837 0.274613 0.505391
845 1 0.00443513 0.28767 0.505153
843 1 0.0119787 0.300849 0.504693
774 1 0.0193465 0.288897 0.505008
776 1 0.035402 0.28904 0.503625
844 1 0.0264453 0.300964 0.504427
847 1 0.0499843 0.288861 0.503022
777 1 0.0412752 0.300125 0.503767
778 1 0.0630919 0.289647 0.5016
782 1 0.0775811 0.292218 0.501702
784 1 0.0935725 0.288452 0.500607
786 1 0.109335 0.290338 0.499947
792 1 0.148414 0.288049 0.499498
865 1 0.161843 0.293074 0.498668
797 1 0.19183 0.286848 0.500326
802 1 0.227579 0.281514 0.500069
873 1 0.228995 0.296454 0.500334
875 1 0.244463 0.297413 0.500683
816 1 0.322945 0.287539 0.49969
818 1 0.33639 0.286367 0.501307
889 1 0.3416 0.299772 0.500933
820 1 0.34924 0.285868 0.501097
822 1 0.361759 0.287392 0.503661
891 1 0.357055 0.300714 0.501322
824 1 0.377663 0.2868 0.503334
895 1 0.384042 0.299474 0.500666
897 1 0.399244 0.30017 0.501558
826 1 0.392446 0.285711 0.502793
828 1 0.406152 0.284728 0.503212
899 1 0.411832 0.296704 0.501682
830 1 0.418712 0.285728 0.502883
832 1 0.432719 0.286817 0.501517
901 1 0.425642 0.298734 0.50011
903 1 0.439915 0.299566 0.500696
834 1 0.447885 0.285968 0.500898
905 1 0.454601 0.298618 0.501973
836 1 0.462927 0.286737 0.501584
837 1 0.476343 0.286211 0.503365
907 1 0.469591 0.29855 0.502351
3641 1 0.497081 0.296629 0.505406
838 1 0.492252 0.285494 0.503725
909 1 0.485384 0.29622 0.50216
842 1 0.00558287 0.312095 0.505285
913 1 0.0204114 0.311022 0.504054
846 1 0.0339725 0.309849 0.502818
849 1 0.0557074 0.302535 0.502016
851 1 0.045242 0.313705 0.504016
780 1 0.068027 0.300649 0.50139
850 1 0.0628645 0.315385 0.502961
852 1 0.0772303 0.317879 0.502534
853 1 0.0867632 0.300033 0.502485
854 1 0.0935392 0.314808 0.502654
927 1 0.106082 0.315249 0.500911
855 1 0.0994341 0.301912 0.501849
859 1 0.134947 0.311366 0.50069
858 1 0.120312 0.314114 0.501452
790 1 0.123418 0.300411 0.500434
788 1 0.139138 0.301429 0.500439
863 1 0.151441 0.302708 0.500789
866 1 0.174559 0.300988 0.500429
864 1 0.163854 0.312035 0.499987
937 1 0.177845 0.313284 0.500558
868 1 0.193027 0.31149 0.501537
870 1 0.206561 0.314243 0.50172
872 1 0.222592 0.310738 0.501893
874 1 0.236121 0.309524 0.502483
876 1 0.251936 0.308044 0.499959
887 1 0.329857 0.30076 0.499885
892 1 0.362031 0.313212 0.500836
893 1 0.369255 0.2992 0.501029
894 1 0.375803 0.313395 0.500414
896 1 0.390078 0.309883 0.500588
904 1 0.449033 0.309227 0.499241
906 1 0.464917 0.310211 0.502594
908 1 0.479133 0.310248 0.50296
910 1 0.494748 0.31156 0.504512
912 1 0.0130852 0.323733 0.503771
983 1 0.00752704 0.336352 0.503063
914 1 0.021301 0.338619 0.501183
915 1 0.0271589 0.323199 0.502612
916 1 0.0341958 0.337735 0.503133
848 1 0.0405919 0.325915 0.503219
917 1 0.046121 0.340383 0.502771
919 1 0.0528363 0.327644 0.503207
920 1 0.0603565 0.340212 0.502024
921 1 0.0673347 0.326595 0.502466
922 1 0.0773787 0.337838 0.500254
923 1 0.0857929 0.326858 0.50045
925 1 0.0990139 0.327456 0.500326
928 1 0.113557 0.325895 0.501055
926 1 0.104646 0.339535 0.500787
929 1 0.128781 0.325929 0.50077
1001 1 0.120041 0.338679 0.500359
933 1 0.148494 0.339003 0.499045
935 1 0.170611 0.325632 0.499184
934 1 0.160723 0.337335 0.499924
938 1 0.185344 0.326826 0.500259
1007 1 0.190696 0.338085 0.50003
939 1 0.198726 0.325699 0.50123
940 1 0.20453 0.336389 0.50143
941 1 0.214359 0.324775 0.502828
942 1 0.222178 0.335942 0.503408
943 1 0.230502 0.322734 0.502142
944 1 0.235536 0.332664 0.502442
945 1 0.245415 0.322029 0.501597
948 1 0.264337 0.336665 0.501323
946 1 0.251147 0.335431 0.502052
947 1 0.260449 0.322514 0.500177
963 1 0.371341 0.324974 0.50142
962 1 0.365587 0.338664 0.500813
967 1 0.397787 0.32294 0.499752
972 1 0.436635 0.334708 0.500147
973 1 0.443862 0.322796 0.500342
975 1 0.457212 0.323048 0.502103
974 1 0.449457 0.336034 0.502092
976 1 0.465258 0.337084 0.504727
977 1 0.473562 0.323731 0.505154
978 1 0.478326 0.337948 0.504604
979 1 0.486818 0.32292 0.503801
980 1 0.493539 0.333799 0.504471
985 1 0.0131394 0.350733 0.500967
986 1 0.0278024 0.355786 0.500048
987 1 0.0392815 0.350337 0.502277
918 1 0.0528171 0.350598 0.501357
991 1 0.0907048 0.340247 0.500905
995 1 0.0827455 0.35208 0.499343
994 1 0.11278 0.35123 0.499901
999 1 0.126251 0.351528 0.499996
1004 1 0.168979 0.349992 0.501253
1077 1 0.184759 0.353494 0.499991
1011 1 0.196933 0.349254 0.500546
1010 1 0.206928 0.360504 0.500306
1014 1 0.230106 0.346558 0.503965
1013 1 0.211063 0.346883 0.503214
1012 1 0.220382 0.356719 0.502264
1015 1 0.24369 0.347501 0.502329
1017 1 0.257176 0.34909 0.502499
1018 1 0.26532 0.358982 0.501872
1029 1 0.343249 0.350586 0.500411
1031 1 0.358927 0.352977 0.500145
1033 1 0.372691 0.352176 0.502156
1037 1 0.399197 0.348137 0.500143
1038 1 0.408601 0.359116 0.501689
1039 1 0.413916 0.348231 0.501348
1041 1 0.428953 0.347044 0.500679
1043 1 0.443645 0.34782 0.502299
1045 1 0.457813 0.349312 0.503673
1044 1 0.449523 0.359172 0.502482
1047 1 0.471593 0.349995 0.504992
3781 1 0.497678 0.345262 0.505869
1049 1 0.485932 0.349431 0.504995
988 1 0.047448 0.364206 0.500267
932 1 0.133425 0.363119 0.500248
1071 1 0.139047 0.374695 0.499922
1006 1 0.169896 0.375607 0.499962
1083 1 0.22621 0.371549 0.502685
1081 1 0.212865 0.370364 0.500751
1086 1 0.241146 0.373233 0.502528
1016 1 0.249882 0.361616 0.502202
1085 1 0.235562 0.359581 0.502804
1087 1 0.254177 0.373786 0.500901
1099 1 0.3414 0.373525 0.499774
1101 1 0.355844 0.374366 0.500229
1030 1 0.350198 0.36396 0.501765
1032 1 0.364465 0.366025 0.502248
1034 1 0.378176 0.363185 0.501248
1105 1 0.38289 0.37816 0.500686
1103 1 0.371291 0.375109 0.501371
1107 1 0.397955 0.376433 0.500688
1040 1 0.423788 0.361113 0.50083
1109 1 0.412015 0.370587 0.500985
1042 1 0.436678 0.360366 0.501545
1111 1 0.42904 0.372371 0.501603
1113 1 0.443752 0.372478 0.502987
1115 1 0.456894 0.372854 0.504297
1046 1 0.461546 0.36055 0.503372
1048 1 0.476959 0.361106 0.504161
1117 1 0.472879 0.372112 0.506148
3851 1 0.498627 0.374597 0.50561
1119 1 0.485397 0.376079 0.506462
1050 1 0.494299 0.360543 0.506914
1082 1 0.2167 0.386637 0.502096
1157 1 0.247389 0.387848 0.500052
1158 1 0.256021 0.397735 0.500481
1104 1 0.373785 0.389251 0.500198
1108 1 0.405229 0.387523 0.500989
1110 1 0.420554 0.380481 0.500616
1179 1 0.411613 0.398624 0.502233
1112 1 0.434902 0.384454 0.501695
1183 1 0.440741 0.396393 0.502391
1181 1 0.425629 0.395592 0.501239
1185 1 0.457314 0.400477 0.504906
1114 1 0.451107 0.38592 0.503708
1187 1 0.472252 0.398007 0.506163
1116 1 0.465282 0.385136 0.504567
1118 1 0.479317 0.386362 0.506169
1120 1 0.493061 0.38671 0.505694
1189 1 0.485823 0.400155 0.504807
1227 1 0.262452 0.411622 0.500824
1170 1 0.346682 0.4113 0.49851
1174 1 0.374393 0.41196 0.499979
1177 1 0.397333 0.401475 0.500942
1176 1 0.389274 0.415235 0.501702
1178 1 0.402945 0.414757 0.502482
1180 1 0.417299 0.409729 0.502264
1182 1 0.430403 0.409934 0.502815
1184 1 0.448738 0.410331 0.504324
1186 1 0.46471 0.412572 0.503379
1188 1 0.477609 0.41277 0.50538
1190 1 0.495046 0.412517 0.505143
1221 1 0.221623 0.437754 0.499504
1223 1 0.229089 0.424437 0.499507
1222 1 0.236372 0.436698 0.501627
1225 1 0.244475 0.422815 0.500643
1228 1 0.264313 0.435222 0.500786
1224 1 0.251446 0.435678 0.501544
1226 1 0.258641 0.422748 0.500994
1237 1 0.324932 0.426467 0.500311
1238 1 0.335019 0.439082 0.501633
1242 1 0.362907 0.438388 0.498676
1245 1 0.381599 0.424327 0.501678
1247 1 0.396307 0.425762 0.502068
1246 1 0.390561 0.436137 0.501156
1248 1 0.405852 0.439107 0.501817
1249 1 0.410295 0.425434 0.502745
1250 1 0.420337 0.434985 0.501596
1253 1 0.441318 0.423033 0.503215
1252 1 0.435634 0.436062 0.50111
1251 1 0.424042 0.423406 0.502392
1254 1 0.449381 0.435349 0.502086
1255 1 0.457821 0.424561 0.50363
1256 1 0.465752 0.436924 0.50405
1258 1 0.478872 0.437681 0.504642
1257 1 0.471753 0.426658 0.506074
1260 1 0.494489 0.437097 0.504434
1259 1 0.485922 0.424153 0.505471
3991 1 0.500482 0.425291 0.505321
1261 1 0.000820305 0.453318 0.500845
1295 1 0.244957 0.449834 0.502097
1297 1 0.25742 0.452131 0.499799
1303 1 0.30153 0.449568 0.500738
1236 1 0.319901 0.439847 0.500957
1305 1 0.314282 0.451499 0.500935
1307 1 0.329176 0.45007 0.50042
1309 1 0.342301 0.449543 0.500385
1317 1 0.397326 0.449719 0.500599
1315 1 0.385006 0.449438 0.499339
1321 1 0.427043 0.448489 0.499902
1325 1 0.459071 0.448439 0.501603
1327 1 0.473555 0.449739 0.503475
1330 1 0.49532 0.459206 0.503732
1329 1 0.488886 0.448917 0.503664
1331 1 0.00162809 0.47618 0.50068
1365 1 0.24494 0.47856 0.500082
1294 1 0.238225 0.463164 0.500648
1367 1 0.258793 0.477177 0.50058
1296 1 0.250912 0.464295 0.500021
1369 1 0.271044 0.478354 0.500233
1300 1 0.278446 0.460105 0.500457
1302 1 0.294845 0.462152 0.501396
1304 1 0.309716 0.463723 0.499586
1377 1 0.32726 0.475356 0.500664
1324 1 0.452487 0.460335 0.500036
1395 1 0.457682 0.472877 0.500893
1397 1 0.471888 0.472845 0.502965
1326 1 0.465517 0.462183 0.502446
1328 1 0.480978 0.463073 0.503447
1399 1 0.488289 0.472212 0.503208
1332 1 0.00830011 0.488897 0.500003
1396 1 0.465993 0.485299 0.50014
1467 1 0.47458 0.497241 0.500104
1398 1 0.481389 0.483882 0.502051
1400 1 0.494768 0.485274 0.50146
1787 1 0.254702 0.62217 0.488381
1857 1 0.257374 0.647579 0.487438
1859 1 0.273708 0.646118 0.488541
2001 1 0.286491 0.699344 0.489439
2006 1 0.30872 0.684243 0.487625
1936 1 0.322939 0.68816 0.489174
2007 1 0.316134 0.698949 0.487758
2004 1 0.329399 0.700044 0.487382
2073 1 0.321774 0.712636 0.48782
2009 1 0.336272 0.711874 0.488324
2014 1 0.365706 0.71133 0.487684
2013 1 0.383149 0.71365 0.488545
2075 1 0.306962 0.73605 0.488456
2002 1 0.311911 0.725235 0.487719
2071 1 0.320754 0.735282 0.487112
2077 1 0.329328 0.726698 0.486223
2079 1 0.344248 0.722373 0.4862
2078 1 0.336085 0.736307 0.485693
2080 1 0.351369 0.73615 0.4871
2081 1 0.358282 0.723205 0.486448
2083 1 0.373532 0.725848 0.488104
2082 1 0.366018 0.736658 0.488771
2156 1 0.380413 0.738597 0.487081
2084 1 0.393836 0.738766 0.48744
2085 1 0.400979 0.727139 0.487243
2015 1 0.388038 0.724869 0.486955
2145 1 0.31347 0.748199 0.48885
2076 1 0.326501 0.74708 0.486489
2147 1 0.342502 0.747559 0.487447
2151 1 0.356907 0.749017 0.487429
2153 1 0.368696 0.749201 0.486327
2157 1 0.402107 0.751652 0.488378
2155 1 0.389471 0.750317 0.487746
2148 1 0.320295 0.761075 0.487459
2217 1 0.333819 0.760848 0.486956
2287 1 0.327093 0.77315 0.488374
2285 1 0.339211 0.7743 0.488735
2219 1 0.362644 0.763349 0.487341
2152 1 0.369109 0.775211 0.488336
2154 1 0.380015 0.762065 0.487398
2225 1 0.39417 0.764148 0.486952
2227 1 0.400517 0.777641 0.488645
2158 1 0.408249 0.765264 0.488909
1408 1 0.0506854 0.514644 0.500648
1407 1 0.0437263 0.503046 0.498812
1410 1 0.0656677 0.514174 0.499506
1409 1 0.0586972 0.501835 0.498597
1411 1 0.071261 0.5015 0.49934
1412 1 0.080324 0.514165 0.498186
1414 1 0.0933405 0.515542 0.498479
1413 1 0.0861207 0.500319 0.498357
1416 1 0.106715 0.517457 0.496197
1415 1 0.0991287 0.503472 0.497908
1417 1 0.11356 0.503221 0.496937
1418 1 0.122143 0.515482 0.49648
1419 1 0.128717 0.501718 0.499027
1420 1 0.137303 0.515154 0.498524
1422 1 0.150856 0.514589 0.496511
1421 1 0.143542 0.500981 0.497989
1423 1 0.156734 0.500667 0.496881
1424 1 0.16458 0.512792 0.49822
1426 1 0.17907 0.512495 0.499497
1429 1 0.201344 0.498846 0.498527
1428 1 0.19509 0.513427 0.498849
1430 1 0.207652 0.513742 0.496905
1432 1 0.221249 0.514973 0.495916
1431 1 0.214812 0.500677 0.497647
1433 1 0.229778 0.501878 0.495734
1434 1 0.236348 0.516181 0.495162
1435 1 0.243152 0.503359 0.49685
1438 1 0.248809 0.518235 0.49636
1440 1 0.262856 0.514211 0.496525
1437 1 0.255782 0.503625 0.495924
1442 1 0.278099 0.51118 0.495675
1439 1 0.269469 0.499834 0.497084
1441 1 0.28424 0.501656 0.495365
1513 1 0.290892 0.512604 0.493149
1444 1 0.305963 0.513077 0.494171
1443 1 0.296801 0.499921 0.493997
1446 1 0.3223 0.514585 0.495202
1445 1 0.311822 0.501365 0.49581
1448 1 0.33535 0.514824 0.494784
1450 1 0.351635 0.514576 0.496522
1452 1 0.363722 0.51238 0.496154
1451 1 0.354778 0.500075 0.497038
1455 1 0.382564 0.498483 0.496284
1454 1 0.377435 0.51214 0.496592
1456 1 0.392928 0.511853 0.49624
1458 1 0.407148 0.511543 0.495881
1460 1 0.422925 0.511713 0.497291
1462 1 0.434736 0.509729 0.498012
1464 1 0.453087 0.508101 0.497382
1466 1 0.468051 0.509062 0.498925
1468 1 0.480027 0.512159 0.49787
1472 1 0.00814429 0.536647 0.498182
1473 1 0.0145956 0.525226 0.498118
1475 1 0.031949 0.527786 0.499758
1474 1 0.0224221 0.536585 0.499957
1478 1 0.0544782 0.539484 0.49829
1479 1 0.0585137 0.524954 0.499851
1480 1 0.0666636 0.54035 0.497429
1481 1 0.0708832 0.526012 0.497805
1482 1 0.0797653 0.53843 0.497537
1483 1 0.0853383 0.526916 0.497283
1485 1 0.100479 0.530268 0.496457
1487 1 0.115339 0.529389 0.497675
1489 1 0.129734 0.527757 0.497782
1490 1 0.135519 0.540222 0.498526
1491 1 0.143951 0.528675 0.498148
1492 1 0.151412 0.539643 0.498717
1493 1 0.157899 0.526675 0.499315
1494 1 0.167051 0.53781 0.500149
1495 1 0.17156 0.524968 0.498996
1497 1 0.183801 0.525725 0.500001
1499 1 0.201339 0.5258 0.498482
1500 1 0.206461 0.538643 0.5008
1501 1 0.21379 0.527133 0.497468
1503 1 0.228156 0.528444 0.496984
1502 1 0.22068 0.540448 0.499669
1505 1 0.236957 0.541117 0.497265
1436 1 0.241435 0.527615 0.496217
1506 1 0.251674 0.539006 0.495598
1508 1 0.26589 0.535085 0.49713
1507 1 0.25819 0.52537 0.496165
1510 1 0.279844 0.537179 0.4945
1511 1 0.286228 0.525124 0.494215
1509 1 0.273148 0.523268 0.495595
1512 1 0.299239 0.526472 0.492225
1581 1 0.291839 0.540376 0.494067
1514 1 0.30674 0.539752 0.493497
1515 1 0.312581 0.525429 0.493296
1516 1 0.32021 0.538096 0.493096
1517 1 0.328063 0.525935 0.494843
1518 1 0.335254 0.537536 0.493367
1519 1 0.342521 0.524939 0.49515
1521 1 0.357635 0.524489 0.495965
1520 1 0.348947 0.535617 0.49394
1522 1 0.362637 0.538794 0.495688
1523 1 0.371972 0.525651 0.495585
1525 1 0.384383 0.524215 0.495675
1526 1 0.393217 0.539039 0.495082
1527 1 0.401339 0.526147 0.496239
1529 1 0.415548 0.523952 0.497294
1528 1 0.410613 0.537578 0.497334
1530 1 0.423718 0.535783 0.497251
1531 1 0.432512 0.523092 0.49741
1532 1 0.438384 0.535936 0.496807
1533 1 0.445009 0.521036 0.497017
1535 1 0.458932 0.522801 0.498166
1534 1 0.45152 0.536211 0.49782
1537 1 0.472571 0.524182 0.496591
1536 1 0.46473 0.536897 0.496561
1539 1 0.478198 0.538143 0.497454
4202 1 0.500738 0.524293 0.49894
4271 1 0.487288 0.524961 0.497994
1609 1 0.491565 0.539347 0.496699
1543 1 0.0132722 0.55049 0.50056
1476 1 0.0379649 0.539771 0.500468
1547 1 0.0456552 0.551002 0.499522
1549 1 0.0591963 0.55171 0.498412
1551 1 0.0745365 0.552731 0.498618
1484 1 0.0932084 0.541493 0.496637
1553 1 0.0868176 0.551815 0.498351
1486 1 0.106801 0.542221 0.496661
1555 1 0.0998915 0.555279 0.497383
1557 1 0.113733 0.553891 0.497468
1488 1 0.12164 0.540899 0.497341
1559 1 0.12899 0.553198 0.498597
1561 1 0.144063 0.550726 0.498942
1563 1 0.158189 0.551029 0.499932
1565 1 0.173072 0.549316 0.500671
1573 1 0.228882 0.55192 0.49726
1571 1 0.214827 0.551588 0.498179
1504 1 0.244939 0.551553 0.49643
1577 1 0.257334 0.549615 0.496038
1579 1 0.271504 0.549597 0.495598
1580 1 0.282501 0.551373 0.495055
1583 1 0.298609 0.55287 0.494096
1585 1 0.314957 0.552459 0.493742
1587 1 0.330432 0.55261 0.49367
1589 1 0.34293 0.549493 0.493439
1591 1 0.355531 0.550341 0.494619
1524 1 0.37843 0.539397 0.495852
1593 1 0.369436 0.550044 0.494834
1595 1 0.387457 0.550067 0.495476
1597 1 0.402383 0.549308 0.495364
1599 1 0.417737 0.54968 0.496576
1601 1 0.430465 0.549891 0.494947
1603 1 0.444559 0.547472 0.496004
1605 1 0.457673 0.550853 0.495983
1538 1 0.470635 0.550542 0.498201
1610 1 0.498754 0.555202 0.496042
1540 1 0.485265 0.552346 0.495934
1613 1 0.0141603 0.574669 0.498947
1542 1 0.00761767 0.563157 0.498335
1611 1 0.000403265 0.576605 0.49786
1544 1 0.0219055 0.56202 0.500376
1615 1 0.0264202 0.573728 0.500017
1548 1 0.0505052 0.563441 0.498784
1617 1 0.0437592 0.575277 0.498934
1619 1 0.0557999 0.577284 0.498542
1550 1 0.0645979 0.564526 0.498908
1621 1 0.0701012 0.576963 0.49896
1552 1 0.07822 0.564982 0.497782
1623 1 0.0862456 0.57682 0.497393
1554 1 0.0939206 0.564901 0.497772
1625 1 0.0998301 0.579601 0.49847
1556 1 0.108212 0.567583 0.49821
1627 1 0.117902 0.576213 0.49877
1558 1 0.123997 0.564786 0.497649
1629 1 0.130963 0.578282 0.500556
1560 1 0.135655 0.564305 0.500001
1633 1 0.158228 0.577283 0.499999
1635 1 0.172152 0.577007 0.50039
1637 1 0.18462 0.574376 0.500139
1641 1 0.214319 0.577646 0.49921
1572 1 0.221617 0.564647 0.497415
1643 1 0.228692 0.574968 0.495694
1574 1 0.23586 0.564057 0.4959
1645 1 0.242541 0.574129 0.493438
1575 1 0.250637 0.562996 0.495698
1647 1 0.257037 0.572407 0.492565
1576 1 0.263486 0.561394 0.49378
1649 1 0.267038 0.578197 0.493816
1578 1 0.2759 0.564777 0.494726
1651 1 0.283154 0.5785 0.494092
1582 1 0.28974 0.565424 0.495387
1653 1 0.297167 0.575378 0.493798
1584 1 0.308884 0.564072 0.493793
1586 1 0.322209 0.562369 0.493907
1655 1 0.312921 0.574144 0.494244
1657 1 0.327589 0.573458 0.49553
1588 1 0.336965 0.563731 0.494323
1659 1 0.344646 0.575009 0.496801
1590 1 0.348517 0.564158 0.494113
1661 1 0.357637 0.575949 0.496161
1592 1 0.363039 0.561638 0.494591
1594 1 0.379794 0.559791 0.493422
1663 1 0.371497 0.572987 0.495077
1665 1 0.385207 0.573203 0.49469
1596 1 0.393976 0.562264 0.494363
1667 1 0.399086 0.573804 0.493379
1598 1 0.407019 0.559864 0.49413
1669 1 0.412922 0.573418 0.493249
1600 1 0.424001 0.562862 0.495657
1602 1 0.437417 0.5617 0.494628
1671 1 0.429314 0.574658 0.495258
1604 1 0.449776 0.562957 0.495515
1673 1 0.443446 0.574514 0.495572
1675 1 0.456863 0.576626 0.496078
1606 1 0.464526 0.563357 0.495914
1677 1 0.471149 0.577499 0.494992
1608 1 0.478897 0.564984 0.496331
1607 1 0.493236 0.565745 0.494291
1612 1 0.00730322 0.58769 0.497049
1614 1 0.0209277 0.587317 0.49749
1616 1 0.0341131 0.587596 0.497842
1618 1 0.049687 0.589141 0.497199
1620 1 0.0633295 0.589091 0.497853
1622 1 0.0780909 0.588645 0.498196
1624 1 0.0922826 0.590415 0.498188
1626 1 0.110463 0.589768 0.499082
1628 1 0.124065 0.591533 0.498732
1632 1 0.149761 0.588753 0.499726
1636 1 0.18015 0.58947 0.499507
1640 1 0.209991 0.590991 0.499428
1642 1 0.222111 0.58807 0.495492
1644 1 0.233547 0.58777 0.493361
1715 1 0.241226 0.598009 0.493098
1646 1 0.250094 0.585292 0.492525
1648 1 0.264235 0.595453 0.492083
1717 1 0.253174 0.59897 0.492155
1650 1 0.275967 0.589225 0.494713
1721 1 0.285553 0.60051 0.493108
1652 1 0.290806 0.588015 0.4953
1723 1 0.298852 0.599947 0.492251
1654 1 0.306753 0.588684 0.493955
1656 1 0.322705 0.585393 0.493961
1725 1 0.314596 0.598089 0.495849
1658 1 0.334781 0.587218 0.49516
1729 1 0.344174 0.60024 0.496556
1727 1 0.329222 0.599259 0.495229
1660 1 0.35006 0.587197 0.496848
1662 1 0.363952 0.588867 0.495101
1664 1 0.377272 0.585024 0.495377
1666 1 0.392866 0.587912 0.493774
1668 1 0.40835 0.587808 0.494056
1670 1 0.421628 0.585682 0.493509
1672 1 0.435534 0.587123 0.494988
1741 1 0.427564 0.598181 0.493379
1674 1 0.44986 0.588403 0.495334
1676 1 0.464082 0.590937 0.496422
1678 1 0.479052 0.591847 0.496189
1679 1 0.486753 0.579421 0.493792
4481 1 0.49496 0.592112 0.49564
1682 1 0.00680545 0.614973 0.497444
1683 1 0.0126832 0.601412 0.497167
1684 1 0.0208756 0.614381 0.496823
1685 1 0.0266536 0.600791 0.497116
1686 1 0.0349287 0.613641 0.496401
1687 1 0.0411217 0.600372 0.49611
1688 1 0.0501805 0.613528 0.495709
1689 1 0.056849 0.60127 0.495944
1691 1 0.0723119 0.601032 0.49642
1690 1 0.0655088 0.613798 0.495044
1693 1 0.0844206 0.600766 0.49706
1692 1 0.0796674 0.613896 0.497081
1694 1 0.0950022 0.613387 0.49672
1695 1 0.101999 0.602602 0.49726
1696 1 0.107965 0.614363 0.495607
1697 1 0.118422 0.601897 0.499413
1699 1 0.133376 0.603457 0.499813
1698 1 0.121468 0.615916 0.497919
1700 1 0.136454 0.615889 0.499531
1701 1 0.146924 0.602728 0.499738
1704 1 0.164925 0.614658 0.499419
1706 1 0.180045 0.61172 0.498071
1707 1 0.189578 0.60177 0.498927
1709 1 0.202322 0.601636 0.49775
1708 1 0.194788 0.615392 0.496911
1710 1 0.207514 0.614546 0.496411
1711 1 0.213753 0.601032 0.496223
1713 1 0.225229 0.601088 0.493305
1712 1 0.220191 0.613345 0.493836
1714 1 0.234958 0.609512 0.492127
1716 1 0.247235 0.61107 0.491033
1718 1 0.26104 0.610304 0.491529
1719 1 0.271447 0.60362 0.492982
1720 1 0.280415 0.614098 0.492975
1722 1 0.293365 0.612122 0.492447
1724 1 0.307707 0.608963 0.493346
1726 1 0.321286 0.61095 0.495003
1728 1 0.337482 0.610599 0.495507
1731 1 0.356424 0.601029 0.496447
1730 1 0.351392 0.614451 0.496786
1732 1 0.364482 0.613892 0.496762
1733 1 0.370658 0.601793 0.495539
1734 1 0.37875 0.614218 0.494841
1735 1 0.385451 0.601718 0.493988
1737 1 0.400568 0.600881 0.494737
1736 1 0.392967 0.615153 0.493246
1739 1 0.413842 0.600438 0.494794
1738 1 0.405635 0.613084 0.495208
1740 1 0.420051 0.613415 0.495461
1743 1 0.442468 0.599749 0.495808
1742 1 0.43236 0.612881 0.495124
1745 1 0.456585 0.603105 0.495965
1744 1 0.44668 0.613186 0.496019
1746 1 0.466134 0.615845 0.495757
1747 1 0.471535 0.602091 0.497179
1748 1 0.478235 0.614807 0.497538
1749 1 0.48523 0.603985 0.496768
1750 1 0.493871 0.613655 0.496828
1753 1 0.0142697 0.626459 0.497615
1752 1 0.00658008 0.637902 0.499739
1755 1 0.0270877 0.625693 0.496667
1754 1 0.0224754 0.637985 0.499978
1756 1 0.0380618 0.637545 0.497395
1757 1 0.0423011 0.625471 0.495457
1758 1 0.0574215 0.627829 0.496067
1761 1 0.0702398 0.626551 0.495612
1763 1 0.0853182 0.625638 0.495652
1764 1 0.0931736 0.640706 0.495421
1765 1 0.0996898 0.627435 0.494769
1767 1 0.11435 0.628866 0.497243
1769 1 0.129308 0.627398 0.498483
1771 1 0.145855 0.627561 0.499014
1772 1 0.151104 0.638453 0.498844
1774 1 0.167385 0.637173 0.498689
1773 1 0.158722 0.62608 0.499351
1775 1 0.174663 0.624204 0.498411
1777 1 0.187243 0.627148 0.497368
1776 1 0.180869 0.63832 0.496104
1779 1 0.201767 0.626286 0.494196
1780 1 0.208543 0.638122 0.492574
1778 1 0.194067 0.638057 0.49474
1781 1 0.213324 0.626368 0.493464
1782 1 0.22282 0.637407 0.492091
1783 1 0.228036 0.62491 0.49146
1785 1 0.240221 0.622359 0.490357
1784 1 0.236897 0.638359 0.491909
1788 1 0.263462 0.633979 0.488639
1786 1 0.24923 0.635025 0.488921
1789 1 0.266357 0.620917 0.490747
1790 1 0.278206 0.633309 0.490672
1791 1 0.290671 0.626135 0.492073
1793 1 0.303826 0.621248 0.493679
1792 1 0.296412 0.63658 0.491086
1795 1 0.315323 0.624587 0.495093
1794 1 0.308916 0.634446 0.493611
1796 1 0.322796 0.637737 0.494117
1797 1 0.329382 0.623597 0.49582
1798 1 0.336805 0.637477 0.495335
1799 1 0.345158 0.626294 0.495806
1801 1 0.35857 0.627132 0.497163
1802 1 0.364929 0.64092 0.497556
1803 1 0.373418 0.628387 0.49626
1804 1 0.378952 0.640619 0.496629
1805 1 0.386433 0.629913 0.495391
1807 1 0.40162 0.627469 0.494311
1806 1 0.394771 0.640394 0.494465
1809 1 0.414729 0.624618 0.494016
1810 1 0.420234 0.637687 0.495009
1811 1 0.426998 0.625713 0.493382
1812 1 0.434517 0.6393 0.494004
1813 1 0.440713 0.625243 0.493712
1815 1 0.455566 0.624298 0.496448
1814 1 0.448066 0.636133 0.494392
1816 1 0.461213 0.637174 0.495307
1817 1 0.47081 0.625944 0.495824
1818 1 0.47792 0.638386 0.494286
1819 1 0.484361 0.625953 0.495786
4621 1 0.490484 0.638884 0.494863
1820 1 0.50048 0.627715 0.495177
1825 1 0.0330422 0.649038 0.498684
1829 1 0.0494655 0.641218 0.496805
1827 1 0.0449572 0.652273 0.496628
1830 1 0.0581857 0.653843 0.495995
1759 1 0.0648113 0.640679 0.495749
1760 1 0.0728339 0.651949 0.496745
1762 1 0.0799402 0.637839 0.4959
1831 1 0.0855321 0.652212 0.495857
1766 1 0.108425 0.644379 0.495771
1835 1 0.0983997 0.65165 0.497184
1839 1 0.115951 0.654421 0.496385
1768 1 0.120725 0.638937 0.495968
1840 1 0.127949 0.652724 0.496526
1770 1 0.137536 0.640719 0.49702
1841 1 0.144129 0.653729 0.497102
1843 1 0.157262 0.651763 0.496705
1845 1 0.172902 0.650019 0.496271
1847 1 0.185811 0.651794 0.49453
1849 1 0.200055 0.650438 0.493939
1851 1 0.214506 0.649385 0.493771
1853 1 0.229093 0.650536 0.491451
1855 1 0.243957 0.650172 0.489355
1858 1 0.264919 0.657682 0.489237
1861 1 0.286627 0.645528 0.490407
1860 1 0.278884 0.658095 0.490662
1862 1 0.294295 0.659258 0.48999
1863 1 0.301882 0.647023 0.49186
1865 1 0.316048 0.649008 0.492306
1867 1 0.332523 0.649974 0.493677
1869 1 0.343883 0.65365 0.497343
1800 1 0.350789 0.640503 0.496833
1871 1 0.358306 0.652002 0.495683
1873 1 0.372219 0.653206 0.496468
1875 1 0.386856 0.651322 0.494477
1877 1 0.401929 0.651465 0.494544
1808 1 0.409147 0.639068 0.493656
1879 1 0.415539 0.651193 0.494975
1881 1 0.429429 0.653742 0.49423
1883 1 0.44518 0.650398 0.49487
1885 1 0.460323 0.64875 0.494243
1887 1 0.473726 0.648567 0.496597
4691 1 0.500322 0.650561 0.494766
1889 1 0.485361 0.65067 0.495791
1893 1 0.0144843 0.677146 0.500096
1824 1 0.0211958 0.663948 0.498913
1826 1 0.0351881 0.661686 0.496762
1895 1 0.0280542 0.677747 0.498616
1828 1 0.0494875 0.664853 0.496908
1897 1 0.042143 0.678139 0.498208
1899 1 0.055808 0.676173 0.497491
1901 1 0.0654656 0.663837 0.496095
1902 1 0.0738975 0.677345 0.496131
1834 1 0.0923106 0.665228 0.497629
1832 1 0.0786231 0.663838 0.497399
1903 1 0.0865496 0.677539 0.497804
1905 1 0.101391 0.677394 0.497122
1833 1 0.105898 0.661993 0.496729
1838 1 0.113232 0.678357 0.49662
1837 1 0.121755 0.667519 0.496549
1909 1 0.127081 0.678717 0.496309
1911 1 0.134059 0.664353 0.494933
1842 1 0.152348 0.663683 0.494641
1910 1 0.142323 0.675736 0.495051
1844 1 0.164836 0.661189 0.496231
1913 1 0.15611 0.676907 0.495301
1915 1 0.167749 0.674237 0.495439
1917 1 0.186406 0.675938 0.493558
1846 1 0.178269 0.66279 0.494363
1848 1 0.192927 0.663289 0.493707
1850 1 0.210434 0.66297 0.493009
1919 1 0.200666 0.673935 0.49376
1852 1 0.223075 0.661854 0.490949
1921 1 0.215229 0.675096 0.493328
1923 1 0.228427 0.673259 0.491288
1925 1 0.243345 0.675609 0.490558
1854 1 0.239058 0.660787 0.491276
1856 1 0.251786 0.663233 0.490034
1927 1 0.25769 0.675838 0.489287
1929 1 0.272274 0.670238 0.489465
1931 1 0.285547 0.671896 0.490696
1933 1 0.300193 0.673158 0.49008
1864 1 0.307374 0.660728 0.490799
1935 1 0.315926 0.674821 0.489531
1866 1 0.322055 0.662109 0.492719
1937 1 0.330873 0.675912 0.491775
1868 1 0.335299 0.664084 0.492879
1939 1 0.343849 0.674368 0.491603
1870 1 0.351923 0.662993 0.494052
1941 1 0.359094 0.674361 0.49238
1872 1 0.366337 0.664721 0.495915
1874 1 0.379499 0.665365 0.494494
1943 1 0.373762 0.676094 0.493744
1945 1 0.387541 0.676565 0.493014
1876 1 0.39411 0.663105 0.493217
1947 1 0.401491 0.675572 0.492714
1878 1 0.407186 0.661818 0.49428
1949 1 0.414984 0.674858 0.492994
1880 1 0.421867 0.664157 0.493062
1882 1 0.436472 0.666399 0.494872
1951 1 0.4285 0.674955 0.495539
1953 1 0.446537 0.677205 0.494572
1884 1 0.451172 0.663183 0.495696
1955 1 0.459584 0.676919 0.495316
1886 1 0.463366 0.660317 0.49486
1957 1 0.473079 0.678435 0.495997
1888 1 0.478472 0.662672 0.496858
1890 1 0.492684 0.663933 0.495651
1959 1 0.48735 0.67658 0.495294
1894 1 0.0199176 0.691952 0.499758
1898 1 0.0506896 0.690239 0.499508
1900 1 0.0646093 0.690524 0.496782
1973 1 0.0776698 0.690622 0.498375
1904 1 0.0938957 0.690217 0.498245
1906 1 0.10815 0.69054 0.498532
1836 1 0.1209 0.690781 0.496633
1908 1 0.134745 0.688437 0.496356
1912 1 0.148101 0.688289 0.49757
1914 1 0.163429 0.689148 0.496205
1916 1 0.176722 0.688737 0.495173
1918 1 0.191553 0.688859 0.494393
1920 1 0.208307 0.687706 0.493685
1989 1 0.202145 0.700187 0.49345
1922 1 0.221308 0.686472 0.492974
1991 1 0.215948 0.699015 0.492293
1993 1 0.231547 0.698129 0.493385
1924 1 0.236463 0.688537 0.492622
1926 1 0.251137 0.688465 0.490311
1928 1 0.264654 0.687408 0.489542
1930 1 0.2789 0.68391 0.490083
1999 1 0.272011 0.69959 0.48964
1932 1 0.301012 0.697852 0.488714
1934 1 0.293824 0.6853 0.489563
1938 1 0.337723 0.688345 0.489755
2011 1 0.351452 0.68602 0.490796
1942 1 0.366141 0.687179 0.491366
1944 1 0.381573 0.686711 0.49164
1946 1 0.395086 0.6879 0.490709
2016 1 0.387238 0.699367 0.490031
1948 1 0.407351 0.687776 0.492351
1950 1 0.422112 0.68797 0.493704
1952 1 0.435524 0.688403 0.495009
1954 1 0.450732 0.689083 0.494763
1956 1 0.464401 0.690871 0.495149
1958 1 0.480227 0.68835 0.494585
4761 1 0.493486 0.689223 0.494929
1969 1 0.0534762 0.705122 0.498957
1971 1 0.0676215 0.701555 0.498445
1970 1 0.060338 0.715825 0.498514
2041 1 0.0762815 0.712567 0.497915
1974 1 0.0923119 0.712736 0.500059
1972 1 0.0853305 0.701317 0.500598
1977 1 0.111532 0.705331 0.498438
1975 1 0.100146 0.701481 0.49862
1976 1 0.105879 0.716373 0.499077
1907 1 0.127197 0.702739 0.496585
1979 1 0.119655 0.716908 0.497629
1980 1 0.133563 0.714528 0.497166
1981 1 0.142484 0.700265 0.497211
1982 1 0.147898 0.71163 0.496786
1985 1 0.171966 0.700174 0.49608
1983 1 0.157067 0.701066 0.49689
1984 1 0.163982 0.711963 0.496611
1987 1 0.18565 0.699996 0.495478
1986 1 0.180691 0.713311 0.496384
1988 1 0.194392 0.712171 0.494164
1990 1 0.208762 0.711259 0.494493
1992 1 0.222153 0.713569 0.494231
1995 1 0.244828 0.7014 0.492452
1994 1 0.2374 0.710634 0.495687
1997 1 0.256759 0.701052 0.490372
1996 1 0.250281 0.714056 0.492287
1998 1 0.263993 0.712338 0.490376
2000 1 0.277624 0.712813 0.490204
2003 1 0.290704 0.712466 0.490043
2005 1 0.306169 0.712047 0.488752
2010 1 0.343513 0.701341 0.490449
2008 1 0.352914 0.711434 0.488262
1940 1 0.358179 0.698942 0.490325
2012 1 0.374287 0.698291 0.489808
2017 1 0.401351 0.701785 0.491795
2087 1 0.396884 0.712896 0.488341
2019 1 0.414074 0.699398 0.49204
2018 1 0.408808 0.716767 0.487622
2020 1 0.422315 0.714376 0.48918
2021 1 0.428871 0.701818 0.492576
2022 1 0.436662 0.714946 0.491824
2023 1 0.444459 0.698684 0.493007
2025 1 0.458668 0.702037 0.492979
2024 1 0.450948 0.713539 0.492058
2027 1 0.474787 0.702965 0.494518
2026 1 0.466372 0.715073 0.492697
2028 1 0.481158 0.715589 0.49278
2029 1 0.489732 0.70159 0.494649
2099 1 0.494627 0.714836 0.49611
2040 1 0.0709675 0.726648 0.498638
2042 1 0.0810791 0.736979 0.499755
2048 1 0.115626 0.728386 0.499881
1978 1 0.129503 0.728076 0.498332
2050 1 0.1232 0.73955 0.4996
2051 1 0.143905 0.72467 0.496532
2049 1 0.139281 0.738971 0.498289
2052 1 0.153801 0.737002 0.497917
2053 1 0.158964 0.72553 0.496856
2054 1 0.166332 0.737386 0.497697
2055 1 0.172573 0.725051 0.495474
2056 1 0.179833 0.7367 0.497887
2057 1 0.188115 0.724557 0.496974
2058 1 0.194743 0.736185 0.497564
2059 1 0.203716 0.723686 0.495901
2060 1 0.208784 0.738222 0.496945
2061 1 0.217461 0.72516 0.494773
2062 1 0.224201 0.737982 0.494392
2063 1 0.23305 0.724608 0.494587
2064 1 0.244372 0.726471 0.492719
2135 1 0.236951 0.737765 0.494204
2065 1 0.250257 0.739241 0.493443
2067 1 0.257069 0.725283 0.492832
2066 1 0.26162 0.737194 0.49153
2068 1 0.269828 0.724954 0.491125
2139 1 0.277468 0.735976 0.490811
2069 1 0.283277 0.723273 0.489969
2070 1 0.299261 0.723154 0.489671
2141 1 0.293281 0.736837 0.489709
2089 1 0.41779 0.727765 0.488487
2086 1 0.410971 0.73844 0.48929
2091 1 0.429868 0.727329 0.490268
2161 1 0.437402 0.73979 0.490942
2092 1 0.442817 0.727693 0.492071
2093 1 0.457276 0.727201 0.491801
2097 1 0.470786 0.728762 0.492624
2096 1 0.481029 0.738701 0.492407
2098 1 0.488781 0.728593 0.495543
2103 1 0.0281421 0.755012 0.499003
2036 1 0.0453622 0.755119 0.499357
2121 1 0.130227 0.748983 0.49959
2125 1 0.170256 0.749728 0.499832
2123 1 0.157336 0.748573 0.500018
2127 1 0.18749 0.749712 0.498036
2129 1 0.201425 0.75068 0.497412
2131 1 0.213057 0.751728 0.495721
2133 1 0.228121 0.750861 0.495539
2136 1 0.243141 0.749523 0.49289
2137 1 0.255379 0.749802 0.493263
2138 1 0.269956 0.746685 0.491346
2072 1 0.283687 0.748528 0.491405
2209 1 0.278126 0.758794 0.490495
2074 1 0.299211 0.748976 0.490244
2088 1 0.414852 0.75253 0.489659
2090 1 0.425293 0.741078 0.490213
2160 1 0.429848 0.754049 0.490604
2094 1 0.451184 0.74011 0.49119
2163 1 0.442989 0.750848 0.490912
2165 1 0.457047 0.753261 0.49095
2095 1 0.466468 0.740203 0.492775
2167 1 0.471584 0.753669 0.492227
2100 1 0.496066 0.743176 0.495324
2169 1 0.486363 0.752936 0.494151
2106 1 0.0292667 0.778445 0.499149
2104 1 0.0205732 0.768006 0.499919
2108 1 0.0354573 0.766781 0.498383
2177 1 0.0427583 0.776505 0.499002
2109 1 0.0511952 0.765475 0.499689
2124 1 0.164109 0.761952 0.499873
2126 1 0.177541 0.763076 0.498337
2195 1 0.185319 0.776323 0.49774
2197 1 0.193243 0.763624 0.497884
2128 1 0.205119 0.762752 0.49574
2199 1 0.197681 0.776299 0.496035
2130 1 0.221074 0.763726 0.495234
2201 1 0.213748 0.775427 0.495305
2203 1 0.22758 0.774031 0.495757
2132 1 0.234974 0.761036 0.494132
2205 1 0.24087 0.774404 0.493525
2134 1 0.249435 0.761351 0.493885
2140 1 0.263092 0.759773 0.491614
2206 1 0.257438 0.774139 0.494114
2207 1 0.271779 0.772207 0.492761
2279 1 0.286117 0.774601 0.493038
2211 1 0.298268 0.774263 0.493206
2143 1 0.292683 0.761659 0.491009
2142 1 0.305841 0.76306 0.490975
2146 1 0.312523 0.772901 0.49078
2149 1 0.348782 0.761442 0.487893
2150 1 0.353244 0.774087 0.48867
2221 1 0.38675 0.775671 0.488038
2228 1 0.413271 0.778246 0.489298
2159 1 0.421993 0.763518 0.489122
2162 1 0.43848 0.765195 0.489673
2229 1 0.42887 0.775651 0.489488
2233 1 0.441628 0.777116 0.490234
2164 1 0.449038 0.764377 0.490259
2235 1 0.454642 0.775978 0.489671
2166 1 0.464701 0.765369 0.491896
2237 1 0.469671 0.776468 0.490438
2168 1 0.478344 0.765499 0.492782
2170 1 0.49334 0.766946 0.493642
2239 1 0.483308 0.776208 0.494423
2172 1 0.00776395 0.793987 0.497472
2176 1 0.0371846 0.791951 0.498532
2175 1 0.0241491 0.792645 0.497664
2178 1 0.0506779 0.788162 0.50073
2249 1 0.0589031 0.79699 0.498848
2198 1 0.191733 0.789715 0.497131
2200 1 0.207803 0.788306 0.496725
2202 1 0.22024 0.788297 0.494938
2273 1 0.230828 0.799955 0.493743
2204 1 0.235846 0.788641 0.494224
2276 1 0.245813 0.799904 0.493281
2275 1 0.249606 0.786575 0.493927
2208 1 0.266567 0.787311 0.494286
2210 1 0.280294 0.78649 0.494252
2281 1 0.271803 0.799012 0.492979
2144 1 0.285375 0.798349 0.492637
2214 1 0.293128 0.785144 0.494449
2283 1 0.30101 0.797619 0.494642
2216 1 0.307021 0.784439 0.492425
2213 1 0.321349 0.784841 0.490974
2354 1 0.315136 0.795769 0.494108
2289 1 0.333439 0.786804 0.490671
2355 1 0.327177 0.798164 0.491822
2218 1 0.348839 0.78833 0.489811
2220 1 0.363802 0.788628 0.491078
2288 1 0.356198 0.800377 0.491195
2291 1 0.378728 0.786526 0.488469
2293 1 0.371248 0.79917 0.488752
2223 1 0.39338 0.790544 0.488512
2226 1 0.406395 0.790346 0.490204
2230 1 0.421347 0.787624 0.490754
2231 1 0.434877 0.787397 0.488826
2301 1 0.42831 0.799604 0.490928
2234 1 0.449453 0.790533 0.490843
2236 1 0.463782 0.788784 0.492522
2238 1 0.47781 0.78626 0.493271
2240 1 0.492619 0.787666 0.4935
2309 1 0.486166 0.801031 0.494409
2243 1 0.0100549 0.815436 0.49679
2174 1 0.0174957 0.804982 0.496828
2241 1 0.00311124 0.806946 0.497947
2245 1 0.030965 0.804944 0.496824
2246 1 0.0389719 0.814484 0.496731
2244 1 0.0248859 0.816332 0.496759
2247 1 0.0457338 0.801753 0.497964
2248 1 0.0508167 0.813867 0.499943
2251 1 0.0813379 0.813149 0.49959
2265 1 0.170373 0.802136 0.499152
2264 1 0.164928 0.816838 0.499172
2267 1 0.185615 0.800707 0.497272
2266 1 0.177455 0.813486 0.497952
2268 1 0.19221 0.813846 0.496155
2269 1 0.199727 0.802671 0.49597
2270 1 0.20817 0.81215 0.495311
2271 1 0.214933 0.801401 0.494452
2272 1 0.224196 0.81231 0.49389
2274 1 0.238523 0.813264 0.492542
2280 1 0.259063 0.80211 0.492815
2347 1 0.250673 0.814093 0.493386
2277 1 0.262574 0.81669 0.493357
2212 1 0.278636 0.81154 0.492117
2353 1 0.294624 0.810801 0.492543
2284 1 0.307665 0.809461 0.492044
2215 1 0.320638 0.807667 0.491832
2350 1 0.320537 0.819704 0.492464
2357 1 0.339995 0.801439 0.491115
2286 1 0.333192 0.815254 0.492239
2361 1 0.349027 0.813329 0.492278
2290 1 0.362598 0.811836 0.489829
2295 1 0.37692 0.811784 0.491454
2224 1 0.385541 0.801141 0.489436
2297 1 0.398499 0.802841 0.490048
2222 1 0.391656 0.815008 0.490485
2299 1 0.413813 0.80122 0.49015
2298 1 0.407689 0.8138 0.491696
2300 1 0.422798 0.812197 0.493013
2302 1 0.435243 0.816963 0.491788
2232 1 0.441255 0.804151 0.492603
2305 1 0.458909 0.801122 0.492167
2303 1 0.451115 0.814274 0.491819
2307 1 0.47201 0.802169 0.494009
2306 1 0.465326 0.815638 0.492541
2308 1 0.479071 0.813668 0.494471
2310 1 0.495527 0.811041 0.495351
2312 1 0.00625871 0.836621 0.49908
2313 1 0.0155147 0.82658 0.497305
2315 1 0.0286143 0.829229 0.498483
2316 1 0.0369895 0.83944 0.498221
2317 1 0.0433374 0.826575 0.498551
2319 1 0.0584821 0.825546 0.499402
2318 1 0.052827 0.83875 0.498137
2321 1 0.0718252 0.825197 0.499574
2320 1 0.0654298 0.839429 0.498134
2323 1 0.0859692 0.826578 0.499643
2324 1 0.0913658 0.838878 0.500233
2326 1 0.106857 0.835888 0.500313
2327 1 0.11505 0.824691 0.499233
2329 1 0.128204 0.826488 0.500592
2328 1 0.120842 0.837777 0.49912
2332 1 0.149641 0.839352 0.500533
2335 1 0.171888 0.825721 0.499068
2333 1 0.157429 0.8279 0.499798
2337 1 0.185526 0.82541 0.496326
2336 1 0.178289 0.837045 0.499052
2338 1 0.192225 0.836141 0.494794
2339 1 0.200069 0.827119 0.49441
2340 1 0.207139 0.837446 0.493859
2341 1 0.21449 0.822965 0.492487
2343 1 0.230045 0.825701 0.492374
2342 1 0.221969 0.835464 0.492219
2345 1 0.243074 0.827582 0.493142
2344 1 0.235719 0.838047 0.492352
2348 1 0.251153 0.838129 0.492154
2349 1 0.256403 0.825812 0.492349
2282 1 0.26591 0.835182 0.492977
2278 1 0.2719 0.824238 0.494218
2419 1 0.287207 0.821862 0.492872
2352 1 0.280589 0.835251 0.493255
2351 1 0.30141 0.821647 0.493121
2423 1 0.296167 0.83318 0.492391
2426 1 0.313358 0.829339 0.492147
2429 1 0.326776 0.829832 0.492455
2425 1 0.340122 0.824805 0.493528
2358 1 0.336623 0.83741 0.494259
2356 1 0.349044 0.830256 0.49417
2359 1 0.356906 0.823744 0.492291
2427 1 0.359612 0.837896 0.493242
2294 1 0.368906 0.828347 0.491595
2365 1 0.383959 0.826786 0.491931
2296 1 0.400838 0.827159 0.492494
2366 1 0.392644 0.835293 0.493922
2370 1 0.41937 0.838445 0.496601
2368 1 0.405471 0.838734 0.495702
2369 1 0.413762 0.825851 0.494625
2371 1 0.426534 0.825885 0.494149
2372 1 0.43384 0.839412 0.494507
2373 1 0.443321 0.827057 0.492782
2304 1 0.457892 0.826466 0.495142
2374 1 0.450375 0.83744 0.494818
2377 1 0.473076 0.825461 0.495618
2379 1 0.498604 0.824786 0.496544
2380 1 0.486661 0.82577 0.496568
5112 1 0.493418 0.839343 0.496761
2383 1 0.0135422 0.850547 0.497839
2314 1 0.0211703 0.839288 0.498496
2385 1 0.0281728 0.851316 0.49827
2387 1 0.0436306 0.850024 0.496756
2389 1 0.0573208 0.850608 0.497708
2391 1 0.0730979 0.849535 0.496975
2393 1 0.0867118 0.852672 0.498309
2395 1 0.101351 0.848677 0.498514
2397 1 0.113439 0.847493 0.498463
2399 1 0.126506 0.849832 0.499166
2401 1 0.141759 0.850124 0.499748
2334 1 0.163566 0.838145 0.499687
2405 1 0.171752 0.850691 0.499187
2407 1 0.184644 0.848342 0.498113
2409 1 0.197902 0.849445 0.495154
2411 1 0.215492 0.847928 0.494832
2415 1 0.227757 0.849343 0.493457
2346 1 0.244107 0.848102 0.494577
2417 1 0.260923 0.847562 0.494034
2420 1 0.276716 0.846896 0.493753
2422 1 0.291826 0.846103 0.492779
2424 1 0.304669 0.847502 0.492526
2421 1 0.292835 0.859276 0.4932
2360 1 0.316976 0.839578 0.493048
2428 1 0.319269 0.856546 0.493332
2431 1 0.331144 0.847349 0.493883
2499 1 0.340151 0.854008 0.493861
2362 1 0.347522 0.843737 0.493772
2433 1 0.359583 0.851915 0.492937
2292 1 0.37122 0.845868 0.494179
2435 1 0.376446 0.859218 0.494543
2363 1 0.386613 0.847317 0.496181
2367 1 0.399471 0.849065 0.495993
2439 1 0.413256 0.849622 0.495481
2441 1 0.428446 0.850181 0.497017
2443 1 0.441236 0.853642 0.493484
2445 1 0.455592 0.849962 0.494436
2375 1 0.464809 0.840707 0.495483
2376 1 0.478819 0.84053 0.495092
2378 1 0.470234 0.852251 0.493624
5181 1 0.498822 0.851819 0.496844
2449 1 0.485123 0.851939 0.495384
2382 1 0.00695147 0.861814 0.498683
2453 1 0.0146283 0.875934 0.499278
2386 1 0.0337237 0.862502 0.497689
2384 1 0.0200223 0.86174 0.497632
2455 1 0.0271827 0.875372 0.499475
2388 1 0.0453693 0.862479 0.496255
2457 1 0.0394801 0.87621 0.49783
2459 1 0.0540077 0.873387 0.497069
2390 1 0.0618056 0.862042 0.496822
2461 1 0.0723474 0.878531 0.496525
2392 1 0.0794842 0.865354 0.497033
2463 1 0.0860593 0.876974 0.497565
2394 1 0.0927299 0.865588 0.497718
2465 1 0.101126 0.877239 0.498388
2396 1 0.104084 0.862167 0.497803
2467 1 0.113662 0.872484 0.497156
2398 1 0.117733 0.86214 0.498827
2469 1 0.128652 0.870296 0.498516
2400 1 0.136415 0.86117 0.499444
2471 1 0.141472 0.875822 0.497893
2473 1 0.158024 0.875041 0.498039
2475 1 0.172335 0.877546 0.496844
2404 1 0.16568 0.863496 0.498098
2406 1 0.180362 0.863861 0.496546
2477 1 0.186809 0.87678 0.497259
2408 1 0.192561 0.865445 0.494973
2410 1 0.206308 0.863715 0.494284
2479 1 0.200402 0.876737 0.4948
2413 1 0.218055 0.862596 0.493938
2412 1 0.214261 0.875608 0.493739
2483 1 0.23058 0.871146 0.495206
2414 1 0.237084 0.858627 0.493965
2484 1 0.244346 0.87041 0.496317
2416 1 0.25259 0.860714 0.495274
2418 1 0.267071 0.859918 0.494904
2487 1 0.260391 0.873978 0.49513
2489 1 0.275052 0.87709 0.495637
2493 1 0.289262 0.873448 0.49408
2491 1 0.280133 0.862073 0.493364
2495 1 0.304693 0.872622 0.493243
2497 1 0.30553 0.860397 0.493371
2496 1 0.317147 0.871529 0.49404
2430 1 0.331436 0.863605 0.494319
2501 1 0.341963 0.875029 0.494704
2498 1 0.328911 0.878187 0.495035
2364 1 0.365477 0.864661 0.493335
2432 1 0.351381 0.865273 0.492569
2503 1 0.357619 0.876069 0.493954
2434 1 0.37357 0.874808 0.492919
2437 1 0.392408 0.860862 0.497997
2505 1 0.385849 0.872014 0.494878
2436 1 0.400012 0.872948 0.495928
2438 1 0.404289 0.861145 0.495577
2509 1 0.411768 0.874577 0.494613
2440 1 0.419506 0.862324 0.495305
2442 1 0.43433 0.862671 0.494722
2511 1 0.425699 0.874683 0.494139
2513 1 0.441947 0.874858 0.492916
2444 1 0.449629 0.86384 0.493576
2447 1 0.458382 0.874291 0.490736
2446 1 0.464688 0.863914 0.493087
2518 1 0.47359 0.87564 0.491769
2448 1 0.479609 0.863163 0.492531
2450 1 0.494221 0.864401 0.495074
2517 1 0.486821 0.877172 0.493158
2452 1 0.00659707 0.887951 0.499288
2456 1 0.0353668 0.888688 0.498686
2454 1 0.0217257 0.88788 0.498887
2458 1 0.0497695 0.887552 0.497565
2527 1 0.0431847 0.898937 0.498497
2460 1 0.0632008 0.888071 0.496789
2531 1 0.0697673 0.900346 0.497444
2462 1 0.0788237 0.888263 0.496676
2464 1 0.0947398 0.887127 0.499947
2466 1 0.10999 0.887312 0.497888
2537 1 0.111868 0.899906 0.498718
2535 1 0.100204 0.900016 0.498835
2468 1 0.1223 0.881896 0.497559
2539 1 0.125718 0.89519 0.497842
2472 1 0.149525 0.885671 0.497784
2470 1 0.133654 0.885497 0.497526
2541 1 0.14164 0.895594 0.49823
2474 1 0.163156 0.886894 0.497285
2543 1 0.158128 0.897408 0.498562
2545 1 0.171799 0.900508 0.497687
2476 1 0.178542 0.88968 0.497726
2478 1 0.19276 0.890695 0.495569
2480 1 0.207812 0.888348 0.495509
2481 1 0.222024 0.885253 0.495776
2482 1 0.235904 0.881967 0.497048
2552 1 0.230756 0.896596 0.497722
2553 1 0.24992 0.885574 0.495612
2485 1 0.266201 0.885979 0.496218
2557 1 0.257523 0.899034 0.495977
2488 1 0.282259 0.887291 0.496275
2559 1 0.273884 0.899545 0.495327
2561 1 0.290048 0.897829 0.496334
2490 1 0.295783 0.884704 0.495222
2494 1 0.308444 0.886435 0.493249
2492 1 0.303192 0.896821 0.496031
2567 1 0.321604 0.887169 0.495213
2565 1 0.317804 0.899267 0.495301
2569 1 0.336415 0.88727 0.49609
2640 1 0.347565 0.898089 0.495818
2500 1 0.34892 0.88579 0.494061
2571 1 0.360377 0.898074 0.495609
2502 1 0.365877 0.886736 0.493121
2573 1 0.380457 0.887958 0.494533
2577 1 0.389893 0.900353 0.497318
2504 1 0.391977 0.886131 0.493997
2507 1 0.405747 0.888338 0.494463
2510 1 0.420798 0.888049 0.493651
2579 1 0.415454 0.899332 0.493202
2512 1 0.433885 0.88724 0.492427
2514 1 0.448867 0.886306 0.491771
2516 1 0.464152 0.888182 0.490984
2589 1 0.478833 0.889513 0.492541
2520 1 0.494437 0.888244 0.494575
2522 1 0.0113705 0.913037 0.498925
2523 1 0.0160227 0.899865 0.499417
2521 1 0.00132491 0.902646 0.499005
2525 1 0.0299927 0.901734 0.498677
2524 1 0.0225693 0.913047 0.500094
2526 1 0.0355481 0.915007 0.498329
2528 1 0.0504134 0.912454 0.498396
2529 1 0.0576174 0.902284 0.496761
2530 1 0.0652861 0.915062 0.497045
2533 1 0.0880279 0.900482 0.498477
2532 1 0.0772736 0.91096 0.496743
2534 1 0.0935783 0.913996 0.496758
2536 1 0.106188 0.913764 0.49799
2538 1 0.121111 0.910833 0.497806
2540 1 0.136632 0.909654 0.499237
2542 1 0.149337 0.910026 0.498702
2544 1 0.165369 0.911496 0.499082
2547 1 0.18505 0.901748 0.498361
2546 1 0.179532 0.914058 0.498267
2549 1 0.200672 0.903784 0.496493
2550 1 0.208341 0.913083 0.496436
2548 1 0.192868 0.913931 0.497308
2551 1 0.218137 0.90056 0.495261
2554 1 0.223813 0.914671 0.497129
2486 1 0.245048 0.897905 0.498771
2555 1 0.235806 0.909899 0.499615
2556 1 0.250831 0.911658 0.498985
2558 1 0.264607 0.910534 0.497712
2560 1 0.284595 0.913119 0.496392
2562 1 0.296381 0.909927 0.495788
2564 1 0.322496 0.91212 0.496484
2563 1 0.308089 0.9099 0.496334
2566 1 0.332939 0.899859 0.496017
2568 1 0.337078 0.91227 0.496606
2570 1 0.352232 0.911917 0.496256
2572 1 0.366643 0.909902 0.497282
2575 1 0.374215 0.901041 0.495109
2574 1 0.381614 0.913333 0.498663
2506 1 0.403355 0.902088 0.49457
2508 1 0.396407 0.912824 0.498177
2582 1 0.423633 0.912928 0.495871
2576 1 0.409478 0.914381 0.495494
2581 1 0.427478 0.901691 0.49446
2652 1 0.436683 0.913208 0.495513
2583 1 0.441896 0.900214 0.493742
2515 1 0.456218 0.898603 0.491384
2584 1 0.449069 0.912581 0.493944
2587 1 0.473794 0.901098 0.491807
2585 1 0.46397 0.910022 0.493516
2586 1 0.480656 0.913005 0.491588
2588 1 0.488979 0.899811 0.492496
5322 1 0.494582 0.913417 0.493446
2595 1 0.0304674 0.925168 0.498481
2598 1 0.0529779 0.937798 0.499638
2597 1 0.0453909 0.92688 0.498259
2596 1 0.0383153 0.936629 0.499522
2599 1 0.0601938 0.928474 0.498795
2601 1 0.0726803 0.927714 0.498104
2600 1 0.0672095 0.942101 0.498918
2602 1 0.0819497 0.941362 0.49817
2603 1 0.0859732 0.92646 0.498844
2605 1 0.10046 0.926843 0.498412
2607 1 0.115147 0.923048 0.498968
2609 1 0.12764 0.922683 0.499079
2610 1 0.130489 0.935272 0.499972
2611 1 0.141315 0.924008 0.499111
2615 1 0.170335 0.92559 0.499781
2617 1 0.177934 0.938578 0.498899
2619 1 0.186424 0.926131 0.497928
2618 1 0.193348 0.936054 0.496861
2620 1 0.20107 0.923751 0.49734
2691 1 0.209098 0.937871 0.497724
2621 1 0.215384 0.924722 0.497527
2622 1 0.221003 0.936273 0.496448
2623 1 0.232161 0.925742 0.499349
2699 1 0.262725 0.935931 0.499747
2629 1 0.286308 0.930212 0.497319
2630 1 0.276447 0.938422 0.498968
2628 1 0.273329 0.924507 0.49766
2635 1 0.300089 0.925761 0.49662
2701 1 0.296754 0.939105 0.49727
2636 1 0.311424 0.935352 0.496479
2631 1 0.315111 0.922934 0.497249
2634 1 0.323376 0.93809 0.496584
2637 1 0.327953 0.926055 0.496853
2650 1 0.342966 0.924596 0.499662
2639 1 0.340832 0.93644 0.498697
2641 1 0.35399 0.934868 0.498928
2642 1 0.360028 0.924369 0.497629
2645 1 0.373972 0.924385 0.498344
2713 1 0.367547 0.937882 0.498252
2644 1 0.381026 0.935629 0.49917
2578 1 0.388204 0.925119 0.498979
2643 1 0.393841 0.936647 0.498416
2646 1 0.403586 0.927651 0.497739
2648 1 0.417003 0.926297 0.495843
2649 1 0.422778 0.936621 0.495265
2717 1 0.408456 0.940042 0.496839
2651 1 0.431826 0.925608 0.496054
2653 1 0.437146 0.93878 0.495915
2580 1 0.444122 0.925043 0.495426
2655 1 0.456953 0.924997 0.494032
2654 1 0.451374 0.93589 0.495418
2657 1 0.47143 0.924054 0.49276
2658 1 0.479704 0.935602 0.494703
2656 1 0.465798 0.938235 0.494632
2659 1 0.485077 0.924527 0.49332
2660 1 0.492628 0.938476 0.49494
2667 1 0.0484867 0.950986 0.499141
2669 1 0.0608575 0.951434 0.498192
2671 1 0.0733093 0.952105 0.498909
2675 1 0.0943474 0.94054 0.498125
2673 1 0.0868514 0.952599 0.49874
2677 1 0.11267 0.95324 0.498332
2604 1 0.100725 0.954587 0.499206
2606 1 0.108103 0.940071 0.496594
2679 1 0.125378 0.947258 0.499884
2681 1 0.139047 0.945758 0.500329
2687 1 0.184323 0.951109 0.498454
2689 1 0.20029 0.949634 0.49718
2692 1 0.215592 0.950349 0.497367
2695 1 0.22834 0.950473 0.49838
2697 1 0.24471 0.949656 0.499096
2769 1 0.270404 0.94846 0.498994
2632 1 0.287823 0.946822 0.497488
2702 1 0.298177 0.958575 0.498975
2633 1 0.307927 0.946933 0.496953
2705 1 0.319622 0.950428 0.497023
2638 1 0.332511 0.950051 0.49781
2709 1 0.345002 0.948961 0.498876
2711 1 0.359694 0.948281 0.499781
2647 1 0.401468 0.950798 0.497129
2715 1 0.386303 0.950158 0.499415
2719 1 0.416636 0.950545 0.496313
2722 1 0.429497 0.948908 0.495638
2723 1 0.444123 0.94979 0.495405
2725 1 0.459043 0.949122 0.493628
2727 1 0.472742 0.951163 0.495143
5461 1 0.498377 0.95058 0.494939
2729 1 0.484897 0.949548 0.495332
2737 1 0.043033 0.97483 0.49888
2668 1 0.0516817 0.963786 0.498956
2739 1 0.0583131 0.977077 0.499024
2670 1 0.0667949 0.965633 0.498897
2741 1 0.0748623 0.978139 0.498748
2672 1 0.0802996 0.965997 0.498138
2676 1 0.0939281 0.965064 0.498656
2674 1 0.0859905 0.976745 0.497669
13 1 0.0985291 0.97717 0.498774
2745 1 0.108856 0.967513 0.499964
2678 1 0.121372 0.962983 0.500091
2685 1 0.176649 0.964287 0.500277
2686 1 0.185223 0.975245 0.499605
2688 1 0.191999 0.961691 0.499586
2690 1 0.20556 0.962057 0.497952
2693 1 0.221716 0.964099 0.496077
2761 1 0.230686 0.975811 0.497218
31 1 0.215479 0.974729 0.49949
2694 1 0.236634 0.96181 0.497465
2765 1 0.244812 0.974053 0.498339
2698 1 0.266676 0.961363 0.499443
37 1 0.259995 0.974301 0.498631
2696 1 0.251484 0.961677 0.498634
2767 1 0.2794 0.960698 0.498917
2773 1 0.287673 0.973074 0.499081
2768 1 0.2731 0.973339 0.497813
2774 1 0.302727 0.973112 0.497709
2703 1 0.310933 0.95971 0.498052
2775 1 0.316963 0.973705 0.497196
2704 1 0.32513 0.961724 0.498885
2706 1 0.337959 0.963427 0.498763
2777 1 0.33074 0.974513 0.499878
2781 1 0.361259 0.973961 0.500406
2714 1 0.388562 0.975648 0.500218
2785 1 0.395735 0.962345 0.498516
2787 1 0.402215 0.975356 0.497432
2789 1 0.415085 0.977756 0.495949
2718 1 0.410485 0.963682 0.495057
2793 1 0.437581 0.962288 0.495146
2720 1 0.429802 0.976364 0.49567
2721 1 0.423236 0.962969 0.495063
2724 1 0.45188 0.964074 0.494225
2795 1 0.458266 0.976101 0.494715
2794 1 0.443303 0.975521 0.495991
2797 1 0.471329 0.975366 0.493943
2726 1 0.464634 0.96251 0.49369
2728 1 0.479953 0.964759 0.495672
2730 1 0.487715 0.976307 0.496185
5462 1 0.493852 0.962657 0.496657
2738 1 0.0356459 0.993065 0.498825
5 1 0.0485061 0.987454 0.497515
2740 1 0.0640858 0.989287 0.498132
2743 1 0.0800929 0.988944 0.496534
2744 1 0.0906461 0.988826 0.496619
2746 1 0.103607 0.98906 0.499427
2762 1 0.206209 0.988577 0.498984
32 1 0.212835 0.998383 0.49986
2763 1 0.238711 0.987511 0.498964
2766 1 0.247227 1.00032 0.497518
35 1 0.250364 0.988296 0.497519
36 1 0.264247 0.989269 0.498804
39 1 0.273473 1.00011 0.497774
2770 1 0.287422 0.998055 0.498138
2771 1 0.27707 0.986798 0.496911
42 1 0.301711 0.998589 0.499443
2772 1 0.295053 0.986204 0.49837
2778 1 0.322839 0.987735 0.49888
45 1 0.31553 0.999417 0.498261
43 1 0.308797 0.986284 0.498165
49 1 0.344034 0.997795 0.498604
2776 1 0.329578 0.999098 0.499158
47 1 0.337706 0.984954 0.498562
2780 1 0.352202 0.98576 0.499036
53 1 0.373721 0.999928 0.499845
2783 1 0.366722 0.98812 0.499282
2786 1 0.396495 0.98864 0.499112
2788 1 0.40908 0.990534 0.498914
2792 1 0.438106 0.988275 0.496717
59 1 0.424239 0.989771 0.497272
65 1 0.452695 0.98801 0.495903
2796 1 0.466124 0.989506 0.495239
2799 1 0.477912 0.987013 0.496437
68 1 0.486545 0.997194 0.497122
69 1 0.494158 0.986942 0.497098
1402 1 0.00673789 0.514777 0.500189
1403 1 0.0145487 0.504467 0.500528
1401 1 0.00130557 0.500567 0.50112
1404 1 0.0222489 0.515835 0.499733
1406 1 0.0360617 0.517599 0.500482
1405 1 0.0298378 0.504372 0.501657
1470 1 0.494852 0.510464 0.499756
1477 1 0.0451202 0.529036 0.499407
1496 1 0.180781 0.538496 0.5011
1498 1 0.193862 0.537563 0.500379
1545 1 0.0282693 0.550915 0.502058
1567 1 0.18819 0.550946 0.501754
1569 1 0.201173 0.551054 0.50124
1546 1 0.0361126 0.562474 0.5
1562 1 0.151239 0.562314 0.499452
1631 1 0.143092 0.574964 0.501628
1564 1 0.165177 0.564147 0.499866
1566 1 0.178833 0.562661 0.499687
1568 1 0.191674 0.561956 0.501078
1639 1 0.197659 0.575955 0.500285
1570 1 0.207587 0.563244 0.500553
1630 1 0.13637 0.588968 0.500218
1634 1 0.164387 0.59003 0.499356
1638 1 0.195866 0.588275 0.499606
1702 1 0.150963 0.614702 0.501012
1703 1 0.159303 0.601883 0.500307
1705 1 0.171711 0.600702 0.499403
1823 1 0.0172219 0.649882 0.500407
1821 1 0.00503862 0.649639 0.501576
1822 1 0.00806349 0.664058 0.499552
1891 1 0.00463524 0.690413 0.502061
1896 1 0.0348055 0.691513 0.498923
1961 1 0.00417037 0.716321 0.50154
1892 1 0.0118093 0.703137 0.502265
1962 1 0.0189567 0.71647 0.502006
1963 1 0.0269462 0.704181 0.500549
1966 1 0.0341555 0.718652 0.501024
1967 1 0.0402154 0.703381 0.500531
1965 1 0.0465185 0.717932 0.499011
2034 1 0.0114245 0.729314 0.500091
2033 1 0.0266399 0.730936 0.501214
2037 1 0.0412216 0.730126 0.500692
1968 1 0.0573056 0.727598 0.500271
2043 1 0.0844015 0.722583 0.500541
2045 1 0.0955369 0.739906 0.500302
2047 1 0.0993548 0.727897 0.499883
2046 1 0.110349 0.739738 0.500681
4900 1 0.00516823 0.744161 0.500054
2101 1 0.015761 0.755047 0.500782
2105 1 0.0355197 0.7435 0.499813
2035 1 0.0214345 0.740769 0.500673
2039 1 0.0524791 0.74212 0.500092
2107 1 0.060029 0.756031 0.499841
2038 1 0.0667266 0.739174 0.500842
2111 1 0.0719175 0.754884 0.501013
2044 1 0.085087 0.750833 0.500081
2115 1 0.103682 0.750466 0.499931
2117 1 0.117701 0.7526 0.502141
2122 1 0.143577 0.750917 0.499528
2102 1 0.00774819 0.769161 0.500244
2110 1 0.0570097 0.776901 0.500544
2112 1 0.067545 0.76777 0.502214
2181 1 0.0740992 0.776087 0.501627
2113 1 0.0806256 0.763419 0.502238
2183 1 0.0882677 0.773801 0.501076
2114 1 0.096256 0.762382 0.501322
2185 1 0.103437 0.776823 0.501495
2116 1 0.110495 0.766688 0.501762
2188 1 0.116339 0.779662 0.503852
2118 1 0.124244 0.763743 0.501632
2187 1 0.130547 0.776735 0.50212
2190 1 0.144287 0.773355 0.501747
2119 1 0.136887 0.762696 0.500918
2120 1 0.150701 0.763013 0.500445
2191 1 0.158069 0.773961 0.501384
2193 1 0.174045 0.776058 0.500517
2171 1 -0.000444053 0.782825 0.500625
2173 1 0.0146875 0.782915 0.499355
2179 1 0.0647664 0.786071 0.50108
2180 1 0.0745717 0.800529 0.500672
2184 1 0.0947117 0.786924 0.502064
2182 1 0.0797374 0.786724 0.500247
2253 1 0.0899139 0.79858 0.501467
2186 1 0.108693 0.790989 0.501568
2259 1 0.123014 0.790455 0.502255
2189 1 0.150316 0.786551 0.501139
2258 1 0.137426 0.78871 0.501542
2194 1 0.163599 0.787352 0.500329
2263 1 0.15897 0.799886 0.500688
2196 1 0.176439 0.788535 0.499247
2250 1 0.0638445 0.810978 0.500725
2252 1 0.0946632 0.81066 0.499779
2255 1 0.101765 0.802384 0.501069
2254 1 0.108668 0.812745 0.500306
2257 1 0.115666 0.801758 0.500882
2256 1 0.121885 0.81341 0.500904
2261 1 0.12956 0.802318 0.50134
2192 1 0.144602 0.80087 0.500851
2260 1 0.136548 0.813173 0.500544
2262 1 0.154211 0.814298 0.499999
2322 1 0.0790367 0.836056 0.49984
2325 1 0.0995986 0.824398 0.501101
2331 1 0.144619 0.823883 0.499838
2330 1 0.134765 0.836952 0.499933
2403 1 0.156643 0.853115 0.499192
2402 1 0.151237 0.864132 0.499458
2593 1 0.0169444 0.926001 0.49974
2591 1 0.00402651 0.92571 0.500268
2594 1 0.0251061 0.937377 0.500252
2608 1 0.118084 0.933803 0.500104
2612 1 0.149955 0.936343 0.49947
2613 1 0.156157 0.923335 0.499556
2614 1 0.16286 0.936654 0.500988
2624 1 0.2352 0.937661 0.499973
2626 1 0.250766 0.937561 0.501121
2625 1 0.244907 0.92618 0.500728
2627 1 0.259239 0.923716 0.499575
2592 1 0.0112422 0.939033 0.50122
2661 1 0.00262107 0.951582 0.503075
2663 1 0.0172996 0.952697 0.501222
2665 1 0.0314803 0.950955 0.501022
2616 1 0.167411 0.949556 0.49998
2683 1 0.154165 0.950578 0.500875
2700 1 0.258269 0.950135 0.49965
2779 1 0.374018 0.949592 0.499595
2733 1 0.0144572 0.978102 0.501437
2662 1 0.00811936 0.96471 0.503764
2731 1 0.00165126 0.973489 0.502431
2666 1 0.0395254 0.963039 0.499549
2664 1 0.0245622 0.965373 0.501632
2735 1 0.029489 0.978375 0.500641
2747 1 0.111215 0.979849 0.499872
2749 1 0.125974 0.977848 0.500165
2680 1 0.134974 0.959737 0.501408
2751 1 0.139297 0.975205 0.50124
2682 1 0.147475 0.962337 0.500206
2684 1 0.163181 0.963913 0.500859
2753 1 0.156323 0.978185 0.500315
2755 1 0.171031 0.977217 0.500923
2759 1 0.200347 0.976166 0.499631
2708 1 0.345832 0.97403 0.501349
2707 1 0.354035 0.962242 0.500205
2712 1 0.368283 0.962184 0.501695
2710 1 0.374454 0.973551 0.500849
2716 1 0.383071 0.964885 0.501172
3 1 0.000695964 0.99842 0.503748
2732 1 0.00738506 0.988269 0.501703
2734 1 0.0224496 0.990744 0.501114
2750 1 0.131864 0.99085 0.501305
2748 1 0.11723 0.991151 0.500899
2752 1 0.1444 0.989189 0.50076
2754 1 0.163647 0.992963 0.501557
2758 1 0.179589 0.989562 0.500317
2760 1 0.190371 0.98699 0.500846
2764 1 0.224355 0.988669 0.500188
2784 1 0.3823 0.987984 0.500097
2802 1 0.510658 0.0128341 0.498341
2804 1 0.524478 0.00907954 0.49805
2806 1 0.536571 0.0105703 0.498497
2808 1 0.549923 0.01003 0.496684
2810 1 0.561794 0.0109555 0.49733
2811 1 0.577781 0.0128217 0.497015
2885 1 0.588237 0.00943336 0.494441
2816 1 0.59794 -0.000242487 0.493275
2818 1 0.602597 0.0116906 0.494178
2817 1 0.618868 0.0109772 0.495359
2820 1 0.632976 0.00985906 0.496059
2822 1 0.647296 0.0107389 0.496202
2824 1 0.660967 0.0102393 0.496087
2826 1 0.675309 0.0125927 0.497931
2828 1 0.689085 0.0112963 0.499631
2840 1 0.772693 0.0112905 0.499114
2843 1 0.795049 0.000692923 0.499927
2842 1 0.78935 0.0118243 0.499993
2844 1 0.803946 0.0120206 0.497498
2846 1 0.822701 0.0111605 0.497503
2845 1 0.813893 0.000538576 0.497875
2848 1 0.836171 0.0114845 0.497798
2919 1 0.846516 0.0219508 0.498145
2850 1 0.854244 0.0102255 0.49835
2852 1 0.868313 0.0118898 0.499777
2854 1 0.882783 0.00857705 0.49957
2871 1 0.500106 0.0249289 0.499323
2872 1 0.508086 0.0391468 0.499803
2873 1 0.514001 0.0252383 0.498421
2874 1 0.522368 0.0368691 0.497853
2876 1 0.536219 0.0371632 0.497165
2875 1 0.528248 0.0242194 0.497602
2879 1 0.556123 0.0207497 0.496093
2951 1 0.550487 0.0341088 0.497558
2877 1 0.541263 0.025103 0.49598
2881 1 0.570063 0.0203289 0.498267
2882 1 0.578054 0.0338925 0.49812
2878 1 0.563469 0.0345833 0.500284
2812 1 0.585361 0.0223867 0.496833
2953 1 0.590688 0.0360098 0.498641
2884 1 0.597602 0.0223668 0.494874
2888 1 0.613602 0.0226176 0.496616
2887 1 0.607882 0.0349273 0.498712
2889 1 0.629481 0.0231114 0.49611
2962 1 0.619372 0.0338552 0.497107
2890 1 0.632056 0.0351327 0.49905
2891 1 0.642081 0.023416 0.497003
2892 1 0.648245 0.0384911 0.498743
2893 1 0.653049 0.02688 0.497308
2895 1 0.669325 0.0239691 0.497285
2894 1 0.662192 0.0362527 0.498618
2897 1 0.68367 0.0236503 0.498864
2896 1 0.675892 0.0377395 0.498407
2898 1 0.687896 0.0352034 0.497789
2899 1 0.695081 0.0223982 0.498677
2900 1 0.700907 0.0359899 0.499212
2901 1 0.709763 0.0226166 0.500419
2902 1 0.716611 0.0360929 0.499204
2904 1 0.729319 0.0380112 0.498092
2906 1 0.743067 0.0397562 0.498832
2905 1 0.737537 0.0248745 0.499709
2908 1 0.755434 0.0390636 0.499187
2911 1 0.783965 0.0266665 0.500035
2913 1 0.796128 0.0220896 0.499374
2916 1 0.819833 0.0370858 0.496967
2915 1 0.813878 0.0234335 0.499286
2917 1 0.828069 0.0246819 0.498088
2918 1 0.839068 0.0339181 0.498765
2920 1 0.852139 0.0359638 0.499964
2921 1 0.860721 0.0223953 0.49844
2923 1 0.873763 0.0228244 0.499147
2924 1 0.87726 0.0376303 0.499671
2926 1 0.894267 0.0371231 0.499212
2925 1 0.887815 0.0225635 0.498993
2941 1 0.502986 0.0499733 0.498936
2945 1 0.518188 0.0493265 0.499008
2948 1 0.528788 0.0504858 0.497719
2880 1 0.557062 0.0463788 0.500616
2947 1 0.543124 0.047371 0.499381
2883 1 0.571928 0.0469718 0.499426
2952 1 0.586072 0.0511266 0.499937
2886 1 0.599629 0.0477966 0.499932
2959 1 0.614442 0.0453609 0.498308
2960 1 0.625145 0.0463529 0.499229
2957 1 0.61779 0.0606993 0.499759
3033 1 0.633016 0.0599634 0.499246
3034 1 0.647671 0.059712 0.498969
2965 1 0.667844 0.0486954 0.498187
2963 1 0.655242 0.0489654 0.499023
2967 1 0.681967 0.0496389 0.49935
2969 1 0.69511 0.0494584 0.498259
2971 1 0.708358 0.0521253 0.499601
2973 1 0.721838 0.05188 0.498096
2975 1 0.737468 0.05015 0.497032
2977 1 0.752496 0.0511982 0.497372
2979 1 0.76682 0.0492837 0.500385
2981 1 0.781976 0.045464 0.499969
2980 1 0.77825 0.0585679 0.498753
2984 1 0.807616 0.0602977 0.500297
2982 1 0.791167 0.0578687 0.500302
2985 1 0.812462 0.0497418 0.497702
2987 1 0.826421 0.0463795 0.497617
2989 1 0.841702 0.0483992 0.500354
2991 1 0.856028 0.0489111 0.499285
2944 1 0.507907 0.0600445 0.499549
2946 1 0.535248 0.0607569 0.4992
2956 1 0.605653 0.0609116 0.499393
3027 1 0.61245 0.0738651 0.499251
2958 1 0.625748 0.0708832 0.498526
2964 1 0.662086 0.0622647 0.500302
2966 1 0.676303 0.06163 0.49889
2968 1 0.690025 0.0622896 0.499014
3037 1 0.682472 0.0733202 0.499883
3041 1 0.708699 0.0741131 0.499892
2972 1 0.716877 0.0642961 0.498818
3043 1 0.724546 0.0737289 0.499186
2974 1 0.731494 0.0624026 0.498356
2976 1 0.744998 0.0640133 0.496692
3045 1 0.736999 0.076366 0.498288
2978 1 0.763987 0.0636985 0.499281
3047 1 0.753223 0.0760066 0.498448
3049 1 0.769405 0.0766947 0.49987
2986 1 0.823179 0.0601495 0.499087
2988 1 0.835511 0.0611316 0.500075
3063 1 0.871542 0.073403 0.500122
3002 1 0.935752 0.0615617 0.50018
3028 1 0.620213 0.0838855 0.499648
3042 1 0.718651 0.0859603 0.498833
3046 1 0.747047 0.086669 0.498818
3044 1 0.731624 0.0871212 0.500477
3619 1 0.844582 0.275132 0.498922
3627 1 0.902775 0.272303 0.499059
3618 1 0.835244 0.285398 0.499865
3620 1 0.850927 0.286901 0.500143
3622 1 0.866673 0.284646 0.500122
3693 1 0.870393 0.296757 0.500038
3626 1 0.895543 0.285703 0.498804
3695 1 0.885326 0.296325 0.500028
3697 1 0.899927 0.298227 0.498469
3628 1 0.90875 0.287453 0.499272
3691 1 0.855958 0.300578 0.49941
3915 1 0.954785 0.37396 0.499727
3917 1 0.969898 0.374223 0.499651
3919 1 0.98434 0.375919 0.498592
1051 1 0.998921 0.375052 0.49803
3850 1 0.98992 0.361937 0.500058
3935 1 0.599638 0.397124 0.499972
3939 1 0.628793 0.394506 0.499974
3943 1 0.656134 0.395915 0.500867
3916 1 0.962425 0.387408 0.498999
3918 1 0.978726 0.386887 0.498764
3920 1 0.992457 0.386865 0.496605
3934 1 0.592814 0.408562 0.498137
3936 1 0.610092 0.408349 0.498637
3938 1 0.623913 0.408947 0.499416
3942 1 0.650006 0.407962 0.499523
3940 1 0.637537 0.409309 0.498024
3987 1 0.969662 0.401015 0.498713
3988 1 0.977749 0.413625 0.499208
1121 1 0.997462 0.400759 0.497664
3990 1 0.99196 0.413 0.499018
3989 1 0.984502 0.401332 0.498953
3998 1 0.549849 0.437536 0.500468
3999 1 0.557124 0.42492 0.499602
4000 1 0.565106 0.43457 0.497967
4001 1 0.57191 0.421305 0.49876
4002 1 0.578923 0.432772 0.497597
4003 1 0.586604 0.421075 0.499116
4004 1 0.592847 0.433746 0.496609
4005 1 0.60183 0.419616 0.498347
4006 1 0.60644 0.433993 0.498451
4007 1 0.615561 0.422037 0.498116
4008 1 0.620928 0.433915 0.496742
4009 1 0.629077 0.423701 0.497322
4010 1 0.63588 0.434893 0.49767
4011 1 0.642287 0.424577 0.498301
4012 1 0.649521 0.43375 0.499632
1191 1 0.999832 0.429388 0.499074
4059 1 0.984971 0.426255 0.499844
4067 1 0.542296 0.450184 0.498821
4071 1 0.571723 0.447182 0.497971
4069 1 0.557647 0.450487 0.500091
4072 1 0.581749 0.460495 0.496969
4073 1 0.586143 0.444752 0.496071
4077 1 0.611497 0.445523 0.496075
4075 1 0.598228 0.447145 0.496167
4078 1 0.621803 0.459331 0.495035
4079 1 0.626879 0.448463 0.495706
4082 1 0.650217 0.459748 0.498327
4081 1 0.640654 0.449648 0.496831
4084 1 0.664919 0.458987 0.498188
4083 1 0.656566 0.446895 0.498308
4085 1 0.670708 0.446131 0.499422
4086 1 0.678404 0.459657 0.498162
4060 1 0.991346 0.440654 0.499848
4137 1 0.544271 0.475931 0.498071
4139 1 0.556852 0.476619 0.496587
4068 1 0.548722 0.463195 0.49898
4141 1 0.573037 0.472608 0.496846
4070 1 0.566915 0.460212 0.498576
4143 1 0.587495 0.473376 0.497396
4074 1 0.593995 0.457527 0.494865
4145 1 0.601293 0.47501 0.494807
4076 1 0.607796 0.459498 0.494496
4149 1 0.629963 0.478053 0.494061
4147 1 0.616037 0.473624 0.495029
4151 1 0.644002 0.473316 0.496649
4080 1 0.636802 0.46142 0.49676
4155 1 0.672144 0.471365 0.498847
4153 1 0.658125 0.472414 0.498637
4136 1 0.539043 0.486355 0.498728
4138 1 0.553551 0.489297 0.498083
4207 1 0.543084 0.500424 0.497163
4211 1 0.571316 0.498967 0.49596
4140 1 0.567214 0.486778 0.497754
4209 1 0.557081 0.500783 0.496599
4142 1 0.579557 0.485263 0.496901
4144 1 0.594026 0.486712 0.495426
4213 1 0.586682 0.49728 0.496983
4146 1 0.609441 0.485886 0.494808
4215 1 0.600937 0.498197 0.49702
4217 1 0.617609 0.49859 0.496682
4148 1 0.621793 0.487098 0.494497
4219 1 0.630094 0.499437 0.496431
4152 1 0.651499 0.485938 0.498024
4150 1 0.638215 0.486386 0.496142
4221 1 0.64363 0.497634 0.49782
4154 1 0.663274 0.486662 0.498096
4225 1 0.668774 0.498822 0.498621
4156 1 0.677604 0.485555 0.499057
2830 1 0.703619 0.0115026 0.499192
2834 1 0.73037 0.010312 0.501834
2832 1 0.717035 0.011813 0.502642
2836 1 0.74346 0.00896878 0.500902
2838 1 0.758637 0.0100593 0.500068
2856 1 0.895833 0.0106577 0.501193
2857 1 0.903847 -3.78799e-05 0.502226
2858 1 0.911492 0.0130908 0.501951
2860 1 0.924227 0.0105483 0.50308
2862 1 0.938922 0.0114812 0.502757
2864 1 0.951785 0.0101063 0.502569
2868 1 0.964321 0.0108476 0.503901
2867 1 0.980149 0.0112496 0.503445
2 1 0.992338 0.0112872 0.5041
2903 1 0.724275 0.0234664 0.499456
2907 1 0.751965 0.0243684 0.499741
2909 1 0.764185 0.0249012 0.499148
2910 1 0.770347 0.0359317 0.501137
2912 1 0.794091 0.0375903 0.498953
2914 1 0.806041 0.0340854 0.499037
2922 1 0.86424 0.0350673 0.501007
2927 1 0.901393 0.0225813 0.499655
2928 1 0.909257 0.0393192 0.501735
2929 1 0.914584 0.023975 0.501564
2930 1 0.921284 0.0382274 0.503467
2931 1 0.928068 0.0233422 0.502235
2932 1 0.936314 0.0355644 0.502568
2933 1 0.942328 0.0220392 0.502983
2937 1 0.950415 0.034976 0.501023
2935 1 0.958214 0.0226821 0.502398
2938 1 0.967425 0.0322643 0.502445
2939 1 0.972489 0.0203362 0.502549
2870 1 0.979941 0.0351443 0.504012
2869 1 0.985799 0.0242917 0.502671
3007 1 0.994341 0.03445 0.504229
2954 1 0.576411 0.0596616 0.501648
2961 1 0.638647 0.0494931 0.499685
2983 1 0.802417 0.0463248 0.500489
2993 1 0.868794 0.0503362 0.499602
2995 1 0.885546 0.0497532 0.500473
2997 1 0.899738 0.0496929 0.500596
2999 1 0.916657 0.0518617 0.502236
3001 1 0.929334 0.052134 0.501541
3003 1 0.942918 0.0487191 0.500586
2934 1 0.958143 0.0474836 0.50143
71 1 0.973033 0.0485447 0.502429
2940 1 0.978672 0.0609084 0.502128
283 1 1.00065 0.0466345 0.503794
3077 1 0.988335 0.0486705 0.50363
3147 1 0.994237 0.0589589 0.501152
3013 1 0.510804 0.0742058 0.500384
3015 1 0.524614 0.0760811 0.503464
2943 1 0.52247 0.0630386 0.500862
3017 1 0.539638 0.0739968 0.502989
2949 1 0.55518 0.0726608 0.503017
2950 1 0.54977 0.0593607 0.501516
3025 1 0.568396 0.0717806 0.50356
3021 1 0.561992 0.0596772 0.503334
3023 1 0.585266 0.072936 0.503202
2955 1 0.592313 0.0635286 0.502098
3022 1 0.597374 0.0746916 0.500814
3031 1 0.640478 0.0719051 0.499356
3105 1 0.653527 0.0731507 0.501596
3035 1 0.668317 0.0748196 0.499988
2970 1 0.703846 0.0628048 0.49956
3039 1 0.696326 0.0736426 0.500701
3051 1 0.783676 0.0728606 0.500446
3053 1 0.799121 0.0737154 0.501709
3055 1 0.815802 0.0733272 0.501508
3059 1 0.843956 0.0739484 0.502364
3057 1 0.830969 0.0738914 0.500976
3061 1 0.857496 0.0722641 0.500664
2992 1 0.863109 0.0616736 0.499663
2990 1 0.848217 0.0601285 0.500902
2994 1 0.878363 0.0617584 0.500017
2996 1 0.892257 0.0640725 0.502601
3065 1 0.885954 0.0749237 0.501935
3067 1 0.901838 0.0755871 0.504199
2998 1 0.906993 0.0622778 0.502002
3000 1 0.921361 0.0655221 0.501925
3069 1 0.916732 0.0798747 0.502174
3071 1 0.930915 0.0747438 0.501521
3004 1 0.945403 0.0730909 0.500488
3005 1 0.951414 0.06053 0.500964
3006 1 0.958794 0.0736667 0.50108
2936 1 0.964898 0.0612303 0.502649
3074 1 0.974049 0.0749818 0.501653
3150 1 0.989461 0.071149 0.502136
3012 1 0.503919 0.0895713 0.501437
3014 1 0.519517 0.0895532 0.500685
3087 1 0.533212 0.0890197 0.50327
3016 1 0.546982 0.0847272 0.503897
3020 1 0.557555 0.0986904 0.504231
3091 1 0.571398 0.0959252 0.505113
3018 1 0.562181 0.0841977 0.503389
3019 1 0.576453 0.0811885 0.503839
3024 1 0.590823 0.0865044 0.502976
3093 1 0.584968 0.0958792 0.503275
3026 1 0.605045 0.083335 0.501107
3095 1 0.598931 0.0989763 0.502141
3098 1 0.611325 0.0943453 0.502621
3099 1 0.625245 0.0955819 0.49979
3029 1 0.633872 0.0836729 0.50054
3030 1 0.640493 0.0968441 0.501163
3032 1 0.648803 0.0854608 0.500807
3175 1 0.670091 0.0996816 0.503852
3103 1 0.655433 0.0985101 0.502885
3036 1 0.663245 0.0877708 0.503317
3107 1 0.683519 0.0984168 0.502663
3038 1 0.675966 0.0858198 0.503125
3109 1 0.691271 0.0859264 0.502984
3040 1 0.704884 0.0869267 0.501019
3179 1 0.697892 0.0974728 0.502202
3113 1 0.726446 0.0992018 0.500974
3111 1 0.711514 0.100041 0.501042
3115 1 0.73956 0.100067 0.50177
3048 1 0.761232 0.0865334 0.499675
3117 1 0.755522 0.0980288 0.502163
3121 1 0.785692 0.0976777 0.503994
3119 1 0.770943 0.0954422 0.502113
3050 1 0.778452 0.0856948 0.503086
3123 1 0.797828 0.0966844 0.503875
3052 1 0.79196 0.0853737 0.502841
3054 1 0.807118 0.0841837 0.502511
3125 1 0.812498 0.0971567 0.505137
3056 1 0.819991 0.0855735 0.503361
3129 1 0.843066 0.0982415 0.505401
3127 1 0.82735 0.0984817 0.505473
3058 1 0.832289 0.0876614 0.502978
3060 1 0.849652 0.0858261 0.503386
3131 1 0.859008 0.0978982 0.50513
3062 1 0.86496 0.0860845 0.503716
3064 1 0.879024 0.0862303 0.502755
3133 1 0.872625 0.0988463 0.50423
3135 1 0.885728 0.0972212 0.505334
3066 1 0.89378 0.0874548 0.504576
3068 1 0.907885 0.0874015 0.504335
3070 1 0.923739 0.0903499 0.503051
3072 1 0.936033 0.08723 0.502114
3073 1 0.951058 0.0862369 0.501509
3080 1 0.959879 0.0994077 0.503548
3143 1 0.944484 0.0991558 0.50389
3075 1 0.966512 0.0854648 0.501958
3009 1 0.975388 0.0970514 0.502915
3076 1 0.984486 0.0855533 0.503726
3149 1 0.996663 0.0821298 0.50401
3010 1 0.99006 0.0954967 0.504246
3081 1 0.50197 0.105332 0.501446
3083 1 0.514223 0.102841 0.502007
3082 1 0.509125 0.116904 0.501535
3085 1 0.528546 0.101666 0.502555
3084 1 0.522525 0.115396 0.503524
3088 1 0.534084 0.114403 0.502579
3089 1 0.542832 0.101311 0.502838
3159 1 0.549749 0.112622 0.503964
3092 1 0.561977 0.1113 0.504787
3097 1 0.577994 0.110683 0.50408
3167 1 0.591179 0.109555 0.502709
3096 1 0.605819 0.108474 0.503934
3094 1 0.600527 0.119305 0.504596
3171 1 0.622959 0.10923 0.503315
3166 1 0.614655 0.119749 0.505204
3100 1 0.634214 0.109448 0.501887
3101 1 0.648658 0.110356 0.502454
3102 1 0.664482 0.109024 0.503468
3176 1 0.673366 0.120861 0.505191
3104 1 0.67944 0.109861 0.503602
3108 1 0.691891 0.110882 0.503211
3110 1 0.704137 0.110818 0.501833
3112 1 0.720108 0.111634 0.502666
3114 1 0.735516 0.110954 0.503073
3116 1 0.750392 0.108494 0.503864
3118 1 0.764534 0.107223 0.504755
3120 1 0.778345 0.108587 0.506149
3189 1 0.770975 0.119314 0.507212
3122 1 0.790164 0.109784 0.505549
3124 1 0.803786 0.10974 0.50554
3126 1 0.818654 0.107943 0.506961
3128 1 0.835457 0.110137 0.507876
3130 1 0.851299 0.110386 0.507569
3132 1 0.866367 0.108439 0.50817
3134 1 0.880398 0.108998 0.505445
3137 1 0.90071 0.100484 0.505214
3136 1 0.892675 0.112113 0.506327
3139 1 0.914335 0.101169 0.504664
3138 1 0.908405 0.11315 0.506689
3140 1 0.921056 0.113003 0.506294
3141 1 0.929118 0.102675 0.504711
3142 1 0.935881 0.112108 0.505656
3144 1 0.952802 0.110892 0.504621
3145 1 0.968206 0.110805 0.506044
3217 1 0.982551 0.111992 0.504759
355 1 0.997311 0.113228 0.504023
3153 1 0.515967 0.12935 0.503191
3151 1 0.499999 0.126634 0.501611
3154 1 0.524425 0.140022 0.50466
3155 1 0.5278 0.126521 0.502623
3157 1 0.537331 0.138621 0.503547
3158 1 0.541798 0.126884 0.504197
3086 1 0.552529 0.136539 0.505407
3090 1 0.55659 0.125849 0.504506
3161 1 0.57161 0.123166 0.506134
3229 1 0.565906 0.137072 0.50605
3231 1 0.58113 0.133803 0.504374
3160 1 0.586098 0.121149 0.50482
3163 1 0.597459 0.134874 0.506214
3165 1 0.608354 0.131132 0.504389
3168 1 0.623505 0.132331 0.504708
3169 1 0.632211 0.121116 0.505361
3170 1 0.638113 0.13574 0.503803
3241 1 0.653981 0.13284 0.502498
3172 1 0.644364 0.12254 0.502937
3173 1 0.660144 0.121058 0.504729
3174 1 0.667237 0.132446 0.50439
3106 1 0.684562 0.122804 0.504879
3247 1 0.678644 0.133613 0.505174
3177 1 0.693498 0.134708 0.505012
3180 1 0.698361 0.122869 0.504966
3178 1 0.708611 0.1325 0.50589
3181 1 0.713743 0.121137 0.503858
3182 1 0.722224 0.135929 0.504165
3183 1 0.727734 0.126426 0.502881
3185 1 0.742233 0.122968 0.505636
3184 1 0.735135 0.136298 0.506955
3186 1 0.749743 0.134882 0.507101
3187 1 0.756288 0.120575 0.506989
3188 1 0.764966 0.132306 0.506602
3190 1 0.778062 0.134496 0.506996
3191 1 0.782965 0.120363 0.506174
3192 1 0.790914 0.13126 0.505951
3193 1 0.798001 0.122846 0.505089
3194 1 0.806357 0.13647 0.506048
3195 1 0.814547 0.122718 0.506452
3196 1 0.820501 0.137249 0.507452
3199 1 0.841989 0.124019 0.508886
3197 1 0.828847 0.120263 0.508338
3198 1 0.834724 0.138642 0.507376
3201 1 0.858419 0.123462 0.508681
3200 1 0.850494 0.135727 0.507305
3202 1 0.863727 0.134623 0.508941
3203 1 0.872398 0.121499 0.508931
3204 1 0.877188 0.135265 0.509733
3207 1 0.901128 0.124309 0.508689
3205 1 0.88686 0.124739 0.509159
3206 1 0.894023 0.137952 0.507836
3209 1 0.915547 0.124618 0.507176
3208 1 0.908756 0.136116 0.508457
3210 1 0.923393 0.138687 0.50698
3212 1 0.937133 0.134041 0.50624
3211 1 0.930027 0.122307 0.506513
3213 1 0.945612 0.122077 0.505359
3215 1 0.960545 0.122043 0.504032
3214 1 0.953378 0.136322 0.505395
3216 1 0.967081 0.135803 0.504529
3146 1 0.974038 0.122857 0.505817
3218 1 0.981261 0.13772 0.505619
3148 1 0.988293 0.123112 0.505473
3220 1 0.995372 0.139633 0.505719
3152 1 0.508302 0.140003 0.502752
3223 1 0.515293 0.150656 0.504756
3221 1 0.498728 0.151509 0.503851
3224 1 0.529381 0.152258 0.50493
3228 1 0.544266 0.149544 0.506667
3299 1 0.558457 0.151084 0.506674
3230 1 0.572252 0.147214 0.505064
3164 1 0.587081 0.147135 0.505511
3162 1 0.600606 0.148023 0.504387
3235 1 0.614812 0.142188 0.504352
3237 1 0.630644 0.14511 0.505373
3238 1 0.621463 0.155749 0.504636
3239 1 0.646467 0.147391 0.502845
3240 1 0.635238 0.157138 0.504231
3243 1 0.658059 0.146407 0.503283
3245 1 0.672381 0.145999 0.504273
3246 1 0.685528 0.145548 0.504465
3248 1 0.680472 0.158868 0.503489
3249 1 0.700209 0.146528 0.50502
3317 1 0.692423 0.156278 0.505909
3250 1 0.705465 0.159876 0.505057
3251 1 0.714821 0.146103 0.506475
3252 1 0.722257 0.160919 0.505301
3253 1 0.727701 0.14807 0.506969
3255 1 0.741961 0.148049 0.507238
3254 1 0.73633 0.158087 0.505692
3257 1 0.756322 0.144277 0.507092
3256 1 0.750282 0.158635 0.506264
3259 1 0.770764 0.147998 0.50815
3261 1 0.784906 0.146107 0.508301
3263 1 0.798563 0.144223 0.507205
3262 1 0.792971 0.158513 0.508016
3265 1 0.810536 0.150369 0.507282
3266 1 0.819703 0.159998 0.506719
3267 1 0.828131 0.150695 0.506857
3269 1 0.843696 0.14887 0.508093
3271 1 0.859336 0.147985 0.507077
3273 1 0.871108 0.148655 0.507934
3274 1 0.877076 0.161107 0.50725
3275 1 0.886032 0.148 0.508239
3277 1 0.900984 0.151657 0.508745
3279 1 0.916136 0.149117 0.506627
3281 1 0.931118 0.15171 0.506793
3283 1 0.943108 0.147394 0.504176
3285 1 0.960913 0.147833 0.503672
3284 1 0.95359 0.157277 0.504153
3287 1 0.973848 0.149446 0.504218
3289 1 0.989146 0.150482 0.505296
3291 1 0.499282 0.176651 0.504882
3222 1 0.508471 0.161753 0.504881
3293 1 0.511387 0.175312 0.505584
3296 1 0.521841 0.16225 0.504527
3225 1 0.533617 0.163317 0.506341
3156 1 0.526672 0.173169 0.506029
3227 1 0.548423 0.162182 0.506873
3297 1 0.541793 0.1737 0.50689
3226 1 0.55681 0.171328 0.506924
3301 1 0.565214 0.160476 0.506113
3300 1 0.571222 0.173592 0.507562
3232 1 0.578811 0.162504 0.505274
3233 1 0.594208 0.161017 0.5058
3303 1 0.586077 0.173988 0.507142
3236 1 0.607765 0.160403 0.505383
3234 1 0.601847 0.171436 0.506227
3305 1 0.615822 0.1695 0.505404
3309 1 0.629466 0.17055 0.505586
3242 1 0.64825 0.162835 0.503227
3313 1 0.64318 0.173061 0.504037
3315 1 0.665358 0.158746 0.501787
3244 1 0.658502 0.172237 0.503247
3316 1 0.672605 0.170307 0.501167
3383 1 0.687467 0.170026 0.504237
3319 1 0.699334 0.168941 0.505391
3321 1 0.711736 0.169688 0.504899
3323 1 0.730158 0.171208 0.506567
3325 1 0.745231 0.172675 0.508176
3258 1 0.764808 0.161523 0.507649
3327 1 0.759189 0.173158 0.509528
3331 1 0.787601 0.171738 0.507894
3329 1 0.773671 0.173262 0.50961
3260 1 0.776458 0.161125 0.507457
3264 1 0.805069 0.16057 0.507775
3333 1 0.798861 0.175934 0.508058
3335 1 0.811662 0.171458 0.507145
3339 1 0.840556 0.173226 0.506864
3337 1 0.826639 0.173 0.507815
3268 1 0.835164 0.160339 0.507343
3270 1 0.848867 0.16215 0.507981
3341 1 0.856236 0.173001 0.50815
3272 1 0.863533 0.161704 0.508186
3343 1 0.87197 0.172478 0.508584
3276 1 0.891219 0.162973 0.506804
3345 1 0.883896 0.173979 0.506211
3347 1 0.898289 0.172473 0.504278
3278 1 0.907567 0.161365 0.505756
3280 1 0.922868 0.16035 0.505779
3349 1 0.914974 0.174277 0.505912
3282 1 0.937732 0.161543 0.503227
3351 1 0.929649 0.173249 0.504035
3353 1 0.944908 0.174543 0.50273
3355 1 0.956717 0.171041 0.504027
3286 1 0.967522 0.161755 0.504243
3357 1 0.97264 0.175668 0.503507
3288 1 0.981842 0.162016 0.505239
3290 1 0.997749 0.163217 0.505034
3358 1 0.989629 0.175751 0.504939
3294 1 0.505543 0.188844 0.506072
3364 1 0.514609 0.199508 0.505573
3365 1 0.519286 0.186166 0.506552
3367 1 0.533944 0.184023 0.50621
3368 1 0.527575 0.197064 0.507608
3298 1 0.550299 0.185185 0.506975
3439 1 0.541986 0.197013 0.507991
3369 1 0.55858 0.196867 0.507464
3295 1 0.564656 0.182699 0.507394
3302 1 0.572196 0.194847 0.508603
3371 1 0.580443 0.185179 0.507654
3304 1 0.594049 0.183294 0.505668
3373 1 0.58516 0.197379 0.508336
3377 1 0.609285 0.183297 0.50704
3308 1 0.615094 0.19512 0.507315
3306 1 0.600284 0.194682 0.509019
3307 1 0.623931 0.185223 0.50606
3379 1 0.628572 0.197084 0.505815
3311 1 0.635016 0.184749 0.505477
3312 1 0.650462 0.184968 0.504278
3310 1 0.642463 0.196356 0.505502
3381 1 0.664978 0.182828 0.503944
3382 1 0.657033 0.197396 0.50606
3314 1 0.671009 0.196507 0.505526
3318 1 0.678196 0.183288 0.50225
3387 1 0.6838 0.196944 0.503725
3391 1 0.706927 0.18593 0.502925
3320 1 0.692662 0.183523 0.503367
3389 1 0.699022 0.197172 0.503748
3322 1 0.720299 0.185604 0.505514
3393 1 0.714516 0.200227 0.503627
3465 1 0.728854 0.197935 0.505588
3324 1 0.735905 0.186252 0.507704
3395 1 0.742767 0.198329 0.506351
3326 1 0.75216 0.184229 0.50867
3328 1 0.76625 0.184283 0.510132
3399 1 0.757396 0.198751 0.506801
3330 1 0.779612 0.184344 0.509357
3397 1 0.77049 0.19659 0.509024
3401 1 0.785005 0.198026 0.509233
3332 1 0.791117 0.185687 0.508064
3403 1 0.799429 0.19771 0.507671
3334 1 0.807012 0.186534 0.507559
3336 1 0.822377 0.185334 0.506676
3405 1 0.812983 0.198112 0.507847
3338 1 0.835177 0.184529 0.506841
3407 1 0.827973 0.200124 0.506366
3409 1 0.84117 0.197043 0.507807
3340 1 0.848663 0.184949 0.507913
3342 1 0.861552 0.186954 0.50898
3344 1 0.87579 0.186493 0.508066
3415 1 0.884308 0.198378 0.508666
3413 1 0.869133 0.1976 0.509125
3346 1 0.890879 0.187008 0.506334
3417 1 0.899811 0.198621 0.506025
3348 1 0.90611 0.185048 0.505126
3419 1 0.915271 0.197692 0.505135
3350 1 0.923807 0.184576 0.504354
3352 1 0.936356 0.18586 0.50344
3421 1 0.929679 0.197354 0.502666
3423 1 0.945051 0.197577 0.503642
3354 1 0.951383 0.186555 0.503783
3425 1 0.959291 0.198709 0.502323
3427 1 0.963312 0.184167 0.503565
3359 1 0.978031 0.188201 0.505508
3429 1 0.993112 0.189071 0.505237
561 1 0.987222 0.199068 0.506053
3362 1 0.504446 0.210962 0.506426
3366 1 0.520648 0.211581 0.50835
3435 1 0.535025 0.207852 0.508296
3437 1 0.550365 0.208927 0.507398
3441 1 0.563048 0.21279 0.509583
3374 1 0.577748 0.210768 0.509628
3375 1 0.592113 0.208219 0.51053
3376 1 0.607886 0.207145 0.510578
3447 1 0.612632 0.220029 0.509624
3378 1 0.621558 0.208553 0.507908
3449 1 0.627392 0.21932 0.507499
3380 1 0.637119 0.207784 0.50724
3454 1 0.64983 0.208249 0.505158
3384 1 0.664226 0.210331 0.50434
3385 1 0.677466 0.209662 0.505094
3388 1 0.691217 0.210696 0.504247
3392 1 0.70628 0.21081 0.5041
3394 1 0.721504 0.21085 0.503502
3464 1 0.736099 0.21171 0.505443
3398 1 0.750989 0.213364 0.506834
3469 1 0.763102 0.21278 0.509312
3400 1 0.775939 0.210238 0.509261
3402 1 0.791726 0.210397 0.508371
3404 1 0.807202 0.211083 0.508442
3406 1 0.820059 0.212057 0.507809
3408 1 0.834416 0.211837 0.506067
3411 1 0.854241 0.199302 0.507887
3410 1 0.848885 0.213579 0.506725
3412 1 0.863162 0.210965 0.507757
3414 1 0.876678 0.211063 0.509073
3416 1 0.891419 0.211554 0.508479
3418 1 0.907155 0.212028 0.504871
3420 1 0.922809 0.211577 0.504688
3422 1 0.938056 0.209665 0.504697
3424 1 0.951584 0.208335 0.503684
3356 1 0.97305 0.202361 0.503638
3426 1 0.965285 0.21204 0.503366
3428 1 0.979561 0.212275 0.505039
3430 1 0.994638 0.210587 0.505898
3433 1 0.512244 0.224416 0.506971
3431 1 0.501799 0.233943 0.507985
3503 1 0.52585 0.225152 0.508814
3502 1 0.520168 0.236503 0.506995
3434 1 0.534692 0.235231 0.507747
3436 1 0.539929 0.220311 0.507923
3438 1 0.547565 0.236048 0.508864
3440 1 0.5536 0.222802 0.510204
3370 1 0.568758 0.225254 0.510067
3511 1 0.561633 0.23641 0.509248
3442 1 0.584025 0.222997 0.510055
3444 1 0.590723 0.236496 0.51104
3443 1 0.577991 0.237073 0.510392
3445 1 0.598368 0.222541 0.509348
3446 1 0.605869 0.233878 0.511007
3448 1 0.618138 0.23107 0.509598
3450 1 0.633484 0.232128 0.507342
3451 1 0.640476 0.219878 0.508255
3452 1 0.650339 0.235682 0.506363
3453 1 0.655392 0.221825 0.506806
3456 1 0.663478 0.235675 0.506935
3455 1 0.669939 0.222617 0.506553
3386 1 0.684229 0.2228 0.506028
3457 1 0.678168 0.235463 0.50721
3458 1 0.69284 0.233051 0.50586
3459 1 0.699393 0.223223 0.505221
3460 1 0.704902 0.235789 0.505542
3390 1 0.71244 0.224259 0.504573
3461 1 0.726512 0.223373 0.50417
3462 1 0.71848 0.235615 0.506594
3396 1 0.741502 0.224378 0.505214
3463 1 0.733071 0.236389 0.506252
3466 1 0.747669 0.236517 0.506597
3467 1 0.756979 0.226178 0.508431
3468 1 0.763308 0.23638 0.507635
3470 1 0.777519 0.236803 0.506923
3471 1 0.785287 0.224486 0.508749
3473 1 0.798957 0.222318 0.507958
3472 1 0.792213 0.235666 0.506081
3474 1 0.805511 0.235895 0.504913
3475 1 0.812586 0.222693 0.507684
3476 1 0.818945 0.237208 0.504812
3477 1 0.827721 0.225612 0.505976
3478 1 0.834503 0.236147 0.505837
3479 1 0.841005 0.22509 0.506631
3481 1 0.85832 0.224801 0.50671
3480 1 0.849399 0.235068 0.505832
3482 1 0.863426 0.238017 0.504405
3483 1 0.871095 0.223579 0.505958
3484 1 0.878944 0.236352 0.505323
3485 1 0.883082 0.222841 0.507152
3487 1 0.898295 0.223805 0.506808
3486 1 0.892697 0.236893 0.50668
3489 1 0.913515 0.22492 0.503979
3488 1 0.905477 0.237631 0.50602
3490 1 0.922741 0.235681 0.503889
3491 1 0.930362 0.222321 0.505121
3492 1 0.937911 0.231975 0.504431
3493 1 0.945593 0.221766 0.504777
3495 1 0.957918 0.223284 0.504879
3494 1 0.951378 0.235457 0.504874
3497 1 0.971076 0.224195 0.504004
3496 1 0.965608 0.236146 0.502917
3498 1 0.979961 0.23816 0.505544
3499 1 0.986019 0.224364 0.506376
631 1 0.994338 0.237207 0.506008
3571 1 0.512028 0.247488 0.506554
3505 1 0.525555 0.249051 0.507818
3504 1 0.533632 0.259867 0.506843
3573 1 0.520338 0.261114 0.505915
3507 1 0.53905 0.24885 0.508972
3509 1 0.555075 0.247999 0.507054
3372 1 0.57078 0.249403 0.508549
3513 1 0.583525 0.248171 0.509576
3514 1 0.594207 0.258765 0.50872
3515 1 0.598897 0.245977 0.508103
3517 1 0.613617 0.244606 0.508234
3516 1 0.608597 0.256268 0.507748
3519 1 0.62828 0.246317 0.507896
3518 1 0.620358 0.258296 0.508159
3521 1 0.640939 0.245859 0.508701
3520 1 0.634541 0.258475 0.509396
3523 1 0.655625 0.24852 0.50631
3525 1 0.672249 0.247079 0.506377
3524 1 0.665235 0.259329 0.506531
3527 1 0.686066 0.246332 0.506014
3526 1 0.678886 0.258296 0.506403
3529 1 0.699879 0.247178 0.506203
3528 1 0.693563 0.259508 0.506874
3531 1 0.712718 0.248741 0.506457
3533 1 0.725927 0.248197 0.505751
3535 1 0.740106 0.24959 0.506738
3537 1 0.756197 0.24984 0.508475
3539 1 0.769295 0.248421 0.50839
3541 1 0.785839 0.247721 0.505636
3540 1 0.777325 0.259601 0.506172
3543 1 0.799375 0.249944 0.505162
3545 1 0.812797 0.25029 0.503454
3547 1 0.828095 0.250231 0.504178
3549 1 0.840212 0.24754 0.503687
3551 1 0.855718 0.248315 0.504773
3550 1 0.849518 0.260199 0.504199
3552 1 0.864004 0.255805 0.502476
3553 1 0.873138 0.248187 0.504042
3555 1 0.884613 0.249103 0.503206
3557 1 0.904076 0.247764 0.502356
3556 1 0.894788 0.258715 0.500628
3559 1 0.915889 0.244881 0.503598
3558 1 0.910302 0.259628 0.501423
3560 1 0.923473 0.255957 0.503413
3561 1 0.930891 0.245667 0.503867
3562 1 0.937563 0.257632 0.502591
3563 1 0.944292 0.245545 0.50486
3565 1 0.958072 0.248587 0.503854
3567 1 0.971122 0.250053 0.504016
3569 1 0.987009 0.249754 0.50526
770 1 0.501255 0.273598 0.504694
3572 1 0.505926 0.259942 0.505589
3574 1 0.51441 0.272356 0.50619
3575 1 0.529243 0.271941 0.50833
3510 1 0.547503 0.260968 0.507092
3508 1 0.541369 0.273666 0.508368
3579 1 0.55443 0.273601 0.507615
3581 1 0.562191 0.261537 0.507237
3583 1 0.570873 0.27134 0.508941
3512 1 0.580403 0.260845 0.507606
3585 1 0.585612 0.272864 0.508539
3584 1 0.600832 0.270857 0.50816
3587 1 0.614015 0.26999 0.507692
3588 1 0.625239 0.27094 0.50813
3522 1 0.64819 0.258745 0.508129
3591 1 0.639426 0.273098 0.508609
3593 1 0.655329 0.272513 0.506955
3595 1 0.668542 0.274509 0.506927
3597 1 0.68655 0.270636 0.508254
3530 1 0.706617 0.261523 0.505534
3599 1 0.700074 0.273918 0.507525
3532 1 0.720876 0.260795 0.505631
3601 1 0.714753 0.274826 0.504934
3603 1 0.729417 0.273631 0.505449
3534 1 0.734153 0.261757 0.50537
3605 1 0.743355 0.275269 0.505812
3536 1 0.750312 0.261657 0.506561
3538 1 0.762532 0.263435 0.506898
3607 1 0.756475 0.277613 0.50632
3611 1 0.785159 0.271943 0.505651
3609 1 0.771368 0.273859 0.505005
3542 1 0.792177 0.260518 0.505759
3613 1 0.797561 0.274512 0.505101
3544 1 0.805144 0.262578 0.505038
3546 1 0.821281 0.263923 0.50275
3615 1 0.811505 0.274053 0.501745
3617 1 0.826944 0.273889 0.49968
3548 1 0.835928 0.262415 0.502062
3621 1 0.857893 0.26948 0.501115
3554 1 0.879942 0.259793 0.501075
3623 1 0.872606 0.272038 0.499412
3625 1 0.887601 0.272622 0.499125
3629 1 0.916282 0.274896 0.499794
3631 1 0.928781 0.268639 0.501431
3633 1 0.944524 0.270667 0.502783
3564 1 0.950622 0.260463 0.502524
3635 1 0.956012 0.274311 0.503513
3566 1 0.96301 0.261743 0.504448
3568 1 0.978209 0.261159 0.502971
3637 1 0.969099 0.273468 0.50293
3570 1 0.994521 0.261224 0.502846
3639 1 0.985819 0.274808 0.503376
840 1 0.506471 0.287879 0.506629
3643 1 0.515478 0.296848 0.507477
3576 1 0.522221 0.286145 0.507802
3506 1 0.537301 0.285548 0.508397
3645 1 0.527205 0.298791 0.507936
3577 1 0.548598 0.284598 0.508808
3647 1 0.541685 0.298641 0.5093
3649 1 0.558428 0.297745 0.510015
3651 1 0.572794 0.295691 0.509607
3580 1 0.564081 0.284302 0.509063
3578 1 0.578586 0.28452 0.509535
3653 1 0.58671 0.300161 0.508186
3582 1 0.592327 0.286816 0.508075
3655 1 0.601839 0.299585 0.507962
3586 1 0.604306 0.283282 0.507933
3657 1 0.612721 0.295732 0.509055
3590 1 0.633994 0.284609 0.508924
3659 1 0.627479 0.296767 0.509793
3589 1 0.618653 0.284549 0.50792
3592 1 0.648044 0.283781 0.508637
3661 1 0.643257 0.297014 0.509661
3594 1 0.662494 0.28463 0.508292
3665 1 0.670526 0.297436 0.508309
3663 1 0.656152 0.297412 0.507917
3596 1 0.67742 0.284667 0.509062
3667 1 0.684282 0.296116 0.508876
3598 1 0.691206 0.286314 0.50675
3600 1 0.706657 0.287292 0.506165
3669 1 0.698125 0.300803 0.50607
3602 1 0.720782 0.287197 0.505734
3673 1 0.729037 0.300086 0.506541
3604 1 0.736416 0.288314 0.50593
3606 1 0.750218 0.28883 0.506096
3608 1 0.767937 0.287676 0.504929
3677 1 0.757739 0.299401 0.505766
3610 1 0.780269 0.284708 0.503969
3681 1 0.785988 0.300247 0.503538
3612 1 0.793367 0.289733 0.504669
3614 1 0.807787 0.285737 0.502077
3616 1 0.821075 0.285856 0.502102
3685 1 0.816266 0.298925 0.502835
3687 1 0.829288 0.297061 0.502243
3689 1 0.841448 0.298938 0.500183
3624 1 0.880357 0.28549 0.499208
3630 1 0.922312 0.286177 0.502006
3699 1 0.915379 0.299203 0.500841
3632 1 0.93479 0.28135 0.502795
3701 1 0.927093 0.298827 0.501488
3703 1 0.93993 0.297676 0.503163
3634 1 0.947544 0.28571 0.50218
3705 1 0.954904 0.296825 0.502208
3636 1 0.962114 0.287203 0.503895
3638 1 0.97651 0.28566 0.503672
3707 1 0.971266 0.297877 0.502187
3640 1 0.989633 0.287778 0.502752
841 1 0.998078 0.298913 0.504619
3709 1 0.984837 0.298841 0.503923
3642 1 0.508483 0.308482 0.506654
3644 1 0.522819 0.309731 0.508328
3646 1 0.536797 0.31167 0.508835
3648 1 0.551381 0.310863 0.509494
3650 1 0.565765 0.309503 0.511005
3652 1 0.57788 0.310012 0.510154
3654 1 0.594588 0.311533 0.507741
3656 1 0.608366 0.312138 0.508394
3658 1 0.621489 0.310543 0.509424
3660 1 0.635663 0.309967 0.510341
3662 1 0.651809 0.309311 0.509959
3664 1 0.665726 0.310592 0.508864
3666 1 0.67967 0.310665 0.508444
3668 1 0.6931 0.313501 0.508088
3670 1 0.707099 0.312294 0.506669
3671 1 0.713332 0.302019 0.506259
3672 1 0.723505 0.312341 0.50703
3675 1 0.741799 0.300752 0.506056
3674 1 0.737713 0.314636 0.506015
3676 1 0.752319 0.311569 0.505131
3678 1 0.765684 0.312303 0.506516
3679 1 0.771559 0.302807 0.505116
3680 1 0.779 0.314055 0.504766
3683 1 0.802264 0.30043 0.503997
3682 1 0.793631 0.313682 0.504762
3684 1 0.80875 0.314407 0.505085
3686 1 0.821046 0.310644 0.503216
3688 1 0.834926 0.311025 0.502178
3690 1 0.848055 0.311173 0.500841
3692 1 0.861927 0.313118 0.501662
3694 1 0.875248 0.309664 0.500251
3696 1 0.890863 0.310195 0.500256
3698 1 0.906292 0.309947 0.500392
3700 1 0.920486 0.310445 0.500297
3702 1 0.935397 0.309997 0.5016
3704 1 0.949814 0.309038 0.501754
3706 1 0.965811 0.311394 0.503557
3708 1 0.979451 0.310275 0.50352
3710 1 0.994375 0.310389 0.503821
3711 1 0.505229 0.323269 0.505467
3713 1 0.517165 0.321229 0.507332
3712 1 0.507786 0.334124 0.508015
3715 1 0.529225 0.325655 0.508622
3716 1 0.535676 0.336696 0.508137
3714 1 0.521111 0.336012 0.507481
3717 1 0.543039 0.324202 0.50833
3718 1 0.551502 0.336753 0.508746
3719 1 0.558456 0.323466 0.510692
3721 1 0.5728 0.321847 0.508807
3720 1 0.566295 0.333303 0.50806
3722 1 0.579629 0.333529 0.506434
3723 1 0.586579 0.320504 0.5082
3724 1 0.594634 0.337433 0.506984
3725 1 0.602912 0.324738 0.509197
3726 1 0.609808 0.334837 0.50682
3727 1 0.617481 0.32411 0.509154
3729 1 0.631197 0.322865 0.509031
3728 1 0.62429 0.335309 0.507714
3730 1 0.637807 0.335336 0.508649
3731 1 0.643959 0.32174 0.509982
3732 1 0.651144 0.333171 0.506999
3733 1 0.65916 0.32127 0.508363
3734 1 0.664065 0.334176 0.506731
3735 1 0.673602 0.323774 0.507691
3737 1 0.686041 0.323587 0.508147
3736 1 0.679321 0.33521 0.505913
3739 1 0.701794 0.323124 0.506848
3740 1 0.706564 0.33655 0.506293
3738 1 0.693998 0.333825 0.506911
3741 1 0.713797 0.323506 0.507027
3742 1 0.721158 0.335406 0.504702
3743 1 0.729031 0.324531 0.505162
3745 1 0.744767 0.32434 0.504522
3744 1 0.735683 0.336987 0.504326
3746 1 0.751058 0.3371 0.504772
3748 1 0.763531 0.335776 0.506032
3747 1 0.758005 0.323748 0.506599
3751 1 0.786927 0.328996 0.50485
3750 1 0.778233 0.340338 0.505166
3749 1 0.772284 0.327689 0.50596
3753 1 0.801204 0.327333 0.504992
3754 1 0.808648 0.33776 0.503984
3755 1 0.815468 0.327137 0.504771
3757 1 0.826478 0.325524 0.502946
3759 1 0.839229 0.324133 0.503208
3760 1 0.849857 0.340714 0.5019
3761 1 0.854708 0.327634 0.50261
3762 1 0.863083 0.336987 0.502904
3763 1 0.871279 0.323491 0.501069
3764 1 0.876867 0.337711 0.501471
3765 1 0.884797 0.324404 0.50046
3767 1 0.899919 0.322012 0.502003
3766 1 0.89431 0.33927 0.501327
3769 1 0.915216 0.323966 0.501716
3770 1 0.922539 0.33745 0.502385
3768 1 0.909743 0.335577 0.502651
3773 1 0.942758 0.322702 0.501807
3771 1 0.929336 0.322848 0.501372
3772 1 0.934992 0.33495 0.502687
3775 1 0.957043 0.322277 0.503825
3774 1 0.95043 0.333971 0.50165
3778 1 0.979519 0.336 0.50437
3777 1 0.971876 0.322585 0.504335
3776 1 0.964525 0.335651 0.502897
911 1 0.998049 0.325015 0.503853
3780 1 0.991741 0.337665 0.502974
3779 1 0.983755 0.323294 0.503155
3783 1 0.510127 0.350578 0.50739
3785 1 0.526803 0.346981 0.506802
3787 1 0.542966 0.348854 0.507265
3789 1 0.557991 0.349165 0.507654
3788 1 0.551036 0.360272 0.50612
3791 1 0.572418 0.345086 0.506058
3790 1 0.563273 0.361863 0.504243
3793 1 0.586944 0.347732 0.505309
3794 1 0.593528 0.358703 0.504468
3792 1 0.577847 0.357771 0.504465
3795 1 0.603009 0.347637 0.505755
3796 1 0.60797 0.361494 0.503671
3797 1 0.614658 0.346745 0.50511
3799 1 0.629208 0.348668 0.506999
3798 1 0.619819 0.359608 0.505014
3801 1 0.645392 0.347722 0.505772
3800 1 0.637768 0.360259 0.504784
3803 1 0.657898 0.346671 0.505175
3805 1 0.670927 0.348884 0.504701
3807 1 0.687606 0.345813 0.505952
3806 1 0.68127 0.35811 0.504905
3809 1 0.69953 0.347496 0.505243
3811 1 0.713263 0.348496 0.504538
3813 1 0.72661 0.349995 0.504247
3815 1 0.740616 0.349117 0.505038
3817 1 0.755248 0.351121 0.505227
3819 1 0.769003 0.351091 0.505247
3821 1 0.784565 0.352495 0.503339
3752 1 0.793812 0.33995 0.504701
3823 1 0.799634 0.351488 0.505595
3756 1 0.822056 0.339502 0.503038
3825 1 0.814437 0.352603 0.504842
3758 1 0.836628 0.339307 0.503659
3827 1 0.829665 0.353343 0.503506
3829 1 0.84508 0.353453 0.503439
3831 1 0.857395 0.351448 0.502508
3833 1 0.871495 0.349877 0.502477
3835 1 0.886321 0.351001 0.502312
3837 1 0.900809 0.351281 0.502892
3839 1 0.914583 0.350074 0.503126
3843 1 0.941551 0.350323 0.501914
3841 1 0.928143 0.351423 0.503128
3845 1 0.956762 0.348477 0.501623
3847 1 0.971817 0.348251 0.50259
3849 1 0.985966 0.349198 0.50287
981 1 1.0012 0.349134 0.50271
3782 1 0.506514 0.363598 0.507018
3853 1 0.512947 0.373387 0.50631
3786 1 0.536062 0.361576 0.505778
3784 1 0.521511 0.358957 0.505451
3855 1 0.527129 0.374752 0.506772
3857 1 0.543468 0.371441 0.505282
3859 1 0.558647 0.372449 0.504577
3861 1 0.573628 0.372479 0.504583
3863 1 0.586186 0.371451 0.503312
3865 1 0.600518 0.372402 0.504363
3867 1 0.614437 0.372196 0.50339
3869 1 0.629067 0.369856 0.503971
3802 1 0.65154 0.360694 0.504108
3871 1 0.642713 0.37088 0.502736
3804 1 0.666693 0.362082 0.50349
3873 1 0.656279 0.373501 0.503209
3875 1 0.671399 0.373802 0.503792
3877 1 0.684477 0.372939 0.504153
3808 1 0.693299 0.361639 0.504134
3810 1 0.70749 0.361571 0.504176
3879 1 0.698812 0.373573 0.501871
3812 1 0.720856 0.364135 0.504043
3881 1 0.71328 0.374777 0.502679
3883 1 0.729688 0.375941 0.502783
3814 1 0.734867 0.361494 0.503972
3816 1 0.748612 0.362628 0.50467
3885 1 0.743044 0.374105 0.504089
3887 1 0.756057 0.375141 0.504798
3818 1 0.76368 0.364868 0.504159
3820 1 0.779239 0.36494 0.504691
3889 1 0.773118 0.378812 0.503122
3891 1 0.788188 0.376676 0.502422
3893 1 0.800196 0.378123 0.504087
3822 1 0.795044 0.363514 0.504385
3824 1 0.808847 0.36521 0.505224
3826 1 0.822193 0.364861 0.50459
3895 1 0.814615 0.37716 0.505309
3897 1 0.828437 0.377794 0.504321
3899 1 0.843509 0.377896 0.50379
3828 1 0.836281 0.367675 0.503211
3832 1 0.862803 0.363376 0.503128
3901 1 0.85797 0.377471 0.504069
3830 1 0.849362 0.364951 0.502597
3903 1 0.872262 0.377666 0.503604
3834 1 0.87832 0.3634 0.503659
3836 1 0.893647 0.363649 0.503394
3905 1 0.886116 0.376474 0.503391
3907 1 0.897956 0.377221 0.504053
3840 1 0.920163 0.36295 0.502435
3838 1 0.908547 0.362427 0.502458
3909 1 0.910666 0.377803 0.505052
3913 1 0.941463 0.373509 0.500373
3842 1 0.934396 0.364053 0.503505
3911 1 0.926287 0.37583 0.502424
3844 1 0.948321 0.363944 0.501009
3846 1 0.96301 0.362217 0.500827
3848 1 0.974697 0.359971 0.501504
3921 1 0.500465 0.398852 0.504021
3852 1 0.508163 0.38715 0.504542
3854 1 0.521284 0.387049 0.505838
3856 1 0.535366 0.385828 0.506293
3858 1 0.546687 0.385644 0.504905
3929 1 0.555759 0.397996 0.505159
3860 1 0.564099 0.384637 0.504738
3931 1 0.569933 0.398567 0.50311
3862 1 0.580273 0.384809 0.502746
3864 1 0.59532 0.384003 0.503087
3933 1 0.585308 0.396364 0.500098
3866 1 0.607733 0.385809 0.503637
3937 1 0.614028 0.396469 0.499933
3868 1 0.621243 0.38335 0.502538
3872 1 0.650851 0.384152 0.502015
3941 1 0.643391 0.39529 0.500175
3870 1 0.636577 0.382798 0.501453
3874 1 0.663099 0.386131 0.502853
3945 1 0.671515 0.397813 0.501396
3876 1 0.6784 0.38428 0.502708
3947 1 0.685047 0.39917 0.501745
3878 1 0.69259 0.387706 0.501428
3880 1 0.70753 0.385818 0.503848
3949 1 0.699636 0.398643 0.503132
3882 1 0.721616 0.387932 0.503415
3951 1 0.712379 0.400543 0.503684
3953 1 0.727823 0.399588 0.503729
3884 1 0.73552 0.388092 0.502604
3886 1 0.750112 0.386948 0.503602
3888 1 0.762547 0.388371 0.50359
3890 1 0.779613 0.389554 0.502457
3892 1 0.79342 0.39132 0.503506
3894 1 0.807174 0.390837 0.505442
3896 1 0.822953 0.390405 0.504399
3898 1 0.836021 0.388326 0.504088
3900 1 0.84987 0.39037 0.503519
3902 1 0.8645 0.390884 0.503944
3904 1 0.878821 0.388758 0.5055
3973 1 0.872378 0.400276 0.506094
3906 1 0.890486 0.390392 0.504761
3908 1 0.904116 0.390236 0.505742
3910 1 0.91879 0.389383 0.505263
3912 1 0.934695 0.384907 0.502238
3983 1 0.940759 0.398943 0.502152
3914 1 0.948733 0.387043 0.501472
3923 1 0.513001 0.400257 0.50399
3922 1 0.506962 0.41185 0.503928
3925 1 0.527183 0.39977 0.503633
3924 1 0.521612 0.414205 0.50342
3926 1 0.536173 0.413696 0.503434
3927 1 0.54114 0.401998 0.50406
3928 1 0.550117 0.41616 0.501475
3930 1 0.564634 0.41253 0.502305
3932 1 0.578445 0.408287 0.499812
3944 1 0.66402 0.408748 0.501653
3946 1 0.678394 0.409188 0.501494
3948 1 0.692487 0.410066 0.501972
3950 1 0.705425 0.411467 0.502885
3954 1 0.718792 0.411639 0.50143
3955 1 0.744719 0.402416 0.501851
4025 1 0.733343 0.411037 0.501192
3956 1 0.749378 0.413846 0.503396
3957 1 0.758671 0.399217 0.503066
3958 1 0.764284 0.412352 0.502674
3959 1 0.774065 0.40335 0.502783
3960 1 0.783926 0.415781 0.50263
3961 1 0.786835 0.401897 0.502539
3963 1 0.799334 0.402629 0.505111
3962 1 0.7952 0.41719 0.504731
3964 1 0.807752 0.414775 0.505074
3965 1 0.814724 0.401523 0.505794
3966 1 0.822827 0.413421 0.505312
3968 1 0.834814 0.413227 0.506503
3969 1 0.845011 0.402196 0.504836
3967 1 0.830353 0.40088 0.506382
3971 1 0.859488 0.402064 0.505051
3970 1 0.850326 0.415881 0.505943
3972 1 0.863906 0.415627 0.506979
3974 1 0.87532 0.412936 0.506741
3975 1 0.884289 0.402296 0.506867
3977 1 0.89939 0.404965 0.505254
3976 1 0.889173 0.414897 0.505255
3979 1 0.913854 0.4039 0.50641
3980 1 0.920976 0.414979 0.505788
3978 1 0.904998 0.415198 0.505091
3981 1 0.926485 0.403287 0.503874
3982 1 0.933826 0.41701 0.504273
3984 1 0.947376 0.411502 0.502747
3986 1 0.962508 0.414872 0.500133
3985 1 0.9546 0.402038 0.500744
3993 1 0.513067 0.425102 0.50338
3992 1 0.509521 0.437338 0.504085
3994 1 0.524036 0.436362 0.503112
3995 1 0.528481 0.424026 0.501952
3996 1 0.535187 0.438121 0.502005
3997 1 0.543706 0.426376 0.501994
4013 1 0.654247 0.421011 0.499808
4014 1 0.66389 0.433102 0.499977
4015 1 0.670253 0.422647 0.501435
4017 1 0.685886 0.421698 0.502599
4016 1 0.679867 0.434306 0.501085
4018 1 0.692427 0.435615 0.501276
4019 1 0.698728 0.425009 0.502101
4020 1 0.706914 0.436855 0.501803
4021 1 0.712097 0.424583 0.500978
4022 1 0.72299 0.437849 0.503002
3952 1 0.725427 0.42417 0.500692
4023 1 0.738633 0.425209 0.503139
4024 1 0.737112 0.438268 0.503099
4027 1 0.758503 0.425141 0.503489
4026 1 0.749962 0.438146 0.502557
4028 1 0.765269 0.436927 0.503643
4029 1 0.773678 0.424222 0.503314
4031 1 0.788884 0.429636 0.50452
4033 1 0.800888 0.426713 0.50448
4034 1 0.805692 0.438015 0.505949
4035 1 0.815442 0.426172 0.505198
4036 1 0.821047 0.436912 0.506839
4037 1 0.827167 0.424258 0.50785
4039 1 0.842565 0.425883 0.506914
4038 1 0.835305 0.437123 0.506691
4041 1 0.857247 0.428104 0.506715
4040 1 0.850835 0.43793 0.506247
4042 1 0.865815 0.439544 0.508437
4043 1 0.872791 0.427543 0.508159
4044 1 0.879667 0.438471 0.509158
4047 1 0.901986 0.428675 0.506021
4045 1 0.886666 0.427295 0.506598
4046 1 0.893828 0.4393 0.508409
4049 1 0.914835 0.426379 0.505412
4050 1 0.922278 0.439901 0.506796
4051 1 0.927851 0.426634 0.506246
4052 1 0.935864 0.43907 0.506495
4053 1 0.943704 0.425843 0.503816
4055 1 0.95719 0.425768 0.501771
4054 1 0.949983 0.439222 0.505576
4057 1 0.972058 0.42877 0.499894
4061 1 0.501578 0.447819 0.503726
4063 1 0.516802 0.448789 0.50228
4065 1 0.530382 0.449584 0.501782
4087 1 0.687833 0.447973 0.500806
4089 1 0.700597 0.44954 0.503647
4091 1 0.714478 0.450363 0.502964
4093 1 0.731706 0.452014 0.503005
4095 1 0.74627 0.451918 0.503707
4097 1 0.757675 0.449363 0.50461
4030 1 0.779893 0.438413 0.504466
4099 1 0.77054 0.450257 0.505143
4101 1 0.786856 0.452461 0.505159
4032 1 0.791894 0.440866 0.505952
4103 1 0.800984 0.451256 0.507294
4105 1 0.816196 0.450117 0.508086
4109 1 0.843957 0.447342 0.507235
4107 1 0.830043 0.449716 0.50775
4111 1 0.859012 0.450659 0.508988
4113 1 0.871254 0.451825 0.509894
4115 1 0.885642 0.450834 0.510816
4117 1 0.901558 0.452519 0.509657
4048 1 0.907741 0.442087 0.507693
4119 1 0.914948 0.453632 0.509518
4121 1 0.926947 0.453219 0.506736
4123 1 0.942126 0.453644 0.504847
4125 1 0.956466 0.452577 0.504119
4056 1 0.963662 0.442903 0.502868
4058 1 0.980446 0.440148 0.50165
4127 1 0.971982 0.453535 0.503634
4129 1 0.987607 0.45249 0.501789
4062 1 0.509701 0.460851 0.50378
4131 1 0.502313 0.47166 0.503139
4133 1 0.516569 0.473727 0.501187
4066 1 0.535483 0.461354 0.499929
4135 1 0.529718 0.474654 0.500191
4064 1 0.523697 0.460762 0.50255
4157 1 0.684904 0.472439 0.499685
4088 1 0.691894 0.462626 0.501304
4090 1 0.708626 0.461478 0.502101
4159 1 0.700633 0.475327 0.502546
4092 1 0.724167 0.462195 0.50312
4161 1 0.715371 0.473524 0.502408
4163 1 0.731771 0.475136 0.503315
4165 1 0.744387 0.47537 0.50359
4094 1 0.738987 0.461223 0.502727
4096 1 0.752317 0.463323 0.504332
4098 1 0.765768 0.463615 0.505681
4167 1 0.757845 0.478419 0.504511
4169 1 0.772441 0.474191 0.505122
4171 1 0.786104 0.476158 0.50522
4100 1 0.778776 0.464185 0.506308
4102 1 0.793526 0.464538 0.506794
4173 1 0.800711 0.47689 0.50364
4104 1 0.808045 0.462445 0.506567
4106 1 0.823106 0.46273 0.508573
4175 1 0.814933 0.476164 0.506073
4177 1 0.82749 0.47505 0.508352
4179 1 0.842776 0.475233 0.508092
4108 1 0.836394 0.463178 0.507818
4181 1 0.858105 0.476282 0.5077
4110 1 0.849633 0.462713 0.507827
4112 1 0.865457 0.463246 0.509424
4183 1 0.871284 0.47643 0.508157
4114 1 0.879277 0.464703 0.508965
4185 1 0.884864 0.478563 0.50758
4116 1 0.891849 0.466285 0.510366
4187 1 0.89868 0.477308 0.508033
4118 1 0.906748 0.467266 0.509851
4189 1 0.914714 0.47837 0.509394
4120 1 0.920206 0.467428 0.509364
4191 1 0.929795 0.474682 0.50849
4122 1 0.936844 0.46467 0.506736
4193 1 0.943891 0.476867 0.504564
4124 1 0.952354 0.465444 0.504099
4195 1 0.957855 0.475862 0.50355
4197 1 0.975625 0.474891 0.502339
4126 1 0.967031 0.464766 0.502678
4128 1 0.982477 0.462996 0.503503
4199 1 0.988429 0.478102 0.501122
4130 1 0.994816 0.465904 0.500939
4203 1 0.514757 0.499965 0.499849
4201 1 0.501317 0.498735 0.500331
4132 1 0.509546 0.485879 0.502177
4134 1 0.522319 0.48766 0.500099
4227 1 0.68222 0.499902 0.500239
4229 1 0.699463 0.497128 0.501407
4160 1 0.708849 0.486818 0.501384
4158 1 0.692661 0.487976 0.500951
4231 1 0.712089 0.498464 0.502388
4162 1 0.721492 0.486796 0.503338
4166 1 0.750001 0.48932 0.504727
4164 1 0.737384 0.489581 0.502607
4168 1 0.765156 0.491632 0.504052
4170 1 0.779088 0.486868 0.506303
4172 1 0.790625 0.489755 0.50554
4176 1 0.821839 0.487656 0.506725
4174 1 0.808777 0.488785 0.505807
4178 1 0.834284 0.490687 0.507576
4182 1 0.864958 0.489783 0.507023
4180 1 0.849295 0.488454 0.508104
4184 1 0.878371 0.489272 0.507074
4186 1 0.893162 0.490263 0.506443
4188 1 0.908343 0.488692 0.506895
4261 1 0.928112 0.49803 0.504064
4192 1 0.938754 0.490289 0.50513
4190 1 0.927406 0.488066 0.507407
4194 1 0.953181 0.488027 0.503069
4198 1 0.97835 0.48819 0.501358
4196 1 0.965479 0.487372 0.501867
4200 1 0.992857 0.492073 0.502214
4206 1 0.538247 0.511553 0.497883
4275 1 0.525698 0.513328 0.498953
4205 1 0.528241 0.499965 0.498412
4208 1 0.55207 0.511409 0.497821
4210 1 0.566571 0.511743 0.497644
4212 1 0.579218 0.510115 0.497761
4214 1 0.592775 0.511251 0.496619
4216 1 0.607716 0.510316 0.497071
4218 1 0.620977 0.510735 0.49668
4220 1 0.63398 0.511088 0.497532
4222 1 0.649075 0.513365 0.497963
4224 1 0.664699 0.514286 0.498318
4223 1 0.657788 0.500164 0.497504
4226 1 0.676988 0.51257 0.499842
4273 1 0.515246 0.525548 0.498748
4272 1 0.505635 0.533006 0.496879
4345 1 0.536014 0.541983 0.497274
4276 1 0.529716 0.528863 0.497456
4277 1 0.544426 0.523641 0.49777
4278 1 0.55088 0.538417 0.496617
4279 1 0.558695 0.525469 0.496578
4281 1 0.570897 0.524983 0.497656
4282 1 0.566844 0.539006 0.4968
4284 1 0.579129 0.537505 0.498001
4283 1 0.586259 0.523356 0.497775
4286 1 0.593896 0.536951 0.498401
4287 1 0.608992 0.535347 0.498019
4285 1 0.601171 0.523276 0.497022
4289 1 0.6149 0.522843 0.499368
4290 1 0.627534 0.524733 0.498151
4288 1 0.621986 0.538483 0.499334
4291 1 0.642826 0.526907 0.499516
4361 1 0.635417 0.539246 0.499433
4293 1 0.657546 0.525885 0.499943
4295 1 0.671245 0.52577 0.499554
4296 1 0.678308 0.534542 0.500751
4332 1 0.937154 0.538726 0.499477
4334 1 0.95178 0.537217 0.499218
4335 1 0.955984 0.523957 0.500268
4336 1 0.966729 0.537687 0.497572
4338 1 0.979851 0.536995 0.498072
4337 1 0.969037 0.524946 0.498457
4340 1 0.993695 0.537423 0.497057
1471 1 1.00089 0.524812 0.498493
4339 1 0.98662 0.526971 0.499218
4274 1 0.51646 0.542794 0.49864
4343 1 0.502562 0.545122 0.4964
4342 1 0.511708 0.556154 0.496952
4341 1 0.525868 0.553285 0.49629
4347 1 0.54379 0.551163 0.497602
4280 1 0.557714 0.549644 0.49861
4351 1 0.573833 0.547719 0.498834
4349 1 0.565791 0.559041 0.496721
4353 1 0.588379 0.548516 0.498434
4354 1 0.596866 0.559754 0.498597
4355 1 0.601382 0.547502 0.499149
4357 1 0.613629 0.551085 0.500152
4399 1 0.911612 0.548283 0.497953
4401 1 0.926312 0.550457 0.497066
4403 1 0.942741 0.550799 0.498251
4405 1 0.957709 0.549056 0.497661
4407 1 0.972213 0.549546 0.497596
1541 1 1.00066 0.550115 0.497489
4409 1 0.986236 0.549088 0.497359
4411 1 0.506856 0.567117 0.494409
4413 1 0.514654 0.578557 0.493914
4346 1 0.537099 0.562507 0.495324
4344 1 0.523569 0.566868 0.496163
4415 1 0.530346 0.576783 0.49353
4348 1 0.549688 0.563065 0.497676
4417 1 0.543548 0.576709 0.494544
4419 1 0.559107 0.574077 0.495127
4350 1 0.573269 0.572355 0.497403
4352 1 0.581805 0.561237 0.497886
4423 1 0.588881 0.572277 0.499224
4356 1 0.608914 0.563778 0.498199
4425 1 0.602858 0.574244 0.498363
4427 1 0.617859 0.575277 0.498743
4358 1 0.624747 0.565745 0.499869
4467 1 0.899323 0.5757 0.499851
4469 1 0.913227 0.575279 0.498241
4400 1 0.919003 0.562631 0.497718
4398 1 0.904143 0.561648 0.498793
4402 1 0.935223 0.562149 0.496283
4471 1 0.930438 0.574159 0.497695
4473 1 0.942658 0.575312 0.496394
4475 1 0.957807 0.574072 0.496417
4404 1 0.950424 0.563318 0.49741
4477 1 0.973174 0.576907 0.495963
4408 1 0.978513 0.562813 0.497016
4406 1 0.963996 0.561117 0.496123
4410 1 0.992283 0.562024 0.497293
4479 1 0.985462 0.57606 0.498235
1680 1 0.500545 0.578557 0.493268
4412 1 0.509482 0.591114 0.494183
4416 1 0.538156 0.589959 0.492378
4414 1 0.523036 0.589986 0.493717
4418 1 0.551719 0.585395 0.494392
4420 1 0.564863 0.586221 0.495321
4489 1 0.559648 0.600411 0.494673
4422 1 0.573162 0.598023 0.49511
4421 1 0.581403 0.587352 0.497883
4493 1 0.587639 0.600894 0.497784
4424 1 0.595562 0.587135 0.498675
4495 1 0.610508 0.588384 0.498986
4426 1 0.624747 0.587616 0.499775
4500 1 0.64405 0.600321 0.499872
4434 1 0.667217 0.586897 0.499038
4503 1 0.659928 0.599254 0.4991
4432 1 0.653155 0.585896 0.498533
4436 1 0.679615 0.587327 0.50034
4470 1 0.920801 0.586269 0.498619
4472 1 0.938299 0.589462 0.498132
4541 1 0.929087 0.599922 0.499484
4474 1 0.950392 0.587235 0.496881
4545 1 0.955905 0.598475 0.497679
4478 1 0.978597 0.58986 0.497051
4476 1 0.965515 0.587658 0.495969
4480 1 0.992027 0.588523 0.497069
4482 1 0.501416 0.602677 0.495294
4483 1 0.515443 0.603593 0.494228
4551 1 0.50795 0.615565 0.495169
4485 1 0.52973 0.599514 0.493456
4484 1 0.523632 0.616541 0.494529
4488 1 0.535553 0.61388 0.495092
4487 1 0.54449 0.601701 0.494991
4490 1 0.554717 0.610843 0.495424
4491 1 0.566737 0.611138 0.495542
4492 1 0.578337 0.611043 0.496114
4494 1 0.592454 0.61353 0.499543
4496 1 0.60275 0.601676 0.4992
4498 1 0.638878 0.613533 0.499609
4502 1 0.65311 0.610544 0.498442
4504 1 0.668194 0.611621 0.496646
4505 1 0.674146 0.600785 0.498549
4506 1 0.681435 0.614116 0.498006
4508 1 0.695552 0.614619 0.501279
4510 1 0.708927 0.614282 0.499956
4543 1 0.943674 0.602615 0.498272
4544 1 0.951243 0.612678 0.498767
4548 1 0.977964 0.614931 0.495778
4547 1 0.970706 0.602651 0.496404
4546 1 0.963371 0.612212 0.497653
4549 1 0.985744 0.602032 0.495631
4550 1 0.992131 0.615254 0.495228
1681 1 0.998898 0.602454 0.49568
4555 1 0.513496 0.628708 0.494326
4552 1 0.521879 0.640423 0.494656
4486 1 0.528786 0.628373 0.495667
4557 1 0.54696 0.623272 0.493426
4558 1 0.552038 0.639886 0.494158
4556 1 0.537465 0.636059 0.493148
4559 1 0.559195 0.624048 0.494216
4561 1 0.573077 0.624414 0.49573
4560 1 0.562984 0.635965 0.49486
4563 1 0.585297 0.627163 0.498075
4562 1 0.577248 0.63628 0.494677
4633 1 0.592387 0.63761 0.495819
4637 1 0.605954 0.638045 0.496267
4564 1 0.598431 0.625461 0.49825
4566 1 0.61621 0.627098 0.499518
4568 1 0.625355 0.636585 0.498802
4567 1 0.630966 0.623726 0.499413
4570 1 0.644442 0.625681 0.498388
4571 1 0.657599 0.624439 0.499344
4574 1 0.663109 0.637333 0.499022
4577 1 0.687622 0.626472 0.499068
4575 1 0.672214 0.625734 0.497145
4576 1 0.680526 0.637115 0.498216
4579 1 0.701639 0.627458 0.499104
4578 1 0.694026 0.638519 0.499534
4580 1 0.707514 0.640246 0.50081
4614 1 0.958011 0.626092 0.49726
4612 1 0.950112 0.637049 0.499339
4615 1 0.943968 0.625241 0.497977
4617 1 0.971364 0.627138 0.497692
4685 1 0.963998 0.640233 0.499333
4616 1 0.97846 0.637613 0.498163
1751 1 1.00166 0.627219 0.498642
4620 1 0.992506 0.639684 0.49916
4619 1 0.986627 0.628289 0.496863
4622 1 0.506736 0.640235 0.495089
4554 1 0.51524 0.652717 0.494269
4625 1 0.530422 0.651816 0.492939
4627 1 0.544464 0.650728 0.493188
4629 1 0.562635 0.648193 0.493106
4631 1 0.575755 0.649233 0.492268
4632 1 0.589423 0.650332 0.495822
4635 1 0.604259 0.653105 0.497441
4638 1 0.619485 0.648313 0.499584
4639 1 0.632413 0.650512 0.499295
4643 1 0.672082 0.649902 0.498945
4647 1 0.68641 0.651716 0.499717
4651 1 0.715415 0.652354 0.500013
1960 1 0.50098 0.676096 0.49368
4623 1 0.506894 0.664351 0.493262
4693 1 0.51529 0.678774 0.493048
4553 1 0.523656 0.664826 0.492355
4624 1 0.531406 0.676896 0.491499
4626 1 0.539303 0.664383 0.491244
4695 1 0.54774 0.675432 0.490748
4697 1 0.552907 0.663455 0.491682
4628 1 0.567855 0.662574 0.492595
4699 1 0.562022 0.673438 0.491055
4701 1 0.575532 0.674978 0.493009
4630 1 0.581353 0.662041 0.495327
4703 1 0.588766 0.674936 0.495565
4634 1 0.595184 0.662889 0.498594
4636 1 0.612722 0.662625 0.499163
4705 1 0.604044 0.674649 0.499051
4779 1 0.615302 0.676329 0.498879
4706 1 0.623646 0.662208 0.49914
4707 1 0.631084 0.675416 0.498401
4640 1 0.638704 0.664703 0.49945
4709 1 0.646992 0.67465 0.499476
4642 1 0.65368 0.662273 0.498985
4650 1 0.709234 0.667581 0.499796
4719 1 0.698967 0.677179 0.499763
4692 1 0.507492 0.690145 0.494081
4694 1 0.525715 0.688321 0.493047
4696 1 0.539778 0.687982 0.491203
4698 1 0.554673 0.686142 0.490404
4767 1 0.547267 0.698688 0.491848
4700 1 0.567862 0.685503 0.492394
4771 1 0.575799 0.697706 0.492525
4769 1 0.561064 0.697039 0.490803
4702 1 0.583322 0.686186 0.49269
4773 1 0.590488 0.699037 0.493965
4704 1 0.598387 0.686153 0.496506
4708 1 0.61082 0.690335 0.496676
4777 1 0.62633 0.68884 0.497646
4711 1 0.640104 0.68762 0.499247
4720 1 0.707569 0.687447 0.500343
4789 1 0.694725 0.68986 0.500721
4793 1 0.716278 0.696111 0.500857
2030 1 0.505042 0.703726 0.494894
4763 1 0.519182 0.700837 0.49518
4762 1 0.51095 0.714933 0.495945
4765 1 0.531695 0.700322 0.492248
4764 1 0.525276 0.713284 0.495166
4766 1 0.540365 0.71026 0.493155
4768 1 0.554629 0.710233 0.493377
4770 1 0.567822 0.708765 0.492434
4772 1 0.58226 0.711599 0.493371
4774 1 0.596025 0.71204 0.496908
4775 1 0.603005 0.70086 0.495551
4847 1 0.609722 0.713803 0.497356
4776 1 0.615783 0.700994 0.497159
4780 1 0.629442 0.702227 0.499035
4778 1 0.621147 0.715454 0.499856
4781 1 0.636724 0.713429 0.50006
4791 1 0.703316 0.701286 0.500241
4824 1 0.948603 0.717307 0.49958
4831 1 0.501359 0.727555 0.496506
4833 1 0.515274 0.728721 0.495357
4832 1 0.50715 0.737495 0.495302
4835 1 0.529641 0.724189 0.496483
4834 1 0.525482 0.736678 0.494675
4836 1 0.536863 0.737866 0.496348
4837 1 0.543882 0.72367 0.495209
4838 1 0.551084 0.735829 0.493911
4839 1 0.559419 0.726189 0.49259
4841 1 0.574268 0.72354 0.493631
4840 1 0.568079 0.735822 0.49283
4842 1 0.582635 0.73622 0.495275
4843 1 0.586839 0.724878 0.495499
4844 1 0.594568 0.739188 0.497172
4845 1 0.600851 0.725889 0.497024
4915 1 0.608463 0.738539 0.497426
4848 1 0.614945 0.725962 0.499
4868 1 0.765764 0.737537 0.498766
4873 1 0.780372 0.738188 0.498486
4802 1 0.787595 0.724942 0.499996
4875 1 0.793625 0.737232 0.498788
4880 1 0.857538 0.727526 0.50078
4890 1 0.880023 0.736949 0.500037
4818 1 0.89457 0.738534 0.499933
4885 1 0.885624 0.725123 0.499037
4959 1 0.921915 0.739353 0.499438
4888 1 0.907498 0.735946 0.498985
4892 1 0.928275 0.72941 0.500369
4891 1 0.940568 0.729304 0.500275
4896 1 0.955413 0.729245 0.499649
4901 1 0.502909 0.753557 0.49474
4903 1 0.514554 0.746876 0.495874
4905 1 0.529782 0.751496 0.497498
4907 1 0.545977 0.7498 0.495216
4909 1 0.558654 0.746628 0.495129
4911 1 0.574689 0.749038 0.495214
4910 1 0.565839 0.759844 0.495458
4913 1 0.589939 0.750317 0.495542
4846 1 0.605122 0.751277 0.49684
4916 1 0.61815 0.748339 0.499182
4936 1 0.74825 0.758397 0.498447
4935 1 0.757085 0.747543 0.498434
4939 1 0.761331 0.760527 0.498352
4872 1 0.787325 0.74996 0.498314
4870 1 0.772438 0.750525 0.498131
4945 1 0.801039 0.750931 0.498744
4951 1 0.851244 0.740035 0.500343
4953 1 0.864782 0.74106 0.499536
4882 1 0.873361 0.752495 0.49892
4955 1 0.887806 0.750253 0.49892
4957 1 0.902212 0.751053 0.499652
4960 1 0.914437 0.750355 0.499703
4894 1 0.929723 0.753231 0.499409
4961 1 0.937571 0.741577 0.499312
4963 1 0.944965 0.754049 0.499052
4898 1 0.965316 0.74157 0.499002
2031 1 0.990298 0.743943 0.500025
4971 1 0.507003 0.7696 0.495371
4902 1 0.517212 0.760285 0.496743
4973 1 0.518427 0.775669 0.496127
4904 1 0.527421 0.766494 0.49637
4975 1 0.532883 0.77722 0.49574
4906 1 0.540027 0.762623 0.495528
4908 1 0.553379 0.761861 0.496514
4977 1 0.545045 0.775871 0.495936
4979 1 0.55996 0.772044 0.495286
4981 1 0.573058 0.772462 0.493033
4912 1 0.580557 0.762562 0.495493
4983 1 0.588505 0.775538 0.494352
4914 1 0.59809 0.76335 0.494937
4985 1 0.612459 0.763377 0.496736
4984 1 0.605068 0.776608 0.495572
4988 1 0.61745 0.777505 0.497076
4918 1 0.625737 0.76021 0.498242
4989 1 0.630577 0.775788 0.49873
5007 1 0.743345 0.77108 0.49837
4938 1 0.758555 0.774527 0.498566
4941 1 0.778554 0.76419 0.497814
5009 1 0.773146 0.777442 0.498877
4940 1 0.785438 0.777188 0.500105
4943 1 0.792651 0.762864 0.499214
4952 1 0.880653 0.765191 0.499439
5029 1 0.909007 0.764012 0.5006
5033 1 0.935644 0.763767 0.498923
4964 1 0.950389 0.766188 0.499908
5037 1 0.973972 0.782268 0.498162
5041 1 0.500299 0.798382 0.494331
4972 1 0.50737 0.784961 0.49478
5043 1 0.516065 0.797832 0.495169
4974 1 0.522888 0.788188 0.495233
4976 1 0.538167 0.789982 0.495796
4978 1 0.551851 0.786364 0.49482
4980 1 0.567304 0.786582 0.495148
5051 1 0.573413 0.798336 0.496025
4982 1 0.580817 0.786389 0.49591
5055 1 0.594041 0.787656 0.495172
4986 1 0.607645 0.78796 0.49553
5056 1 0.602056 0.801541 0.494126
4987 1 0.622839 0.787244 0.497708
5057 1 0.6162 0.798706 0.495936
5059 1 0.629452 0.796985 0.497328
4990 1 0.638558 0.786349 0.498468
5061 1 0.644232 0.798207 0.498544
4992 1 0.658035 0.798925 0.498703
5071 1 0.705615 0.788149 0.49899
5070 1 0.714733 0.801074 0.500023
5073 1 0.728753 0.79749 0.498947
5003 1 0.722142 0.786947 0.499655
5006 1 0.763883 0.788834 0.498841
5005 1 0.750474 0.78744 0.498928
5108 1 0.964071 0.792807 0.498705
5040 1 0.992804 0.794015 0.500021
5042 1 0.507528 0.811607 0.495445
5045 1 0.529615 0.800368 0.496146
5044 1 0.521944 0.811563 0.496743
5046 1 0.535463 0.814195 0.496702
5049 1 0.560026 0.79945 0.495654
5047 1 0.544182 0.80192 0.495522
5048 1 0.552223 0.812572 0.494878
5050 1 0.565586 0.811276 0.49481
5053 1 0.587006 0.801454 0.494821
5052 1 0.57929 0.81219 0.49492
5054 1 0.59538 0.81429 0.495375
5058 1 0.610442 0.813266 0.496167
5127 1 0.622766 0.810881 0.497113
5060 1 0.636075 0.809707 0.499331
5131 1 0.65016 0.810558 0.498047
5063 1 0.665035 0.810775 0.498374
5067 1 0.688728 0.799617 0.500434
5065 1 0.67497 0.799548 0.500033
5064 1 0.679863 0.811921 0.499252
5000 1 0.701261 0.800367 0.498625
5068 1 0.706796 0.812365 0.499252
5069 1 0.694742 0.814204 0.497586
5072 1 0.720524 0.811491 0.499244
5078 1 0.761842 0.8142 0.498316
5075 1 0.756623 0.801862 0.499306
5077 1 0.770459 0.801364 0.499564
5082 1 0.791609 0.814738 0.50059
5036 1 0.956258 0.802428 0.50019
5110 1 0.974894 0.812027 0.49998
5111 1 0.512821 0.823975 0.496843
5114 1 0.507761 0.835795 0.497019
5115 1 0.527115 0.823662 0.497615
5113 1 0.522842 0.837002 0.498052
5117 1 0.540216 0.828501 0.497144
5118 1 0.55294 0.837467 0.496365
5119 1 0.557388 0.825068 0.495105
5120 1 0.565244 0.837178 0.49577
5121 1 0.570228 0.823142 0.495647
5124 1 0.577777 0.834244 0.495234
5123 1 0.586053 0.825067 0.495661
5191 1 0.593305 0.837878 0.495101
5125 1 0.603323 0.827388 0.496135
5128 1 0.616503 0.823773 0.497924
5126 1 0.607908 0.839193 0.497123
5129 1 0.628643 0.823146 0.49848
5197 1 0.620325 0.836136 0.496686
5201 1 0.636062 0.834243 0.497336
5130 1 0.641318 0.821464 0.497471
5133 1 0.649771 0.837572 0.498719
5062 1 0.654758 0.825972 0.500076
5135 1 0.664846 0.837844 0.499627
5137 1 0.672314 0.823923 0.499494
5205 1 0.679606 0.837455 0.500332
5066 1 0.685767 0.825062 0.499708
5136 1 0.693729 0.836435 0.499181
5143 1 0.741467 0.825207 0.500821
5149 1 0.7695 0.824556 0.498464
5146 1 0.748974 0.836245 0.500042
5148 1 0.754056 0.824137 0.498852
5151 1 0.783244 0.8261 0.499836
5156 1 0.805739 0.837942 0.499898
5154 1 0.792113 0.835844 0.499002
5155 1 0.814115 0.8259 0.501339
5178 1 0.980081 0.83847 0.499605
2311 1 0.999708 0.821924 0.499046
5180 1 0.994259 0.834386 0.499633
5179 1 0.984667 0.823364 0.499161
5183 1 0.511317 0.849361 0.497229
5116 1 0.537752 0.84289 0.496428
5185 1 0.522682 0.851881 0.497747
5188 1 0.533021 0.854632 0.498068
5187 1 0.54705 0.854518 0.496298
5189 1 0.561392 0.852641 0.49615
5192 1 0.574534 0.847233 0.496121
5193 1 0.586432 0.850467 0.494708
5195 1 0.598965 0.850611 0.495105
5198 1 0.61177 0.849104 0.49718
5199 1 0.629524 0.846949 0.497461
5269 1 0.619695 0.860147 0.496956
5132 1 0.642682 0.849799 0.498633
5204 1 0.656441 0.850534 0.499729
5207 1 0.671701 0.849785 0.500495
5217 1 0.757132 0.849252 0.499823
5221 1 0.785495 0.848477 0.500215
5219 1 0.770361 0.850124 0.499927
5223 1 0.79889 0.850973 0.499539
2381 1 1.0008 0.849754 0.499249
2519 1 0.501181 0.878149 0.495803
5253 1 0.516041 0.876178 0.49637
5182 1 0.507633 0.863617 0.496449
5184 1 0.523234 0.865945 0.499069
5186 1 0.529252 0.87682 0.497065
5257 1 0.536881 0.866001 0.49699
5259 1 0.551312 0.865751 0.496231
5256 1 0.544569 0.875308 0.496525
5261 1 0.558774 0.877 0.496646
5190 1 0.564909 0.863772 0.49631
5263 1 0.570864 0.874462 0.496982
5122 1 0.577869 0.862723 0.4955
5265 1 0.584982 0.876161 0.496764
5194 1 0.590982 0.862513 0.496718
5196 1 0.607469 0.861292 0.496931
5266 1 0.599032 0.87592 0.496639
5267 1 0.613172 0.873548 0.496934
5271 1 0.626602 0.872672 0.496983
5200 1 0.634479 0.862053 0.498352
5202 1 0.640739 0.873582 0.498557
5203 1 0.649436 0.862406 0.499031
5134 1 0.663466 0.862552 0.500884
5273 1 0.656959 0.876403 0.499167
5287 1 0.756416 0.873988 0.498925
5218 1 0.766811 0.86298 0.499448
5216 1 0.749789 0.862771 0.500208
2451 1 1.00006 0.875996 0.499548
5250 1 0.99395 0.863692 0.499203
5251 1 0.508535 0.887412 0.495182
5324 1 0.535275 0.887372 0.497738
5255 1 0.521409 0.887255 0.495646
5325 1 0.529366 0.901812 0.497141
5258 1 0.550332 0.88804 0.497189
5329 1 0.556499 0.902061 0.496671
5260 1 0.564684 0.889803 0.496845
5331 1 0.570416 0.900152 0.496422
5262 1 0.577583 0.886837 0.497537
5264 1 0.59228 0.886778 0.496328
5333 1 0.584034 0.8978 0.496093
5337 1 0.607719 0.88684 0.495421
5338 1 0.612658 0.89765 0.497417
5268 1 0.620705 0.887281 0.496885
5339 1 0.627455 0.899013 0.498996
5270 1 0.63541 0.885511 0.498571
5272 1 0.649569 0.886262 0.49955
5341 1 0.642016 0.899407 0.499727
2590 1 0.503373 0.900465 0.493385
5254 1 0.518057 0.900053 0.49525
5321 1 0.508707 0.911978 0.495292
5252 1 0.520471 0.914032 0.495308
5326 1 0.533866 0.912602 0.496643
5327 1 0.541888 0.900648 0.497332
5328 1 0.548387 0.912925 0.495269
5330 1 0.565367 0.912716 0.495711
5332 1 0.578476 0.91212 0.495199
5334 1 0.593886 0.914399 0.494177
5335 1 0.598144 0.899966 0.496661
5336 1 0.604845 0.913367 0.495117
5409 1 0.619812 0.910581 0.494431
5340 1 0.633405 0.911175 0.496828
5342 1 0.648425 0.912278 0.499581
5390 1 0.996339 0.914704 0.499988
5391 1 0.50086 0.926619 0.494401
5323 1 0.514908 0.925464 0.495509
5392 1 0.507082 0.938628 0.496103
5395 1 0.531402 0.92682 0.495744
5396 1 0.537932 0.93712 0.494246
5393 1 0.52263 0.93707 0.495121
5397 1 0.543542 0.924267 0.494731
5398 1 0.552295 0.937452 0.494551
5399 1 0.556709 0.924887 0.494572
5401 1 0.569349 0.925352 0.494601
5400 1 0.563682 0.93722 0.495093
5403 1 0.583402 0.925246 0.493156
5402 1 0.578381 0.937311 0.493474
5405 1 0.598581 0.926332 0.492924
5406 1 0.606875 0.936875 0.493947
5407 1 0.612735 0.924306 0.494616
5408 1 0.621141 0.934708 0.494068
5413 1 0.627373 0.921538 0.494752
5479 1 0.634782 0.933278 0.495048
5411 1 0.640461 0.923251 0.498652
5410 1 0.64798 0.935534 0.497582
5463 1 0.514206 0.951762 0.49596
5464 1 0.506188 0.960819 0.497958
5394 1 0.529448 0.948201 0.49635
5466 1 0.533486 0.960879 0.497406
5465 1 0.545772 0.948956 0.495768
5467 1 0.559298 0.951187 0.49485
5471 1 0.572033 0.948761 0.495025
5404 1 0.591567 0.938367 0.494117
5469 1 0.585623 0.95207 0.493631
5475 1 0.613563 0.947408 0.494326
5473 1 0.599505 0.950255 0.494304
5477 1 0.627397 0.948364 0.493865
5481 1 0.639101 0.946332 0.495531
5483 1 0.652781 0.946158 0.498416
5482 1 0.646655 0.958548 0.497061
5485 1 0.667133 0.950033 0.500004
5484 1 0.660377 0.959604 0.498042
5486 1 0.675815 0.961103 0.49942
5505 1 0.812182 0.949852 0.500427
5507 1 0.825254 0.949748 0.49835
2800 1 0.499741 0.974517 0.49891
5531 1 0.512738 0.972975 0.497765
5533 1 0.521334 0.962935 0.497759
5535 1 0.530367 0.972165 0.497546
5537 1 0.54336 0.972939 0.497298
5468 1 0.551278 0.962842 0.49416
5541 1 0.575238 0.972984 0.495183
5470 1 0.566867 0.959469 0.495095
5539 1 0.558409 0.973595 0.496168
5472 1 0.585782 0.964796 0.493808
2813 1 0.588248 0.9761 0.494937
5474 1 0.597622 0.962651 0.493141
5476 1 0.609312 0.961477 0.493463
5545 1 0.599159 0.976994 0.493952
5547 1 0.614013 0.973797 0.494401
5549 1 0.627321 0.973451 0.494336
5478 1 0.622428 0.961232 0.492595
5480 1 0.633111 0.960467 0.494967
5551 1 0.640664 0.971683 0.496664
5555 1 0.668652 0.970748 0.498571
5553 1 0.654426 0.973943 0.497403
5557 1 0.682958 0.973647 0.497515
5488 1 0.689583 0.961426 0.499299
5490 1 0.704543 0.96084 0.499693
5559 1 0.696925 0.972324 0.498875
5561 1 0.710566 0.971884 0.499219
5577 1 0.829415 0.977163 0.499271
5508 1 0.836213 0.966727 0.500796
5510 1 0.851201 0.962384 0.499745
5581 1 0.860075 0.977844 0.500523
5532 1 0.509178 0.987181 0.499061
2801 1 0.502505 0.9989 0.49837
2803 1 0.517305 0.999132 0.499075
5536 1 0.534401 0.985901 0.499379
5534 1 0.522159 0.981116 0.497491
2805 1 0.530289 0.997592 0.499577
5538 1 0.549544 0.984274 0.498393
2807 1 0.544838 0.997146 0.498662
5540 1 0.565084 0.983764 0.496685
5542 1 0.569356 0.999935 0.496229
2809 1 0.558312 0.994792 0.497471
2814 1 0.581635 0.99813 0.494823
2815 1 0.592549 0.989824 0.493339
5543 1 0.576564 0.985546 0.495631
5546 1 0.61242 1.00046 0.493855
5544 1 0.607072 0.988854 0.493818
5550 1 0.633911 0.987144 0.495092
5548 1 0.61941 0.986867 0.494976
2819 1 0.626696 1.00014 0.495344
2823 1 0.651874 0.997898 0.496753
5552 1 0.647252 0.98553 0.496306
2821 1 0.638533 0.998674 0.49565
2825 1 0.66793 0.997967 0.49598
5554 1 0.661849 0.984497 0.496937
2827 1 0.680063 0.999116 0.497272
5556 1 0.676035 0.98447 0.497781
5558 1 0.68948 0.987396 0.499389
2829 1 0.69555 0.999089 0.498882
2841 1 0.782234 0.998468 0.499998
5570 1 0.777717 0.986631 0.500855
5574 1 0.804635 0.986231 0.500618
2847 1 0.829177 0.999398 0.498663
2851 1 0.860763 0.998511 0.4992
5584 1 0.8828 0.98551 0.500538
4204 1 0.509516 0.512129 0.500731
4230 1 0.706366 0.512487 0.503027
4228 1 0.692726 0.511189 0.501501
4232 1 0.720833 0.51157 0.502368
4233 1 0.729277 0.499894 0.502913
4234 1 0.734429 0.512239 0.503696
4236 1 0.748526 0.513464 0.503916
4235 1 0.7444 0.502521 0.50363
4238 1 0.762545 0.515352 0.504108
4237 1 0.758861 0.502962 0.504844
4239 1 0.773539 0.502696 0.505394
4240 1 0.776603 0.514231 0.504277
4241 1 0.785681 0.500446 0.504962
4242 1 0.792016 0.510937 0.505109
4243 1 0.801583 0.500567 0.504728
4244 1 0.806202 0.513912 0.503917
4246 1 0.820724 0.515618 0.507276
4245 1 0.815063 0.502718 0.506582
4249 1 0.841963 0.50245 0.507973
4248 1 0.837442 0.517536 0.507792
4247 1 0.829328 0.505741 0.508336
4250 1 0.850158 0.514876 0.50758
4252 1 0.862864 0.514736 0.506512
4251 1 0.856568 0.50261 0.506938
4253 1 0.871002 0.500995 0.505916
4254 1 0.879185 0.514309 0.505398
4256 1 0.891761 0.514222 0.503932
4257 1 0.900495 0.50186 0.504951
4255 1 0.885654 0.500701 0.505163
4258 1 0.908418 0.51245 0.503813
4259 1 0.916056 0.500261 0.505289
4260 1 0.922809 0.511725 0.502176
4262 1 0.936358 0.510524 0.501755
4263 1 0.946403 0.499538 0.501538
4264 1 0.949911 0.512428 0.501958
4265 1 0.959909 0.500868 0.500976
4266 1 0.964364 0.512878 0.50096
4268 1 0.977122 0.514006 0.500908
4267 1 0.972658 0.50078 0.501135
4269 1 0.985305 0.501845 0.501127
4270 1 0.993293 0.512284 0.500813
4292 1 0.649787 0.538145 0.501163
4294 1 0.663939 0.538812 0.500957
4297 1 0.686621 0.524132 0.50157
4298 1 0.692776 0.53851 0.500709
4299 1 0.701304 0.526879 0.50143
4300 1 0.708295 0.538237 0.50147
4303 1 0.727281 0.524098 0.503174
4301 1 0.712996 0.524754 0.502101
4302 1 0.721071 0.538224 0.502809
4305 1 0.741946 0.524825 0.504563
4304 1 0.735481 0.537274 0.504525
4307 1 0.76022 0.530259 0.502136
4306 1 0.75152 0.541466 0.502568
4309 1 0.770525 0.525965 0.502509
4311 1 0.784096 0.522149 0.503907
4310 1 0.776256 0.537241 0.502757
4313 1 0.796081 0.524394 0.503191
4312 1 0.791203 0.537622 0.50409
4314 1 0.806832 0.53907 0.50436
4315 1 0.814276 0.525635 0.50724
4316 1 0.822438 0.542823 0.505851
4317 1 0.829897 0.52673 0.506474
4319 1 0.844351 0.528582 0.506512
4318 1 0.836831 0.539166 0.50597
4321 1 0.854835 0.52626 0.50468
4323 1 0.870414 0.52804 0.503373
4324 1 0.880688 0.540088 0.50137
4325 1 0.884167 0.525 0.501858
4327 1 0.900984 0.525465 0.503365
4326 1 0.89265 0.536592 0.502222
4329 1 0.913099 0.523049 0.501036
4328 1 0.907898 0.535476 0.499156
4330 1 0.921161 0.536586 0.49862
4331 1 0.927843 0.523864 0.501205
4333 1 0.940749 0.525349 0.500513
4359 1 0.627067 0.550333 0.498695
4360 1 0.641898 0.551812 0.50067
4363 1 0.65746 0.551954 0.500955
4365 1 0.671383 0.550962 0.500316
4367 1 0.685255 0.551416 0.501742
4369 1 0.701264 0.550937 0.501817
4373 1 0.729467 0.551162 0.502245
4371 1 0.716103 0.550551 0.502505
4375 1 0.745387 0.552084 0.502513
4308 1 0.765243 0.543411 0.501282
4377 1 0.757405 0.554504 0.501324
4379 1 0.774712 0.551802 0.502177
4381 1 0.786727 0.550569 0.504284
4383 1 0.800999 0.549858 0.503028
4385 1 0.814882 0.550402 0.502898
4387 1 0.829284 0.553028 0.50504
4389 1 0.841942 0.552362 0.502816
4320 1 0.850528 0.540798 0.505035
4391 1 0.857505 0.552167 0.50324
4322 1 0.86538 0.539421 0.50326
4393 1 0.872559 0.550704 0.502384
4397 1 0.899706 0.548456 0.50025
4395 1 0.88708 0.552496 0.49976
4430 1 0.631441 0.576328 0.499963
4429 1 0.637727 0.563814 0.500479
4431 1 0.647429 0.5745 0.500705
4362 1 0.650318 0.56158 0.501635
4364 1 0.66683 0.563156 0.501312
4433 1 0.660773 0.574137 0.499934
4437 1 0.687536 0.574361 0.500585
4366 1 0.68167 0.564443 0.500981
4435 1 0.674246 0.57466 0.501668
4439 1 0.702484 0.575173 0.500747
4370 1 0.708407 0.561409 0.501159
4368 1 0.692968 0.562483 0.501436
4443 1 0.729146 0.57417 0.500815
4372 1 0.722149 0.564301 0.500586
4441 1 0.714946 0.574583 0.501862
4374 1 0.737259 0.563948 0.500757
4445 1 0.745073 0.577291 0.500958
4376 1 0.751972 0.5649 0.501176
4378 1 0.767194 0.564673 0.500351
4447 1 0.760643 0.576062 0.501428
4380 1 0.781317 0.564484 0.502863
4451 1 0.788683 0.576854 0.501914
4449 1 0.774736 0.576736 0.501624
4382 1 0.793953 0.563433 0.502699
4453 1 0.801924 0.576189 0.503698
4384 1 0.808723 0.563636 0.504751
4386 1 0.822838 0.56432 0.504596
4455 1 0.813935 0.576837 0.503798
4388 1 0.837347 0.56754 0.503979
4459 1 0.844458 0.580554 0.50351
4390 1 0.851113 0.566668 0.504944
4461 1 0.856317 0.576393 0.50249
4392 1 0.865129 0.564633 0.502394
4463 1 0.871347 0.575756 0.501212
4465 1 0.885812 0.575477 0.500143
4394 1 0.878926 0.563829 0.502535
4396 1 0.892834 0.562552 0.500128
4501 1 0.639929 0.586958 0.499806
4440 1 0.709324 0.588798 0.500805
4438 1 0.693647 0.588227 0.500525
4509 1 0.703174 0.60104 0.501743
4442 1 0.721823 0.587685 0.502188
4444 1 0.735406 0.58755 0.500907
4446 1 0.752457 0.588897 0.500681
4448 1 0.764378 0.589277 0.502462
4450 1 0.781214 0.588304 0.502957
4519 1 0.773447 0.597711 0.502359
4452 1 0.794496 0.589633 0.50284
4454 1 0.807486 0.590492 0.504122
4456 1 0.821488 0.588847 0.505111
4457 1 0.829238 0.577702 0.504135
4458 1 0.839077 0.59095 0.504421
4460 1 0.851438 0.590472 0.502843
4462 1 0.865179 0.588424 0.502613
4464 1 0.879485 0.587533 0.500468
4533 1 0.87305 0.598749 0.501723
4535 1 0.885051 0.599608 0.50201
4466 1 0.89304 0.58887 0.500946
4539 1 0.915743 0.599445 0.500314
4468 1 0.906987 0.587964 0.49929
4565 1 0.608225 0.614234 0.49905
4499 1 0.622923 0.615152 0.500363
4428 1 0.631195 0.599338 0.500366
4497 1 0.616579 0.602152 0.501209
4507 1 0.687682 0.601617 0.500141
4512 1 0.722231 0.615894 0.499746
4511 1 0.717512 0.601907 0.500198
4513 1 0.730482 0.599614 0.500661
4515 1 0.745392 0.598807 0.502446
4514 1 0.733931 0.612922 0.50129
4588 1 0.749965 0.611034 0.502355
4516 1 0.760992 0.603813 0.502768
4518 1 0.764687 0.616852 0.502151
4517 1 0.772704 0.60938 0.503155
4521 1 0.780227 0.617118 0.503684
4523 1 0.785861 0.60286 0.5041
4525 1 0.800521 0.603377 0.502385
4522 1 0.79184 0.615284 0.504358
4524 1 0.807012 0.614089 0.504475
4526 1 0.815872 0.601452 0.504307
4528 1 0.823653 0.612356 0.505127
4527 1 0.830255 0.600969 0.505053
4529 1 0.838398 0.610764 0.503783
4601 1 0.86161 0.60227 0.503148
4531 1 0.845837 0.602151 0.504629
4530 1 0.852557 0.613766 0.504072
4532 1 0.867674 0.613137 0.503722
4534 1 0.879164 0.612739 0.503674
4537 1 0.902413 0.600931 0.501013
4536 1 0.89251 0.611653 0.502067
4538 1 0.907765 0.613352 0.500941
4540 1 0.922689 0.610759 0.499347
4542 1 0.936173 0.611469 0.499476
4569 1 0.638352 0.636443 0.499458
4573 1 0.65035 0.639319 0.500393
4583 1 0.727213 0.628032 0.50038
4581 1 0.714217 0.626224 0.50112
4582 1 0.719557 0.640191 0.501685
4585 1 0.739167 0.626404 0.501184
4586 1 0.734456 0.63884 0.502701
4655 1 0.748688 0.637544 0.503788
4587 1 0.752547 0.624521 0.502985
4590 1 0.763306 0.635018 0.505293
4589 1 0.773106 0.626954 0.504001
4520 1 0.785933 0.627584 0.504756
4593 1 0.800702 0.624454 0.506095
4592 1 0.794485 0.638494 0.505393
4595 1 0.815035 0.626236 0.505175
4594 1 0.809055 0.637211 0.506448
4597 1 0.827063 0.627436 0.505016
4599 1 0.842431 0.625427 0.504758
4598 1 0.836391 0.639053 0.50506
4671 1 0.858755 0.6257 0.503907
4600 1 0.848505 0.639316 0.505481
4674 1 0.861708 0.640068 0.505387
4602 1 0.871111 0.627625 0.504221
4604 1 0.875013 0.639649 0.504468
4603 1 0.884756 0.624438 0.50327
4607 1 0.89893 0.624373 0.502889
4606 1 0.889151 0.637803 0.50308
4605 1 0.914709 0.62463 0.501153
4608 1 0.905359 0.63545 0.50141
4680 1 0.921075 0.636625 0.502028
4609 1 0.930391 0.622518 0.501612
4613 1 0.936275 0.635981 0.500702
4641 1 0.644759 0.650963 0.499701
4572 1 0.659101 0.651025 0.499236
4649 1 0.70026 0.650912 0.500058
4584 1 0.729939 0.650345 0.502
4653 1 0.744269 0.651611 0.50346
4657 1 0.758224 0.650744 0.50402
4591 1 0.78018 0.640247 0.504509
4659 1 0.769655 0.649682 0.505438
4661 1 0.785312 0.651229 0.504782
4663 1 0.7987 0.652259 0.505381
4596 1 0.822177 0.640825 0.505088
4665 1 0.813409 0.652323 0.504766
4669 1 0.827669 0.653462 0.505292
4741 1 0.842637 0.652437 0.506651
4673 1 0.856923 0.652241 0.507402
4743 1 0.871236 0.652775 0.505547
4675 1 0.885448 0.651079 0.503466
4677 1 0.899268 0.647475 0.501703
4679 1 0.91412 0.64676 0.502132
4676 1 0.905791 0.657398 0.502124
4749 1 0.921404 0.660838 0.502649
4681 1 0.929468 0.648318 0.503555
4611 1 0.943676 0.648 0.501583
4683 1 0.933696 0.661017 0.503555
4610 1 0.956056 0.648812 0.499588
4686 1 0.971317 0.650482 0.500941
4687 1 0.986492 0.651407 0.501482
4644 1 0.669623 0.663361 0.500012
4713 1 0.659857 0.675047 0.500525
4717 1 0.674138 0.676397 0.500644
4645 1 0.683897 0.663514 0.500671
4718 1 0.688009 0.675258 0.50088
4648 1 0.697628 0.662227 0.499987
4723 1 0.731071 0.675809 0.503249
4721 1 0.718174 0.678701 0.502029
4652 1 0.72488 0.663695 0.501561
4725 1 0.74437 0.676591 0.504322
4654 1 0.738272 0.664203 0.503065
4658 1 0.764603 0.663926 0.503541
4727 1 0.758022 0.678534 0.50419
4656 1 0.752403 0.664076 0.50383
4729 1 0.772437 0.676574 0.504202
4660 1 0.777455 0.662079 0.504389
4731 1 0.78585 0.678102 0.504139
4662 1 0.790992 0.664244 0.505411
4733 1 0.799461 0.675904 0.503126
4664 1 0.804896 0.665334 0.504317
4666 1 0.81466 0.677328 0.503775
4667 1 0.819423 0.664996 0.503497
4739 1 0.836207 0.664578 0.50263
4668 1 0.826745 0.676752 0.503783
4811 1 0.844303 0.675727 0.503239
4744 1 0.857153 0.677435 0.507997
4670 1 0.850484 0.665591 0.505792
4672 1 0.865084 0.665433 0.507142
4747 1 0.879489 0.664588 0.505622
4742 1 0.870069 0.678207 0.505766
4745 1 0.892868 0.662081 0.503945
4815 1 0.899254 0.672866 0.502502
4746 1 0.882973 0.675935 0.504947
4748 1 0.913619 0.66903 0.502908
4751 1 0.925626 0.673662 0.503832
4682 1 0.939885 0.674221 0.501481
4684 1 0.947725 0.662281 0.501873
4753 1 0.955008 0.674777 0.502858
4689 1 0.97814 0.663639 0.502911
4755 1 0.962975 0.663315 0.502344
4757 1 0.969297 0.675655 0.504014
4690 1 0.9999 0.673811 0.501105
4688 1 0.984333 0.675516 0.502322
4618 1 0.991536 0.663945 0.501157
4646 1 0.667245 0.686038 0.500739
4783 1 0.657211 0.698556 0.500496
4785 1 0.67223 0.699633 0.500332
4714 1 0.652547 0.685336 0.501724
4787 1 0.680849 0.688031 0.500283
4722 1 0.725666 0.687469 0.502123
4795 1 0.7304 0.700948 0.501327
4724 1 0.737584 0.688433 0.504056
4797 1 0.766706 0.690615 0.505505
4726 1 0.751594 0.689702 0.504056
4730 1 0.779565 0.68895 0.504378
4801 1 0.791838 0.688998 0.504048
4736 1 0.805512 0.687492 0.503649
4735 1 0.820701 0.689458 0.503453
4737 1 0.835495 0.689187 0.503207
4740 1 0.849983 0.690032 0.504273
4814 1 0.863111 0.6896 0.504239
4816 1 0.877803 0.687816 0.505274
4813 1 0.891191 0.686376 0.503026
4887 1 0.883566 0.698698 0.502889
4886 1 0.897794 0.696818 0.502535
4678 1 0.906852 0.684854 0.501567
4819 1 0.921153 0.686819 0.50246
4821 1 0.913055 0.699722 0.49987
4752 1 0.936577 0.689176 0.501246
4822 1 0.929564 0.700404 0.501592
4754 1 0.949341 0.688401 0.501985
4758 1 0.978292 0.686712 0.504644
4825 1 0.963673 0.687814 0.503021
4826 1 0.986058 0.699855 0.503864
4760 1 0.992141 0.686047 0.503072
4710 1 0.643433 0.69975 0.499691
4782 1 0.651572 0.712029 0.500349
4715 1 0.66397 0.711276 0.501193
4855 1 0.677477 0.713699 0.501722
4716 1 0.684784 0.702038 0.501707
4786 1 0.692874 0.712322 0.501725
4790 1 0.706595 0.713841 0.501804
4792 1 0.72116 0.709628 0.501335
4794 1 0.736936 0.71405 0.501757
4728 1 0.744383 0.701531 0.503118
4869 1 0.765283 0.715456 0.502186
4796 1 0.757692 0.701593 0.504637
4865 1 0.749687 0.71359 0.502598
4798 1 0.778213 0.713303 0.502398
4799 1 0.78559 0.702591 0.504003
4800 1 0.771218 0.701531 0.504579
4732 1 0.794291 0.711864 0.501669
4805 1 0.808862 0.712258 0.50209
4734 1 0.800275 0.700153 0.502843
4738 1 0.814347 0.7009 0.503876
4806 1 0.821371 0.71391 0.50265
4808 1 0.834211 0.713997 0.503091
4809 1 0.843436 0.703151 0.503603
4807 1 0.82746 0.701451 0.503433
4879 1 0.849211 0.715386 0.5024
4810 1 0.858911 0.701187 0.503638
4881 1 0.86203 0.713134 0.501496
4883 1 0.871608 0.700537 0.503016
4812 1 0.878389 0.712131 0.501431
4817 1 0.892461 0.709864 0.501317
4889 1 0.921609 0.71214 0.500972
4750 1 0.907976 0.713761 0.501574
4893 1 0.93516 0.713806 0.50122
4756 1 0.946469 0.702007 0.50106
4823 1 0.959442 0.700994 0.501106
4828 1 0.961133 0.714829 0.501555
4759 1 0.973324 0.715215 0.502254
4895 1 0.97212 0.701046 0.504114
4829 1 0.998259 0.70147 0.503358
4827 1 0.989264 0.716291 0.501363
4849 1 0.629845 0.724523 0.501708
4919 1 0.625461 0.73601 0.500357
4851 1 0.639744 0.735964 0.50268
4850 1 0.651244 0.736432 0.504155
4712 1 0.642734 0.72522 0.501403
4852 1 0.663728 0.739159 0.50301
4853 1 0.65716 0.723304 0.502777
4784 1 0.67034 0.726936 0.503121
4854 1 0.679757 0.736114 0.500594
4788 1 0.686216 0.723353 0.501432
4861 1 0.701497 0.724924 0.501134
4859 1 0.694173 0.73563 0.500697
4860 1 0.707996 0.73634 0.500344
4863 1 0.716537 0.724665 0.501653
4931 1 0.722418 0.734739 0.501737
4862 1 0.728294 0.722729 0.502302
4864 1 0.741943 0.725013 0.502308
4866 1 0.735922 0.735341 0.501392
4867 1 0.755869 0.725571 0.500294
4937 1 0.749327 0.736975 0.49982
4871 1 0.77165 0.725034 0.500143
4803 1 0.801397 0.724613 0.501195
4874 1 0.807965 0.737647 0.500626
4876 1 0.821327 0.738734 0.500645
4804 1 0.816284 0.725334 0.502335
4877 1 0.83008 0.726485 0.501624
4878 1 0.83461 0.740872 0.500273
4949 1 0.843202 0.728251 0.501626
4954 1 0.870889 0.725815 0.500842
4884 1 0.89963 0.724814 0.500657
4820 1 0.915877 0.723144 0.500704
4897 1 0.967511 0.728778 0.500795
1964 1 0.999184 0.730762 0.50102
4830 1 0.981339 0.728565 0.50045
4917 1 0.631628 0.748851 0.501324
4921 1 0.646519 0.749042 0.502899
4923 1 0.658759 0.748769 0.50435
4857 1 0.671382 0.749674 0.501166
4856 1 0.687087 0.750175 0.500765
4858 1 0.697902 0.748603 0.499681
4929 1 0.714078 0.748541 0.501891
4933 1 0.729739 0.748443 0.500974
4934 1 0.741991 0.747716 0.499938
4944 1 0.815384 0.751804 0.500338
4947 1 0.828256 0.752332 0.502775
5017 1 0.842774 0.75283 0.501609
4948 1 0.85702 0.752578 0.500334
4966 1 0.959299 0.753914 0.498688
4965 1 0.952472 0.741144 0.50006
4899 1 0.976552 0.743421 0.49965
2032 1 0.973043 0.75674 0.500736
4970 1 1.00022 0.758515 0.501149
4968 1 0.987083 0.757256 0.500725
4925 1 0.652998 0.760558 0.500565
4920 1 0.638941 0.764353 0.500114
4922 1 0.647884 0.775086 0.499763
4993 1 0.659761 0.777543 0.501516
4924 1 0.665823 0.762796 0.502031
4996 1 0.673191 0.777874 0.501725
4926 1 0.678689 0.764073 0.500632
4997 1 0.686517 0.776116 0.501476
4927 1 0.693478 0.761974 0.501253
4928 1 0.705544 0.760687 0.500255
4999 1 0.698929 0.775635 0.501385
5001 1 0.714252 0.774009 0.500109
4930 1 0.722483 0.760459 0.50147
5002 1 0.729109 0.773266 0.499227
4932 1 0.735999 0.761313 0.500504
4942 1 0.806851 0.76514 0.5021
5011 1 0.79823 0.775948 0.501351
5013 1 0.814238 0.777229 0.50228
5015 1 0.820798 0.764776 0.503049
5016 1 0.828392 0.776748 0.502104
5018 1 0.84393 0.7771 0.501332
4946 1 0.836857 0.765279 0.503137
5022 1 0.858059 0.778721 0.502011
5019 1 0.849999 0.765065 0.502367
4950 1 0.866793 0.763867 0.499817
5021 1 0.873037 0.777556 0.501896
5023 1 0.887343 0.774903 0.501601
4956 1 0.894314 0.761866 0.499938
4958 1 0.899575 0.774584 0.50146
5030 1 0.916033 0.778731 0.501165
4962 1 0.921904 0.76478 0.499936
5031 1 0.930175 0.775919 0.501224
5032 1 0.943541 0.777327 0.50016
4967 1 0.964896 0.766921 0.500384
4969 1 0.980561 0.768467 0.501054
5039 1 0.9935 0.769229 0.500676
4991 1 0.653356 0.787408 0.500344
4995 1 0.665768 0.790678 0.501359
4994 1 0.679974 0.787768 0.500767
4998 1 0.693192 0.78823 0.501278
5074 1 0.740517 0.799543 0.500659
5004 1 0.737045 0.784606 0.500576
5008 1 0.777897 0.787832 0.500783
5010 1 0.792329 0.78935 0.501389
5012 1 0.804241 0.787855 0.50351
5014 1 0.821088 0.788722 0.503978
5083 1 0.813479 0.798733 0.502005
5087 1 0.835449 0.790306 0.502101
5020 1 0.850715 0.790938 0.502493
5024 1 0.867517 0.791594 0.504021
5025 1 0.880104 0.787756 0.501824
5027 1 0.894611 0.787351 0.50297
5095 1 0.885447 0.8005 0.50437
5103 1 0.922316 0.789282 0.501585
5028 1 0.907424 0.787493 0.499882
5101 1 0.937915 0.788281 0.501369
5035 1 0.957857 0.778384 0.49958
5034 1 0.949586 0.789912 0.501131
5109 1 0.980232 0.796461 0.500711
5038 1 0.985161 0.782782 0.50017
5142 1 0.733036 0.812837 0.499891
5076 1 0.747163 0.81233 0.499077
5079 1 0.786483 0.801224 0.500536
5080 1 0.776697 0.814124 0.499578
5081 1 0.79965 0.801032 0.5016
5084 1 0.805925 0.811792 0.501578
5086 1 0.819804 0.813386 0.502301
5085 1 0.829102 0.80116 0.501804
5089 1 0.843818 0.802414 0.502208
5088 1 0.834191 0.813583 0.503563
5090 1 0.849859 0.81353 0.502574
5091 1 0.858941 0.801969 0.50242
5093 1 0.864401 0.814377 0.504365
5094 1 0.872483 0.802608 0.502279
5163 1 0.877861 0.8133 0.503578
5026 1 0.90017 0.801184 0.501665
5096 1 0.893033 0.812256 0.505064
5099 1 0.91563 0.802841 0.502445
5097 1 0.908005 0.815741 0.50311
5102 1 0.922664 0.814311 0.503972
5173 1 0.928361 0.803193 0.500451
5107 1 0.934882 0.815663 0.502248
5104 1 0.942337 0.803471 0.500412
5175 1 0.948268 0.814663 0.500822
5105 1 0.960595 0.815177 0.500376
2242 1 0.990177 0.808539 0.499624
5140 1 0.705675 0.837397 0.500574
5139 1 0.697984 0.824504 0.501079
5145 1 0.719909 0.838529 0.501001
5144 1 0.726223 0.825713 0.500643
5141 1 0.712291 0.823839 0.500925
5147 1 0.735219 0.837063 0.501073
5150 1 0.76143 0.835208 0.499611
5152 1 0.777896 0.836832 0.499602
5153 1 0.798806 0.824619 0.500309
5158 1 0.820335 0.839199 0.500908
5157 1 0.827198 0.82639 0.502148
5231 1 0.842937 0.827175 0.504631
5159 1 0.835066 0.839509 0.503303
5232 1 0.850094 0.840687 0.504309
5161 1 0.855792 0.827431 0.503575
5233 1 0.864928 0.840288 0.5039
5162 1 0.869805 0.825165 0.503822
5166 1 0.879499 0.837769 0.502372
5165 1 0.884753 0.82566 0.504243
5167 1 0.898492 0.82567 0.504069
5168 1 0.893838 0.838051 0.503156
5100 1 0.914282 0.826187 0.503131
5098 1 0.907389 0.836571 0.505044
5171 1 0.925928 0.825755 0.503722
5106 1 0.942058 0.826727 0.503314
5170 1 0.933598 0.838987 0.505447
5172 1 0.948682 0.838266 0.503481
5174 1 0.956081 0.827259 0.501339
5176 1 0.962531 0.840378 0.501683
5177 1 0.971377 0.828048 0.500564
5138 1 0.684466 0.851865 0.500442
5209 1 0.699103 0.85123 0.501374
5211 1 0.712184 0.85268 0.500305
5213 1 0.729527 0.850235 0.500458
5215 1 0.742655 0.849987 0.501434
5225 1 0.810261 0.849887 0.501426
5160 1 0.825967 0.84926 0.50189
5229 1 0.840852 0.849906 0.502039
5230 1 0.854799 0.850444 0.502499
5234 1 0.862612 0.86063 0.502635
5092 1 0.871328 0.850021 0.503565
5164 1 0.884334 0.8515 0.503203
5237 1 0.898258 0.852624 0.503436
5169 1 0.92141 0.840377 0.504782
5239 1 0.910244 0.849012 0.504271
5241 1 0.925981 0.853523 0.50562
5243 1 0.942063 0.852193 0.503938
5245 1 0.956854 0.853249 0.502746
5247 1 0.973079 0.851645 0.501646
5249 1 0.987077 0.851314 0.500046
5275 1 0.67101 0.875194 0.500509
5206 1 0.677761 0.862364 0.502949
5277 1 0.685352 0.875841 0.502711
5208 1 0.691503 0.865063 0.503372
5210 1 0.704181 0.863132 0.501817
5279 1 0.701007 0.874887 0.503193
5281 1 0.714997 0.875329 0.502224
5283 1 0.729025 0.873743 0.503162
5212 1 0.720304 0.862246 0.500841
5285 1 0.742289 0.87407 0.501687
5214 1 0.735664 0.861156 0.50197
5291 1 0.784874 0.874924 0.500687
5289 1 0.771155 0.877044 0.500363
5220 1 0.778585 0.862401 0.500385
5293 1 0.798979 0.876608 0.502632
5222 1 0.79366 0.862678 0.500877
5224 1 0.804148 0.863615 0.501919
5226 1 0.819012 0.863914 0.503036
5295 1 0.811714 0.877578 0.503355
5297 1 0.827766 0.872458 0.502274
5227 1 0.833442 0.862128 0.502938
5298 1 0.841461 0.873629 0.503243
5228 1 0.847743 0.860691 0.502229
5301 1 0.854498 0.873589 0.502098
5235 1 0.877163 0.863625 0.503061
5303 1 0.867322 0.87349 0.500882
5307 1 0.88453 0.876623 0.502698
5305 1 0.892104 0.864202 0.503279
5236 1 0.899635 0.878012 0.503478
5240 1 0.919551 0.862858 0.504801
5238 1 0.906181 0.864306 0.504953
5309 1 0.913828 0.877774 0.503415
5242 1 0.937467 0.864984 0.504076
5311 1 0.928784 0.873335 0.503317
5313 1 0.945685 0.876978 0.504615
5315 1 0.958892 0.876645 0.502096
5244 1 0.949929 0.866096 0.503307
5248 1 0.981173 0.862199 0.501164
5246 1 0.965537 0.86519 0.502404
5317 1 0.973763 0.877973 0.502158
5319 1 0.987353 0.875011 0.500911
5274 1 0.663549 0.888441 0.501602
5343 1 0.657267 0.900283 0.500788
5278 1 0.691047 0.888643 0.50383
5276 1 0.677676 0.88929 0.502705
5280 1 0.706789 0.887411 0.503957
5282 1 0.721138 0.887421 0.504089
5353 1 0.728878 0.900561 0.503966
5284 1 0.73637 0.886885 0.503181
5355 1 0.743421 0.898865 0.50345
5286 1 0.749571 0.887209 0.501846
5288 1 0.763836 0.890332 0.499941
5290 1 0.777984 0.88879 0.500829
5294 1 0.804736 0.891111 0.503088
5292 1 0.791002 0.887387 0.502657
5296 1 0.818918 0.889951 0.504081
5369 1 0.83256 0.886164 0.502925
5299 1 0.847135 0.88761 0.50228
5302 1 0.86134 0.886234 0.501878
5371 1 0.854049 0.899489 0.501247
5374 1 0.874813 0.884812 0.501931
5304 1 0.88349 0.898519 0.504334
5373 1 0.868285 0.898475 0.503014
5306 1 0.891822 0.888116 0.502625
5377 1 0.896607 0.899904 0.504491
5308 1 0.907021 0.890758 0.503593
5310 1 0.920555 0.889339 0.503058
5312 1 0.935257 0.885603 0.503512
5381 1 0.931455 0.899454 0.505052
5314 1 0.95128 0.88874 0.503246
5316 1 0.965879 0.890483 0.503065
5318 1 0.981036 0.889433 0.501135
5320 1 0.995039 0.887867 0.499968
5344 1 0.663182 0.91324 0.500909
5345 1 0.671526 0.901138 0.501131
5347 1 0.68392 0.900623 0.504215
5346 1 0.678021 0.913895 0.503493
5348 1 0.693508 0.913809 0.503166
5349 1 0.69867 0.902068 0.503453
5350 1 0.707804 0.914939 0.504077
5351 1 0.71344 0.899624 0.504595
5352 1 0.721809 0.911594 0.502372
5354 1 0.735503 0.91016 0.502608
5356 1 0.748605 0.910331 0.5032
5357 1 0.75743 0.90106 0.502508
5358 1 0.764131 0.913807 0.502229
5359 1 0.772677 0.902441 0.500929
5361 1 0.785734 0.901907 0.501937
5360 1 0.777632 0.913935 0.503182
5362 1 0.791865 0.914353 0.503043
5364 1 0.804683 0.914905 0.501606
5363 1 0.798896 0.901859 0.502537
5367 1 0.827086 0.9014 0.502799
5365 1 0.813433 0.903236 0.502603
5366 1 0.820074 0.91372 0.503505
5300 1 0.840824 0.901715 0.503746
5437 1 0.833878 0.913664 0.502904
5368 1 0.848103 0.914334 0.502518
5370 1 0.862445 0.910245 0.503468
5376 1 0.876325 0.91183 0.50486
5375 1 0.89052 0.912404 0.506206
5379 1 0.914443 0.901669 0.504755
5378 1 0.905549 0.909848 0.505684
5380 1 0.922588 0.911732 0.504721
5382 1 0.938259 0.912036 0.503994
5385 1 0.957737 0.900988 0.503334
5383 1 0.946355 0.901629 0.504427
5384 1 0.953748 0.912539 0.503328
5387 1 0.973524 0.90145 0.502873
5386 1 0.96824 0.913766 0.502207
5389 1 0.9886 0.902 0.501527
5388 1 0.982063 0.913884 0.502504
5412 1 0.661786 0.937589 0.500659
5414 1 0.655628 0.924505 0.500542
5415 1 0.669922 0.925279 0.503148
5417 1 0.685711 0.927864 0.50263
5418 1 0.691821 0.939364 0.501327
5416 1 0.676626 0.936997 0.500504
5419 1 0.699464 0.926764 0.503149
5420 1 0.704497 0.940345 0.500806
5421 1 0.711536 0.92667 0.502032
5422 1 0.718817 0.938661 0.501839
5423 1 0.727122 0.925632 0.501615
5425 1 0.741488 0.923327 0.502045
5424 1 0.733579 0.936754 0.502807
5426 1 0.748419 0.935254 0.505029
5427 1 0.754952 0.926518 0.503808
5428 1 0.763199 0.935458 0.504153
5429 1 0.769833 0.925654 0.503199
5431 1 0.784689 0.927799 0.502705
5434 1 0.805832 0.938177 0.501263
5432 1 0.789431 0.939554 0.503486
5433 1 0.796955 0.926753 0.502895
5435 1 0.813674 0.926033 0.502619
5436 1 0.820305 0.937839 0.499895
5439 1 0.826135 0.92791 0.501085
5441 1 0.842329 0.926186 0.501583
5438 1 0.834482 0.939493 0.500491
5443 1 0.856681 0.922941 0.503742
5440 1 0.849624 0.935975 0.500802
5442 1 0.862808 0.938289 0.50455
5444 1 0.876743 0.938341 0.504588
5372 1 0.870651 0.923308 0.504423
5445 1 0.883849 0.924311 0.505624
5446 1 0.891589 0.933655 0.505556
5447 1 0.898552 0.923503 0.504642
5449 1 0.91377 0.923262 0.503976
5448 1 0.906075 0.936711 0.50614
5450 1 0.921957 0.937806 0.505066
5452 1 0.937444 0.937009 0.506349
5451 1 0.929939 0.925415 0.50395
5455 1 0.960429 0.926286 0.504711
5453 1 0.945455 0.923924 0.504252
5454 1 0.950069 0.937632 0.504727
5456 1 0.964272 0.939707 0.504786
5457 1 0.974786 0.924938 0.503139
5458 1 0.980129 0.937438 0.503983
5459 1 0.988505 0.925434 0.502918
5460 1 0.997025 0.939152 0.500705
5487 1 0.683115 0.948588 0.499094
5491 1 0.711131 0.950687 0.500658
5489 1 0.696807 0.952443 0.501033
5492 1 0.717444 0.960015 0.501298
5493 1 0.725089 0.949235 0.502452
5494 1 0.733641 0.958869 0.502948
5495 1 0.74162 0.946991 0.504455
5497 1 0.756468 0.945936 0.503246
5430 1 0.77652 0.938905 0.503678
5499 1 0.770866 0.951222 0.504553
5501 1 0.783755 0.954449 0.503211
5503 1 0.797633 0.950983 0.502482
5509 1 0.839731 0.950984 0.500068
5511 1 0.854264 0.948837 0.501457
5513 1 0.870136 0.951242 0.501956
5517 1 0.897764 0.94816 0.504736
5515 1 0.884031 0.947478 0.504506
5519 1 0.91477 0.947141 0.506502
5518 1 0.907529 0.957157 0.505336
5521 1 0.928942 0.948653 0.506045
5525 1 0.961289 0.952038 0.505358
5523 1 0.945893 0.949296 0.506415
5527 1 0.975125 0.949317 0.505276
5529 1 0.988766 0.948718 0.504286
5563 1 0.72458 0.971324 0.500804
5565 1 0.739226 0.972898 0.502928
5496 1 0.748061 0.961256 0.504248
5498 1 0.762701 0.963085 0.501755
5567 1 0.753024 0.972648 0.502603
5500 1 0.777825 0.964139 0.501976
5571 1 0.784779 0.977375 0.501331
5569 1 0.769049 0.974805 0.501015
5573 1 0.799853 0.973105 0.50091
5502 1 0.791309 0.963381 0.501826
5575 1 0.813038 0.975748 0.500433
5506 1 0.823305 0.963911 0.499471
5504 1 0.80747 0.963544 0.501158
5579 1 0.845802 0.977957 0.499267
5512 1 0.863937 0.963624 0.500816
5583 1 0.874317 0.972687 0.500179
5514 1 0.880779 0.962452 0.502666
5587 1 0.902278 0.971529 0.503426
5585 1 0.886329 0.974728 0.502054
5516 1 0.894434 0.962832 0.504892
5589 1 0.915645 0.971266 0.505487
5522 1 0.938931 0.962509 0.506734
5591 1 0.929606 0.974033 0.505797
5520 1 0.922795 0.960564 0.506308
5524 1 0.952647 0.962453 0.504912
5595 1 0.957667 0.976005 0.505959
5593 1 0.944249 0.975031 0.505769
5528 1 0.982246 0.961183 0.505501
5526 1 0.967567 0.962413 0.505686
5597 1 0.974559 0.973678 0.505352
5599 1 0.988995 0.973702 0.504631
5530 1 0.993316 0.961832 0.50503
5560 1 0.702961 0.986387 0.500167
2831 1 0.711584 0.999642 0.500228
5562 1 0.717573 0.984072 0.500231
2833 1 0.723807 0.996962 0.502179
2835 1 0.738027 0.996972 0.502141
5564 1 0.72945 0.984542 0.501776
5566 1 0.744919 0.985199 0.501896
2837 1 0.752455 0.99617 0.501287
5568 1 0.76142 0.986373 0.500886
2839 1 0.76939 0.998262 0.500787
5572 1 0.79232 0.987618 0.500138
5576 1 0.819555 0.988594 0.500691
2849 1 0.844225 0.999744 0.500062
5578 1 0.839032 0.987468 0.500981
5580 1 0.854347 0.988405 0.501398
2853 1 0.875258 0.996448 0.499625
5582 1 0.867427 0.986414 0.500788
2855 1 0.889991 0.996625 0.501301
5586 1 0.895729 0.986743 0.501978
5588 1 0.908626 0.984501 0.504629
2859 1 0.91703 0.998528 0.502106
5590 1 0.924872 0.988267 0.503679
2861 1 0.932172 0.999103 0.503269
5592 1 0.936124 0.986686 0.506129
2866 1 0.957816 0.998698 0.50464
2863 1 0.945082 0.999386 0.50273
5594 1 0.950229 0.988842 0.505577
5596 1 0.967177 0.987117 0.505765
2865 1 0.972228 1.00108 0.50484
5600 1 0.993785 0.985603 0.50425
1 1 0.987027 1.0009 0.504804
5598 1 0.980009 0.987877 0.505421
