ITEM: TIMESTEP
399800
ITEM: NUMBER OF ATOMS
5600
ITEM: BOX BOUNDS pp pp pp
-3.2235000000000007e+01 3.2235000000000007e+01
-3.1904375875418808e+01 3.1904375875418808e+01
-5.5260000000000005e+01 5.5260000000000005e+01
ITEM: ATOMS id type xs ys zs
2940 1 0.00027345 0.0218199 0.428286
2790 1 0.323235 0.00677353 0.426327
2646 1 0.339461 0.00395745 0.422784
2580 1 0.333696 0.0153675 0.427501
2574 1 0.346347 0.0207218 0.428524
57 1 0.353145 0.00430522 0.424031
64 1 0.359296 0.0165045 0.427294
273 1 0.368124 0.00414503 0.423174
485 1 0.378071 0.013474 0.423582
405 1 0.389612 0.0247369 0.426104
131 1 0.394694 0.00761465 0.422571
202 1 0.40379 0.0185915 0.423652
196 1 0.409984 0.00739211 0.419704
2806 1 0.41792 0.0204656 0.422963
2786 1 0.425583 0.00822071 0.419886
204 1 0.436745 0.0132365 0.420022
268 1 0.448215 0.0247768 0.421496
2796 1 0.45133 0.0121321 0.418011
278 1 0.46246 0.0200141 0.420125
272 1 0.463099 0.00506837 0.417091
2791 1 0.475337 0.0179439 0.420134
2726 1 0.48553 0.0104336 0.418239
3081 1 0.492584 0.0217181 0.422431
5321 1 0.495838 0.00297108 0.418278
554 1 0.373381 0.0256472 0.42714
275 1 0.417341 0.0314154 0.427168
2712 1 0.403123 0.0323093 0.428515
133 1 0.431452 0.0250966 0.423019
277 1 0.430016 0.0399857 0.42613
418 1 0.441581 0.0365077 0.422613
3157 1 0.440061 0.0488819 0.426423
207 1 0.458127 0.0329628 0.422261
2946 1 0.468822 0.0399443 0.425999
68 1 0.453545 0.0438245 0.426129
136 1 0.479461 0.0291384 0.423494
2795 1 0.485075 0.0405275 0.427544
67 1 0.497379 0.0393457 0.425126
2871 1 0.492497 0.053192 0.428085
285 1 0.00544894 0.00429375 0.429636
10 1 0.0165014 0.0160025 0.431986
215 1 0.0219927 0.000298104 0.432225
13 1 0.0320876 0.010303 0.433135
154 1 0.038782 0.0231484 0.432337
9 1 0.0265132 0.024974 0.431426
8 1 0.0401779 0.000335713 0.434139
2746 1 0.0499771 0.0127623 0.434591
21 1 0.0697813 0.00800926 0.434625
85 1 0.0598274 0.0216366 0.43378
19 1 0.0739486 0.0246712 0.435569
2742 1 0.0838349 0.0102834 0.436286
2674 1 0.100104 0.0135326 0.435044
20 1 0.11449 0.00958158 0.43581
22 1 0.128673 0.0126034 0.436318
91 1 0.143919 0.0143948 0.43589
171 1 0.167109 0.0249127 0.437483
238 1 0.159281 0.0116808 0.436056
245 1 0.17481 0.013546 0.436582
180 1 0.165925 0.000182817 0.436026
236 1 0.198694 0.023107 0.43548
115 1 0.189249 0.00764677 0.435262
382 1 0.215719 0.0242565 0.4357
244 1 0.204159 0.0103652 0.434675
159 1 0.220857 0.011428 0.433186
2686 1 0.232639 0.0230896 0.435007
113 1 0.236789 0.00687234 0.434635
104 1 0.246289 0.0205475 0.434139
42 1 0.2632 0.0128085 0.431514
2707 1 0.251563 0.00208681 0.431614
2771 1 0.27719 0.0223647 0.434401
2633 1 0.279652 0.00964705 0.430885
2772 1 0.295584 0.0137539 0.429015
2630 1 0.290837 0.0226723 0.4338
2713 1 0.309718 0.00787259 0.428943
2781 1 0.309352 0.0210495 0.432343
2715 1 0.321872 0.0228121 0.429573
223 1 0.0102338 0.0446629 0.430035
306 1 0.0131363 0.0291302 0.429556
3007 1 0.0221724 0.042098 0.431349
151 1 0.0366468 0.0410247 0.432431
77 1 0.0506542 0.0327629 0.432418
80 1 0.06232 0.0369429 0.434585
152 1 0.0517736 0.0461455 0.432425
375 1 0.0680614 0.0486869 0.435438
231 1 0.0926117 0.0254525 0.435624
155 1 0.079797 0.0369349 0.435599
83 1 0.094355 0.0418969 0.438034
14 1 0.108451 0.0269874 0.436082
89 1 0.121526 0.0285841 0.437315
15 1 0.110977 0.0408399 0.435951
239 1 0.136169 0.027799 0.436748
17 1 0.145469 0.0396407 0.437087
302 1 0.128837 0.0425929 0.437497
303 1 0.152653 0.027345 0.436649
93 1 0.161324 0.0390988 0.43973
237 1 0.183751 0.0262076 0.436781
174 1 0.175445 0.0366596 0.440383
97 1 0.190763 0.037871 0.440017
384 1 0.184437 0.0497782 0.442776
114 1 0.223318 0.0363227 0.437502
246 1 0.208218 0.0350487 0.438426
106 1 0.215303 0.0480031 0.439675
168 1 0.237728 0.0354817 0.43773
105 1 0.229064 0.0489839 0.441536
102 1 0.244286 0.0479028 0.442161
46 1 0.261839 0.0261839 0.435089
2763 1 0.254087 0.0348315 0.438506
177 1 0.270483 0.0348609 0.437924
2705 1 0.286957 0.0359825 0.438117
103 1 0.275699 0.0483416 0.442148
2714 1 0.29244 0.0479369 0.441631
2505 1 0.301623 0.0326479 0.436368
2644 1 0.315478 0.0342184 0.435908
2778 1 0.306339 0.0443302 0.440214
2782 1 0.321371 0.0456777 0.437761
2627 1 0.331695 0.0312563 0.432675
55 1 0.334277 0.0440383 0.436658
619 1 0.345024 0.0350082 0.432714
56 1 0.347286 0.0478954 0.437731
403 1 0.358888 0.0301748 0.430208
52 1 0.361317 0.0436223 0.434256
58 1 0.375406 0.0367097 0.431144
2718 1 0.390722 0.035342 0.429902
263 1 0.386428 0.0478808 0.433744
262 1 0.400872 0.0441768 0.432087
2649 1 0.415064 0.0455856 0.428929
3145 1 0.0182698 0.0558201 0.431617
3000 1 0.00532354 0.0635347 0.431386
3005 1 0.0205434 0.0691849 0.432095
222 1 0.0314343 0.0551223 0.433514
372 1 0.0439329 0.0557933 0.431774
150 1 0.0334172 0.0681977 0.433742
216 1 0.0522636 0.0700349 0.435606
153 1 0.0588322 0.0595233 0.435104
226 1 0.0726804 0.0610407 0.436631
436 1 0.0701685 0.0749286 0.436337
12 1 0.0847734 0.0518878 0.438277
147 1 0.0847508 0.0692371 0.438259
450 1 0.0961644 0.0623239 0.439022
18 1 0.106535 0.0525059 0.439531
162 1 0.121479 0.0529047 0.437945
439 1 0.114327 0.0661782 0.438865
447 1 0.101718 0.0742035 0.440322
230 1 0.139771 0.0519026 0.439889
307 1 0.131079 0.0615627 0.439909
157 1 0.148182 0.0641727 0.442441
445 1 0.156881 0.054251 0.440913
49 1 0.317543 0.0587238 0.441309
127 1 0.34658 0.0597426 0.440269
2710 1 0.332355 0.0566898 0.440517
43 1 0.339854 0.0707373 0.442591
484 1 0.372146 0.0510277 0.434374
129 1 0.359373 0.0581187 0.436578
54 1 0.369361 0.0663468 0.439786
128 1 0.354311 0.069288 0.442763
137 1 0.38416 0.062192 0.437022
335 1 0.397044 0.0582324 0.435708
195 1 0.394723 0.0728497 0.440888
200 1 0.411685 0.0574736 0.434756
410 1 0.408497 0.0677204 0.439682
198 1 0.424952 0.0632538 0.436462
203 1 0.426738 0.0538665 0.43075
201 1 0.439836 0.0594674 0.430833
206 1 0.435304 0.0712908 0.436625
411 1 0.44969 0.0747403 0.440346
138 1 0.474796 0.0505987 0.429143
414 1 0.452417 0.0638079 0.434566
415 1 0.455927 0.0544394 0.429054
345 1 0.468826 0.063174 0.431976
486 1 0.461437 0.0729913 0.43781
280 1 0.483271 0.064423 0.432911
66 1 0.497771 0.0647725 0.433278
3078 1 0.0133504 0.0935725 0.433473
3073 1 0.0117652 0.0788819 0.432661
225 1 0.0290775 0.0837971 0.435334
3004 1 0.0420502 0.0806661 0.433183
299 1 0.0413661 0.093818 0.43706
227 1 0.0282231 0.0988141 0.436917
374 1 0.0556541 0.0825393 0.437436
220 1 0.0684352 0.0917605 0.438529
291 1 0.056278 0.0978386 0.439823
371 1 0.0838487 0.0838627 0.437843
377 1 0.0965073 0.0882071 0.440054
297 1 0.0832058 0.0978934 0.440219
160 1 0.114618 0.082901 0.442366
483 1 0.379349 0.0760725 0.44218
269 1 0.433991 0.0797975 0.442445
620 1 0.474637 0.0759621 0.436935
3084 1 0.489895 0.07859 0.436828
3008 1 0.0166244 0.109291 0.4368
3144 1 0.00611626 0.122873 0.438178
3215 1 0.00385122 0.104982 0.434285
219 1 0.0179727 0.124038 0.442078
156 1 0.0287826 0.113308 0.440002
294 1 0.0422135 0.108208 0.438707
293 1 0.0573646 0.114531 0.442574
228 1 0.072987 0.106845 0.441665
290 1 0.0292221 0.13092 0.442514
243 1 0.198201 0.0485274 0.443649
47 1 0.261395 0.0475242 0.443617
163 1 0.124174 0.0740486 0.442886
92 1 0.138844 0.0743326 0.445169
164 1 0.170105 0.052696 0.443321
169 1 0.163191 0.0653504 0.443556
533 1 0.176789 0.0642774 0.444954
172 1 0.188494 0.0627567 0.44577
98 1 0.222326 0.0631241 0.443311
117 1 0.205442 0.0614679 0.443472
45 1 0.235921 0.0619012 0.444551
178 1 0.233489 0.0748934 0.445188
2775 1 0.249168 0.0732037 0.446249
2706 1 0.249791 0.0582468 0.44478
2708 1 0.270124 0.0580079 0.445313
2774 1 0.259579 0.0663223 0.447708
2784 1 0.276551 0.0699603 0.447575
108 1 0.287766 0.062103 0.446593
2502 1 0.297632 0.0735948 0.446956
112 1 0.303395 0.0586746 0.444496
191 1 0.31266 0.0698356 0.447452
2780 1 0.32583 0.0709002 0.444432
516 1 0.102531 0.0971857 0.445397
520 1 0.118045 0.0983595 0.445558
232 1 0.126928 0.0859626 0.445705
378 1 0.141104 0.0897258 0.44936
379 1 0.151883 0.0775278 0.446334
452 1 0.167417 0.0775421 0.447527
234 1 0.154971 0.0903251 0.44817
456 1 0.165491 0.0954376 0.452372
240 1 0.183691 0.0754465 0.448624
309 1 0.192257 0.0877068 0.45066
455 1 0.175993 0.0891001 0.449773
304 1 0.177949 0.0999289 0.453715
525 1 0.194056 0.0990321 0.455379
328 1 0.198091 0.0753217 0.447334
175 1 0.215801 0.0806473 0.445302
311 1 0.209494 0.0917847 0.452483
2776 1 0.226872 0.0862039 0.449092
250 1 0.225448 0.098595 0.454572
40 1 0.241272 0.0850943 0.449229
176 1 0.237859 0.0966918 0.453353
2699 1 0.254656 0.0854749 0.451152
2702 1 0.264978 0.0785707 0.450076
189 1 0.253768 0.0977236 0.456298
2700 1 0.267093 0.0930221 0.451799
48 1 0.284951 0.0798063 0.449206
122 1 0.296994 0.0867386 0.451423
120 1 0.280619 0.0923318 0.451528
44 1 0.310228 0.0846275 0.448779
123 1 0.321046 0.0936428 0.451992
199 1 0.308046 0.0990143 0.453358
266 1 0.325458 0.0823496 0.448628
320 1 0.340362 0.0817091 0.447915
184 1 0.337196 0.095406 0.451964
258 1 0.349211 0.0921328 0.450417
121 1 0.354265 0.0798917 0.447361
125 1 0.367648 0.0783374 0.445445
551 1 0.364435 0.0892691 0.449529
552 1 0.373616 0.099626 0.453586
265 1 0.37811 0.0865948 0.448841
336 1 0.391185 0.083269 0.445167
124 1 0.387209 0.0936216 0.45041
259 1 0.419546 0.0766852 0.443458
337 1 0.402463 0.0934932 0.449235
416 1 0.406749 0.0798131 0.444841
65 1 0.417743 0.0890041 0.448406
338 1 0.436581 0.0900481 0.447234
350 1 0.447153 0.0974007 0.451977
270 1 0.431358 0.0971978 0.453119
617 1 0.453654 0.0849833 0.44457
344 1 0.46785 0.0842565 0.443102
548 1 0.463006 0.0942637 0.449067
339 1 0.477276 0.0945285 0.449708
205 1 0.498811 0.0890814 0.443244
412 1 0.483211 0.0835762 0.444
3364 1 0.491342 0.0970535 0.449413
441 1 0.0411621 0.120065 0.443002
376 1 0.0904772 0.107869 0.443825
518 1 0.0800894 0.118217 0.444884
301 1 0.0975989 0.120474 0.447656
241 1 0.109391 0.11134 0.448925
519 1 0.110109 0.124377 0.451897
528 1 0.123751 0.122296 0.453889
440 1 0.122187 0.11194 0.449513
381 1 0.130681 0.100745 0.449441
517 1 0.136021 0.114381 0.453375
373 1 0.146136 0.102387 0.451716
315 1 0.158749 0.107012 0.452598
448 1 0.150131 0.117862 0.454651
387 1 0.177627 0.112557 0.457073
170 1 0.190488 0.111302 0.456846
318 1 0.210214 0.103289 0.456746
51 1 0.290737 0.100223 0.455478
194 1 0.331386 0.105433 0.456582
332 1 0.35858 0.1013 0.455896
267 1 0.398533 0.104404 0.454574
690 1 0.413455 0.101366 0.453615
342 1 0.455745 0.105536 0.455478
629 1 0.470675 0.106909 0.454068
3224 1 0.497624 0.10648 0.453577
490 1 0.483641 0.107203 0.455533
3150 1 0.00671363 0.136256 0.443386
433 1 0.0199434 0.138943 0.445912
3141 1 0.00056133 0.147738 0.445436
145 1 0.0316433 0.145474 0.4481
366 1 0.0428045 0.137286 0.446437
218 1 0.0679889 0.126017 0.446114
295 1 0.0540039 0.127904 0.444457
364 1 0.0739129 0.139279 0.448834
430 1 0.0590861 0.144486 0.450237
224 1 0.0865962 0.132324 0.448493
367 1 0.0876799 0.144775 0.454728
444 1 0.120789 0.133674 0.456632
442 1 0.103819 0.137355 0.453698
586 1 0.1351 0.126745 0.456928
288 1 0.0157388 0.151233 0.449124
300 1 0.00221447 0.160316 0.450075
3286 1 0.0151538 0.163989 0.454476
3355 1 0.00394376 0.171319 0.456033
289 1 0.027382 0.155978 0.4518
358 1 0.0444262 0.151282 0.451732
359 1 0.0454103 0.164785 0.457084
3359 1 0.0314113 0.167898 0.457107
365 1 0.0709447 0.152977 0.454664
505 1 0.0566103 0.154736 0.456395
526 1 0.163767 0.115693 0.457504
527 1 0.18784 0.123052 0.461034
380 1 0.202272 0.11738 0.460725
310 1 0.223207 0.109771 0.460607
317 1 0.215159 0.118957 0.465466
251 1 0.238377 0.106055 0.459593
321 1 0.247878 0.112449 0.463632
185 1 0.233357 0.119677 0.465835
247 1 0.263216 0.107492 0.460116
119 1 0.258131 0.120299 0.465464
116 1 0.273494 0.117533 0.464147
183 1 0.277729 0.101789 0.459451
118 1 0.288614 0.111332 0.462201
242 1 0.284612 0.120557 0.468531
190 1 0.298462 0.12013 0.464443
193 1 0.315819 0.104904 0.458522
333 1 0.303613 0.109827 0.458366
331 1 0.313313 0.115984 0.4642
179 1 0.345636 0.104722 0.457368
261 1 0.3279 0.113179 0.463234
478 1 0.340979 0.113363 0.462547
489 1 0.335775 0.122591 0.467861
481 1 0.348609 0.121816 0.467058
182 1 0.357808 0.11469 0.460971
319 1 0.3713 0.109894 0.461077
271 1 0.366217 0.121383 0.466046
329 1 0.38598 0.107869 0.457155
487 1 0.381441 0.117041 0.464451
408 1 0.395146 0.113012 0.462591
474 1 0.388962 0.123448 0.47032
264 1 0.407763 0.1123 0.460388
693 1 0.417228 0.117871 0.464363
622 1 0.405442 0.120945 0.468325
340 1 0.423327 0.108715 0.457559
417 1 0.440774 0.106883 0.457395
621 1 0.448901 0.116289 0.461841
488 1 0.434175 0.115791 0.462038
630 1 0.446194 0.124781 0.468023
3362 1 0.427948 0.123675 0.467329
559 1 0.462506 0.115256 0.459278
697 1 0.463339 0.121459 0.465858
420 1 0.47701 0.118276 0.461792
3291 1 0.489602 0.119311 0.459138
655 1 0.114251 0.146744 0.458414
369 1 0.127831 0.142041 0.460783
582 1 0.144778 0.137663 0.459842
513 1 0.139769 0.149091 0.464335
454 1 0.156931 0.128806 0.459136
451 1 0.155407 0.141767 0.464076
514 1 0.168237 0.140865 0.465338
305 1 0.170829 0.126911 0.461009
392 1 0.193762 0.133646 0.46606
665 1 0.181182 0.141254 0.470936
314 1 0.206239 0.129852 0.465468
253 1 0.218852 0.132732 0.469452
385 1 0.232713 0.131592 0.470991
249 1 0.247991 0.12517 0.470371
313 1 0.267752 0.12832 0.469949
126 1 0.294288 0.129812 0.470376
459 1 0.321467 0.12555 0.467762
187 1 0.308378 0.128174 0.468532
413 1 0.470567 0.132204 0.470384
560 1 0.496075 0.12813 0.465046
623 1 0.482464 0.127074 0.466796
361 1 0.0576458 0.169686 0.460125
434 1 0.0683591 0.162967 0.45853
437 1 0.0838138 0.158275 0.457717
370 1 0.0775479 0.171522 0.462781
506 1 0.095247 0.166939 0.462106
292 1 0.101208 0.150972 0.457282
368 1 0.110506 0.162603 0.461814
656 1 0.118738 0.167292 0.467648
507 1 0.105325 0.174201 0.46621
511 1 0.128358 0.158245 0.464484
298 1 0.140341 0.163985 0.469444
446 1 0.165352 0.151978 0.471173
577 1 0.152898 0.152213 0.467474
3290 1 0.0179031 0.178469 0.458713
352 1 0.0200268 0.190145 0.466883
281 1 0.00522484 0.187478 0.46401
282 1 0.00441025 0.197818 0.468431
422 1 0.0423671 0.176726 0.461619
214 1 0.0343322 0.196221 0.47114
3149 1 0.0288697 0.180705 0.462733
429 1 0.0396749 0.186875 0.466639
3357 1 0.0541103 0.181815 0.465543
363 1 0.0693221 0.180415 0.466021
427 1 0.0618722 0.190477 0.470573
296 1 0.0804941 0.187612 0.470883
508 1 0.0877817 0.178116 0.467108
438 1 0.0967697 0.183527 0.470805
393 1 0.194924 0.147811 0.475178
388 1 0.203841 0.137312 0.471682
607 1 0.213325 0.144838 0.477011
327 1 0.226198 0.139582 0.475412
530 1 0.232049 0.148964 0.479436
257 1 0.243303 0.138158 0.475867
316 1 0.246231 0.14769 0.481862
252 1 0.255783 0.13528 0.475397
50 1 0.270424 0.138749 0.476092
386 1 0.261844 0.147343 0.481163
192 1 0.280386 0.130793 0.473252
390 1 0.292495 0.138536 0.475944
326 1 0.281435 0.142165 0.479585
2777 1 0.29025 0.149394 0.483917
188 1 0.321166 0.13332 0.474793
389 1 0.30744 0.138472 0.474639
395 1 0.301354 0.14373 0.481175
248 1 0.316859 0.143883 0.479705
323 1 0.332787 0.13088 0.473041
255 1 0.347849 0.132325 0.475225
186 1 0.33528 0.14149 0.478583
407 1 0.326719 0.147823 0.482873
409 1 0.358674 0.126963 0.472171
480 1 0.350123 0.141032 0.48285
541 1 0.363782 0.135725 0.47847
469 1 0.374921 0.126795 0.47217
547 1 0.375165 0.13543 0.482032
546 1 0.386372 0.133169 0.477274
537 1 0.38898 0.139335 0.483371
687 1 0.414738 0.128232 0.472839
550 1 0.400543 0.130398 0.476138
406 1 0.413656 0.140078 0.479543
482 1 0.401172 0.144134 0.484359
558 1 0.442258 0.136273 0.473692
695 1 0.426945 0.135584 0.475911
626 1 0.438753 0.143245 0.480384
475 1 0.427277 0.147335 0.483177
3293 1 0.45768 0.132543 0.472701
346 1 0.452955 0.144149 0.476755
3222 1 0.470015 0.143078 0.476426
3571 1 0.485052 0.140827 0.472964
696 1 0.496934 0.148591 0.478827
579 1 0.128942 0.174418 0.473343
449 1 0.155301 0.163618 0.474771
717 1 0.169796 0.163 0.476055
584 1 0.158636 0.174267 0.478346
509 1 0.17882 0.152981 0.474574
523 1 0.180082 0.170969 0.480667
592 1 0.189085 0.160336 0.479153
601 1 0.193355 0.168823 0.485174
312 1 0.22 0.153629 0.481987
531 1 0.203734 0.157675 0.480113
464 1 0.211692 0.162619 0.484878
308 1 0.227186 0.164233 0.485435
391 1 0.343386 0.150419 0.485631
692 1 0.44432 0.153267 0.484314
625 1 0.469588 0.151286 0.482492
624 1 0.45804 0.151028 0.484051
3223 1 0.483295 0.152217 0.478202
628 1 0.494991 0.157656 0.48431
3499 1 0.0484198 0.196468 0.471442
435 1 0.0728008 0.197024 0.476277
502 1 0.0865268 0.196171 0.475801
651 1 0.112998 0.182677 0.472462
428 1 0.102615 0.194525 0.476909
716 1 0.117823 0.193164 0.477014
443 1 0.145063 0.175421 0.474279
657 1 0.129548 0.186812 0.476497
568 1 0.149164 0.184705 0.480543
580 1 0.138717 0.191925 0.48167
578 1 0.168222 0.178739 0.481437
3710 1 0.0204783 0.201444 0.473187
3077 1 0.00725712 0.221896 0.479138
3207 1 0.0077293 0.207694 0.472759
357 1 0.0193314 0.21467 0.475816
3498 1 0.0323362 0.218637 0.479609
3220 1 0.0352411 0.207691 0.474514
3283 1 0.0480724 0.208175 0.477896
356 1 0.0509254 0.218529 0.483826
632 1 0.0595486 0.202255 0.475579
501 1 0.0654863 0.210063 0.481184
353 1 0.080503 0.206025 0.481019
662 1 0.0949521 0.204389 0.482007
575 1 0.110878 0.203406 0.482548
497 1 0.125348 0.200402 0.481717
3420 1 0.0189376 0.227466 0.482397
334 1 0.274661 0.149079 0.486056
479 1 0.361388 0.144368 0.486838
468 1 0.376279 0.147318 0.487733
324 1 0.390453 0.146522 0.491624
608 1 0.414488 0.149403 0.486961
605 1 0.219045 0.17328 0.489078
604 1 0.239487 0.156812 0.485954
466 1 0.235307 0.169225 0.491506
602 1 0.246012 0.169518 0.494033
472 1 0.251701 0.160321 0.488328
458 1 0.265108 0.158145 0.488931
461 1 0.259315 0.167179 0.494217
396 1 0.270919 0.169766 0.499177
322 1 0.276374 0.16149 0.492955
686 1 0.288042 0.155399 0.491045
615 1 0.284599 0.169115 0.498938
399 1 0.295219 0.162062 0.496262
401 1 0.311702 0.151372 0.485781
256 1 0.301129 0.153268 0.48976
330 1 0.311225 0.160887 0.492723
679 1 0.314718 0.17008 0.499102
616 1 0.3224 0.157906 0.488863
674 1 0.326143 0.164841 0.496521
743 1 0.341972 0.163367 0.497186
813 1 0.334445 0.15511 0.491076
887 1 0.358465 0.165569 0.499674
749 1 0.366182 0.152638 0.493542
815 1 0.351494 0.156011 0.493045
471 1 0.373218 0.162837 0.499607
953 1 0.385628 0.164762 0.499195
325 1 0.383464 0.155934 0.494431
260 1 0.397896 0.159312 0.497603
677 1 0.413333 0.161238 0.497952
553 1 0.404496 0.153008 0.490874
404 1 0.419596 0.157445 0.492189
538 1 0.431957 0.155857 0.489056
545 1 0.438977 0.165159 0.496198
536 1 0.450361 0.162176 0.490987
467 1 0.466618 0.159045 0.490439
896 1 0.459629 0.168868 0.49812
3431 1 0.472894 0.168618 0.495519
3435 1 0.480475 0.158408 0.486351
767 1 0.488412 0.164514 0.491378
654 1 0.14909 0.194816 0.487518
590 1 0.162854 0.189234 0.485932
512 1 0.161 0.199397 0.492129
587 1 0.172516 0.192939 0.491371
585 1 0.180849 0.181469 0.486952
653 1 0.19324 0.181087 0.489114
594 1 0.18647 0.193587 0.494273
383 1 0.198102 0.189522 0.495835
457 1 0.205818 0.17529 0.489564
453 1 0.212905 0.18447 0.49471
529 1 0.242212 0.178632 0.498946
397 1 0.228148 0.181321 0.495954
759 1 0.488339 0.176884 0.497503
3633 1 0.0459579 0.222817 0.48985
3426 1 0.0729812 0.224994 0.492475
3430 1 0.0643664 0.21858 0.48673
499 1 0.0782896 0.2144 0.486435
504 1 0.0915357 0.214527 0.48744
495 1 0.0984924 0.220417 0.494176
496 1 0.104504 0.210717 0.488301
494 1 0.114906 0.219254 0.494312
645 1 0.122966 0.20925 0.487894
583 1 0.14494 0.216948 0.49845
581 1 0.13124 0.214039 0.494923
515 1 0.137422 0.20471 0.48791
591 1 0.148317 0.205124 0.494745
663 1 0.163125 0.207341 0.49815
510 1 0.177792 0.201392 0.498761
702 1 0.00637247 0.242221 0.492672
3849 1 0.00635233 0.23155 0.485785
771 1 0.0208742 0.237582 0.489724
3567 1 0.0217237 0.244026 0.497138
3429 1 0.034651 0.22927 0.485858
3568 1 0.0367946 0.235542 0.493856
3559 1 0.0479581 0.235532 0.49812
3352 1 0.0574639 0.229215 0.492841
3427 1 0.0628743 0.234369 0.49974
3424 1 0.084669 0.226539 0.497081
543 1 0.29895 0.174933 0.500863
745 1 0.335937 0.172431 0.502145
741 1 0.349324 0.172116 0.504164
819 1 0.361801 0.173744 0.505168
970 1 0.393847 0.169457 0.503791
822 1 0.40614 0.169251 0.501378
398 1 0.426309 0.168193 0.501038
670 1 0.211002 0.193499 0.500161
476 1 0.227062 0.191165 0.501305
477 1 0.239421 0.189466 0.504152
460 1 0.248385 0.1959 0.510413
534 1 0.256479 0.186054 0.505759
473 1 0.270802 0.181137 0.503733
806 1 0.267393 0.192855 0.509371
465 1 0.255097 0.175985 0.500265
609 1 0.282035 0.194577 0.508423
540 1 0.286944 0.18124 0.504366
400 1 0.298074 0.188857 0.506544
394 1 0.292963 0.198253 0.51216
676 1 0.311796 0.186877 0.504727
959 1 0.320362 0.196166 0.508157
470 1 0.322853 0.179352 0.504707
884 1 0.340329 0.184242 0.505311
814 1 0.330746 0.189352 0.50945
746 1 0.345563 0.194966 0.508603
821 1 0.356289 0.185372 0.509028
761 1 0.372572 0.185272 0.511583
886 1 0.377846 0.175328 0.506109
756 1 0.388445 0.184448 0.508872
610 1 0.398484 0.192142 0.512856
672 1 0.385271 0.194767 0.514113
751 1 0.415132 0.176268 0.506043
402 1 0.401127 0.181195 0.508398
747 1 0.42297 0.18347 0.511093
681 1 0.411073 0.189776 0.512078
614 1 0.433266 0.179498 0.505277
556 1 0.447892 0.175803 0.50268
974 1 0.448443 0.185057 0.510264
3433 1 0.43465 0.189327 0.512945
765 1 0.462403 0.179452 0.507164
612 1 0.461102 0.189194 0.512561
763 1 0.474995 0.190136 0.510297
611 1 0.473145 0.178843 0.501731
618 1 0.483444 0.185831 0.505247
971 1 0.491421 0.194577 0.510528
830 1 0.496891 0.186203 0.502793
599 1 0.171416 0.213834 0.503205
643 1 0.156813 0.21919 0.501552
521 1 0.194759 0.217527 0.510333
589 1 0.179099 0.2233 0.509245
737 1 0.187299 0.207841 0.503971
598 1 0.195503 0.201004 0.500244
595 1 0.219131 0.203469 0.505851
812 1 0.206178 0.206365 0.505306
522 1 0.209977 0.21702 0.513267
877 1 0.22246 0.211155 0.511813
532 1 0.231898 0.200392 0.509202
597 1 0.243445 0.206743 0.51396
463 1 0.260844 0.202804 0.513286
524 1 0.274782 0.206033 0.514275
606 1 0.28801 0.211768 0.514202
673 1 0.306842 0.201708 0.509916
535 1 0.319458 0.205386 0.513637
744 1 0.335111 0.204601 0.511279
773 1 0.0372544 0.247819 0.500944
566 1 0.0644376 0.246327 0.505802
3570 1 0.0511832 0.247036 0.504531
704 1 0.0776119 0.239214 0.502581
492 1 0.0954241 0.233129 0.503059
563 1 0.0818956 0.245437 0.508844
426 1 0.0950287 0.245214 0.510961
362 1 0.122075 0.227666 0.500632
635 1 0.120211 0.243045 0.513722
432 1 0.11011 0.240271 0.506669
493 1 0.108685 0.249283 0.512362
573 1 0.108337 0.229515 0.50099
658 1 0.149721 0.22744 0.505306
498 1 0.126778 0.238519 0.507424
648 1 0.136871 0.226526 0.502476
649 1 0.144485 0.237411 0.511798
725 1 0.165899 0.225995 0.506731
784 1 0.15885 0.235104 0.51096
593 1 0.171104 0.233498 0.513949
638 1 0.0217194 0.269788 0.511127
3630 1 0.00735226 0.262011 0.509242
706 1 0.0128131 0.251749 0.501614
3636 1 0.0260183 0.256624 0.50614
701 1 0.0410598 0.256755 0.506792
633 1 0.0426122 0.264322 0.513074
705 1 0.0547604 0.258738 0.509536
503 1 0.0673728 0.255623 0.511091
889 1 0.368846 0.195865 0.515077
892 1 0.35579 0.199004 0.515221
682 1 0.422817 0.195856 0.515889
542 1 0.40653 0.19707 0.518564
902 1 0.449261 0.194233 0.51586
666 1 0.234058 0.217109 0.515135
596 1 0.248241 0.220189 0.519052
809 1 0.262566 0.215326 0.51786
600 1 0.278294 0.221423 0.521466
671 1 0.295392 0.222622 0.519577
678 1 0.305926 0.211653 0.515597
817 1 0.309041 0.223876 0.519056
1105 1 0.320098 0.2165 0.519062
885 1 0.345663 0.208125 0.516951
882 1 0.33305 0.215018 0.519771
818 1 0.346628 0.220624 0.5233
820 1 0.356324 0.21282 0.52072
750 1 0.369028 0.207161 0.518767
888 1 0.359683 0.223655 0.527117
1015 1 0.371051 0.218481 0.524447
684 1 0.394047 0.200879 0.51882
753 1 0.395807 0.213225 0.523216
1030 1 0.381892 0.206389 0.520247
960 1 0.383954 0.2168 0.525279
754 1 0.409064 0.210687 0.523082
544 1 0.420694 0.204556 0.521994
891 1 0.417944 0.220486 0.527636
968 1 0.404895 0.222642 0.528546
824 1 0.436695 0.200927 0.519883
826 1 0.428925 0.21425 0.524451
613 1 0.446606 0.210097 0.523758
1045 1 0.436696 0.224355 0.526916
825 1 0.466578 0.201007 0.516183
752 1 0.46097 0.20807 0.522582
683 1 0.467322 0.223703 0.52617
757 1 0.474633 0.212704 0.52054
680 1 0.453364 0.223349 0.525555
897 1 0.482926 0.200752 0.515575
699 1 0.487002 0.214392 0.519028
3781 1 0.499517 0.217242 0.521987
769 1 0.496512 0.204446 0.516116
571 1 0.135751 0.245656 0.514953
650 1 0.151642 0.24677 0.517281
659 1 0.167819 0.244145 0.518018
732 1 0.19326 0.227758 0.515263
731 1 0.18406 0.235861 0.518196
804 1 0.199151 0.241324 0.523068
652 1 0.179066 0.248431 0.523508
735 1 0.224198 0.225018 0.516638
729 1 0.208069 0.229738 0.518951
730 1 0.212248 0.239322 0.526427
603 1 0.224645 0.232519 0.524372
949 1 0.231461 0.240619 0.528567
740 1 0.238539 0.228935 0.522785
668 1 0.269481 0.230493 0.523297
675 1 0.256316 0.229279 0.5254
883 1 0.289656 0.231086 0.524855
742 1 0.304337 0.232161 0.52523
1040 1 0.31931 0.232193 0.523786
963 1 0.335674 0.2287 0.526335
755 1 0.483242 0.225694 0.525086
3360 1 0.0344827 0.273618 0.5153
715 1 0.0584506 0.264659 0.517091
639 1 0.0729858 0.265764 0.51818
567 1 0.0811699 0.2557 0.514504
431 1 0.0863345 0.266769 0.521477
569 1 0.0961492 0.25959 0.516166
570 1 0.113465 0.257821 0.518318
565 1 0.102844 0.270068 0.52466
574 1 0.118446 0.264473 0.524944
576 1 0.143745 0.254692 0.52204
360 1 0.128059 0.254276 0.520358
787 1 0.133806 0.261494 0.527916
647 1 0.148782 0.263232 0.527922
564 1 0.160331 0.253445 0.523431
641 1 0.192845 0.251048 0.526547
847 1 0.00896116 0.276707 0.514476
776 1 0.0200899 0.282472 0.517144
778 1 0.00941026 0.290348 0.519037
842 1 0.0248041 0.295866 0.524153
772 1 0.0336492 0.283133 0.520304
711 1 0.047546 0.275628 0.519081
3640 1 0.0406152 0.294314 0.525972
709 1 0.0655697 0.275838 0.523349
707 1 0.0521527 0.284562 0.524618
642 1 0.0701019 0.287377 0.528252
631 1 0.0919185 0.276404 0.525649
703 1 0.0787171 0.278179 0.524627
774 1 0.0117189 0.30103 0.522941
989 1 0.00753108 0.311318 0.528187
724 1 0.220811 0.247048 0.532865
667 1 0.246686 0.239476 0.529228
739 1 0.261428 0.240156 0.530152
811 1 0.275879 0.237927 0.528965
462 1 0.294082 0.241066 0.529984
1009 1 0.283519 0.249872 0.532495
944 1 0.309578 0.242685 0.529191
947 1 0.325542 0.24298 0.529844
893 1 0.33934 0.243177 0.532235
1029 1 0.350573 0.233417 0.529728
823 1 0.367125 0.231162 0.532595
1031 1 0.372392 0.243081 0.536068
1026 1 0.358122 0.244643 0.53528
962 1 0.379514 0.228661 0.530302
1236 1 0.393229 0.231024 0.531562
961 1 0.386921 0.242136 0.535733
969 1 0.40411 0.24329 0.537709
1103 1 0.409418 0.233722 0.532564
748 1 0.419575 0.243116 0.537558
967 1 0.425323 0.229486 0.530915
762 1 0.434436 0.240214 0.535568
973 1 0.447083 0.234673 0.531598
831 1 0.442827 0.247354 0.538486
976 1 0.456511 0.242475 0.536539
1039 1 0.464 0.232722 0.531562
688 1 0.471866 0.245304 0.537137
904 1 0.476419 0.235442 0.532357
691 1 0.49162 0.233762 0.530083
978 1 0.486711 0.244055 0.536925
900 1 0.498129 0.239301 0.535924
562 1 0.115729 0.274239 0.530976
637 1 0.129869 0.274598 0.530292
788 1 0.143771 0.27371 0.533712
852 1 0.167737 0.260087 0.528771
636 1 0.159571 0.271194 0.534052
862 1 0.18282 0.259054 0.531406
727 1 0.197194 0.260825 0.534062
720 1 0.188833 0.273245 0.535526
863 1 0.175247 0.268184 0.534962
728 1 0.205647 0.251009 0.530668
733 1 0.212599 0.260416 0.536162
943 1 0.21872 0.269476 0.540709
646 1 0.202994 0.272254 0.53893
669 1 0.23635 0.251656 0.531986
940 1 0.227427 0.259612 0.536935
808 1 0.24579 0.262943 0.537838
816 1 0.269753 0.251951 0.533121
738 1 0.254809 0.250335 0.534445
872 1 0.258393 0.261788 0.537796
874 1 0.260763 0.272074 0.542372
588 1 0.274596 0.27383 0.541774
791 1 0.27338 0.263094 0.537393
948 1 0.292386 0.263059 0.53701
1017 1 0.289879 0.272242 0.542279
1087 1 0.298532 0.25162 0.535069
958 1 0.31568 0.25164 0.534442
880 1 0.307985 0.263194 0.537846
1089 1 0.320934 0.26559 0.540246
955 1 0.330895 0.255105 0.535401
1093 1 0.346905 0.250871 0.538926
957 1 0.338675 0.26366 0.541
1092 1 0.364998 0.253665 0.539214
1167 1 0.356319 0.261912 0.542787
1305 1 0.379249 0.254536 0.541373
1243 1 0.395392 0.250477 0.54113
972 1 0.411912 0.255138 0.542689
980 1 0.428153 0.251926 0.540243
694 1 0.465146 0.253922 0.54221
1111 1 0.451615 0.255943 0.542645
832 1 0.494477 0.250258 0.541746
1117 1 0.479308 0.25238 0.542675
712 1 0.0569407 0.29592 0.528772
644 1 0.086605 0.289489 0.530307
848 1 0.0918313 0.297186 0.536079
782 1 0.0761391 0.297622 0.533598
722 1 0.103699 0.281397 0.53105
783 1 0.104791 0.293213 0.535823
850 1 0.119151 0.285535 0.53551
861 1 0.116312 0.299015 0.539342
853 1 0.130395 0.294886 0.539388
640 1 0.134115 0.281274 0.536582
718 1 0.143826 0.291072 0.541513
916 1 0.153279 0.283316 0.538573
572 1 0.168734 0.284978 0.538764
719 1 0.184644 0.284996 0.540551
912 1 0.0207799 0.309962 0.530598
992 1 0.0128216 0.321442 0.532481
845 1 0.0339844 0.306483 0.529123
779 1 0.0268791 0.321192 0.533335
986 1 0.0397943 0.317566 0.534172
987 1 0.0482127 0.306448 0.531026
919 1 0.061879 0.304324 0.534001
714 1 0.0553419 0.313739 0.538208
925 1 0.0699614 0.312743 0.540261
1147 1 0.0832871 0.307484 0.538939
1001 1 0.0892975 0.317521 0.542295
1068 1 0.10286 0.307196 0.541586
990 1 0.00490771 0.333494 0.535777
710 1 0.0131596 0.344316 0.539763
851 1 0.0185742 0.333245 0.536331
917 1 0.0322967 0.330922 0.538206
634 1 0.026502 0.345184 0.539745
786 1 0.0495135 0.329378 0.540388
1138 1 0.0397509 0.340205 0.54134
1062 1 0.0617794 0.326745 0.542354
995 1 0.0022851 0.357023 0.542035
721 1 0.24448 0.272976 0.544702
939 1 0.304512 0.271937 0.542895
1013 1 0.347924 0.274849 0.545617
1012 1 0.370928 0.267243 0.544077
1101 1 0.386472 0.266647 0.543802
890 1 0.402014 0.264382 0.544887
1044 1 0.424612 0.263951 0.544496
1043 1 0.416388 0.274432 0.547918
834 1 0.437179 0.260436 0.543646
898 1 0.443777 0.271495 0.547029
895 1 0.45736 0.268432 0.546229
906 1 0.492132 0.25959 0.547314
975 1 0.475433 0.262707 0.546862
1116 1 0.488654 0.270917 0.550701
855 1 0.155269 0.294343 0.543072
859 1 0.166494 0.298204 0.543865
500 1 0.197491 0.283945 0.543057
713 1 0.179548 0.296396 0.545662
792 1 0.192847 0.298055 0.547998
660 1 0.211667 0.2828 0.544766
801 1 0.224363 0.288763 0.548385
723 1 0.2057 0.294482 0.548898
805 1 0.228889 0.276708 0.544639
867 1 0.240258 0.286361 0.54768
873 1 0.249895 0.295572 0.553411
789 1 0.234238 0.297232 0.553352
661 1 0.254549 0.285133 0.547522
664 1 0.267313 0.283373 0.546392
938 1 0.266238 0.294421 0.551712
800 1 0.278723 0.292641 0.549207
875 1 0.284634 0.283262 0.545272
803 1 0.290739 0.296259 0.55178
881 1 0.300048 0.28421 0.547667
878 1 0.319183 0.27743 0.545741
950 1 0.309778 0.293674 0.552291
807 1 0.322997 0.288919 0.551353
1016 1 0.333159 0.276997 0.547278
810 1 0.348409 0.288628 0.550152
946 1 0.336977 0.297658 0.551634
941 1 0.360457 0.278315 0.548618
1237 1 0.365251 0.291598 0.551599
1098 1 0.375362 0.279628 0.54809
934 1 0.389719 0.277012 0.548831
932 1 0.382005 0.292357 0.550645
1025 1 0.397957 0.291598 0.550623
954 1 0.402975 0.277009 0.547777
1183 1 0.41243 0.289131 0.54991
1047 1 0.432887 0.277749 0.548139
1038 1 0.42559 0.287689 0.549799
1181 1 0.442031 0.290058 0.548453
901 1 0.449578 0.2989 0.551703
1110 1 0.473152 0.277884 0.549771
1036 1 0.456295 0.281082 0.549953
894 1 0.468453 0.290087 0.553476
1042 1 0.485849 0.284942 0.552014
3855 1 0.482907 0.299806 0.555386
838 1 0.496986 0.297536 0.554635
3641 1 0.499411 0.281608 0.552375
1289 1 0.116548 0.309451 0.544755
1202 1 0.105261 0.321701 0.545442
858 1 0.129293 0.304099 0.544905
930 1 0.143943 0.303064 0.545319
1277 1 0.126493 0.320209 0.549898
921 1 0.138751 0.314583 0.55008
793 1 0.153911 0.308756 0.549249
866 1 0.153611 0.321792 0.554673
796 1 0.167921 0.320595 0.552708
857 1 0.17095 0.308814 0.547703
865 1 0.185156 0.312678 0.550937
780 1 0.180117 0.324112 0.554758
876 1 0.195155 0.322623 0.556167
794 1 0.201854 0.308712 0.552935
734 1 0.219086 0.301419 0.552752
868 1 0.216751 0.313658 0.55686
931 1 0.230872 0.312828 0.556454
871 1 0.245294 0.309023 0.556586
1023 1 0.262463 0.30508 0.555343
942 1 0.278748 0.305906 0.554098
736 1 0.292167 0.310857 0.556848
945 1 0.304724 0.306285 0.556165
956 1 0.321945 0.303903 0.554832
1099 1 0.353437 0.300815 0.553196
1084 1 0.364285 0.313402 0.555685
1024 1 0.372805 0.302718 0.553285
1097 1 0.390279 0.303252 0.551275
1171 1 0.383472 0.311001 0.556057
1028 1 0.398444 0.312098 0.555911
1034 1 0.407834 0.303437 0.552852
1037 1 0.42289 0.300526 0.552052
764 1 0.435101 0.301957 0.551701
1179 1 0.433858 0.314817 0.555198
1172 1 0.447516 0.312599 0.556032
965 1 0.461316 0.303504 0.555804
907 1 0.473776 0.313205 0.557036
785 1 0.0541367 0.342806 0.545902
1340 1 0.0673089 0.340075 0.546555
996 1 0.0758061 0.326942 0.544759
790 1 0.0921442 0.330361 0.546669
1272 1 0.081049 0.340537 0.548585
1275 1 0.0976285 0.341188 0.550047
998 1 0.112679 0.331685 0.549552
1349 1 0.112329 0.343464 0.554778
1209 1 0.143123 0.331238 0.55284
937 1 0.125705 0.331906 0.552934
1133 1 0.133403 0.343354 0.554844
918 1 0.0189716 0.354782 0.543992
923 1 0.0103278 0.366088 0.545335
988 1 0.0349306 0.355386 0.544864
1066 1 0.0428464 0.364692 0.550757
1067 1 0.0302018 0.365921 0.548689
1054 1 0.0466728 0.352518 0.547731
1063 1 0.0498192 0.374944 0.553624
1070 1 0.0557577 0.361402 0.552822
991 1 0.0677516 0.350602 0.5515
1267 1 0.0729923 0.362304 0.555278
1061 1 0.0862205 0.352216 0.55328
999 1 0.101084 0.355499 0.555826
922 1 0.00443069 0.377313 0.548033
985 1 0.0218034 0.37671 0.55063
3984 1 0.0129009 0.38909 0.55169
1065 1 0.00159355 0.393171 0.553413
1126 1 0.0388645 0.380018 0.552906
982 1 0.0257156 0.391009 0.553282
1064 1 0.0391777 0.393218 0.554642
1265 1 0.0625106 0.375999 0.556516
924 1 0.0523276 0.389942 0.554563
3990 1 0.00095996 0.406384 0.556206
1055 1 0.0168229 0.403044 0.555561
920 1 0.0332227 0.405957 0.556905
1060 1 0.0257942 0.418187 0.557038
797 1 0.243206 0.321587 0.558728
860 1 0.226981 0.324244 0.55965
799 1 0.257595 0.31868 0.558368
879 1 0.273333 0.318547 0.558262
802 1 0.285994 0.323931 0.560924
951 1 0.302269 0.320175 0.560396
1091 1 0.315431 0.314963 0.558143
1018 1 0.346853 0.311448 0.557149
798 1 0.3303 0.311979 0.557489
1166 1 0.358077 0.324366 0.558151
1100 1 0.375762 0.321754 0.558458
1033 1 0.389932 0.323877 0.559679
1041 1 0.418131 0.313458 0.557383
1096 1 0.409643 0.323915 0.558777
1178 1 0.46093 0.320662 0.557823
3644 1 0.493421 0.309528 0.559793
3576 1 0.494706 0.323954 0.562311
1135 1 0.148473 0.338964 0.558987
856 1 0.161935 0.335341 0.55827
927 1 0.162058 0.347155 0.562547
929 1 0.175031 0.336252 0.561148
726 1 0.188655 0.334817 0.559548
1208 1 0.187999 0.34722 0.565226
795 1 0.2098 0.325064 0.557236
935 1 0.204158 0.341735 0.562239
1140 1 0.222044 0.338357 0.562809
854 1 0.232071 0.348446 0.564817
933 1 0.238127 0.338301 0.561094
1006 1 0.248212 0.347071 0.565072
1005 1 0.254974 0.333265 0.562369
1019 1 0.268762 0.329818 0.563266
1021 1 0.26299 0.345466 0.565825
1002 1 0.278682 0.339796 0.56449
1149 1 0.292156 0.334274 0.56333
1073 1 0.288948 0.349346 0.565923
952 1 0.323361 0.326334 0.560837
1083 1 0.303185 0.342774 0.565966
1168 1 0.310108 0.331354 0.561676
1150 1 0.317721 0.343596 0.565278
1077 1 0.337948 0.326526 0.559181
1069 1 0.331749 0.33855 0.563376
1090 1 0.344773 0.346294 0.56569
1148 1 0.351205 0.332765 0.562637
1239 1 0.367653 0.330923 0.560514
1080 1 0.359861 0.343799 0.5628
1074 1 0.372677 0.342242 0.563396
1027 1 0.382607 0.334565 0.560399
1102 1 0.391572 0.344533 0.562428
1108 1 0.400652 0.334844 0.55966
966 1 0.404181 0.349864 0.563757
1035 1 0.415175 0.338898 0.560597
977 1 0.427075 0.329055 0.558216
1107 1 0.442294 0.327761 0.557877
1184 1 0.431953 0.340459 0.562175
3642 1 0.447658 0.341401 0.563746
1048 1 0.456155 0.331542 0.561227
1050 1 0.461384 0.343792 0.563624
3784 1 0.469283 0.331079 0.559596
1113 1 0.481579 0.326262 0.5616
1049 1 0.489974 0.337834 0.563909
1118 1 0.476414 0.342374 0.561817
1201 1 0.0900415 0.364688 0.557909
997 1 0.121864 0.352711 0.557633
1134 1 0.106104 0.373055 0.559525
1273 1 0.118097 0.364445 0.561016
928 1 0.146561 0.353541 0.559302
1141 1 0.135547 0.361832 0.561356
1076 1 0.147286 0.368762 0.563473
1206 1 0.130122 0.373383 0.56368
870 1 0.174566 0.352123 0.564629
1000 1 0.156623 0.357493 0.564067
1003 1 0.158141 0.373908 0.567233
1287 1 0.171695 0.365171 0.567776
1224 1 0.18477 0.359234 0.568646
1004 1 0.199017 0.36879 0.569837
1219 1 0.217001 0.35003 0.566418
869 1 0.202736 0.355641 0.566975
1082 1 0.213095 0.364141 0.569137
1008 1 0.226893 0.362982 0.569131
864 1 0.242264 0.358416 0.568152
1234 1 0.274384 0.35293 0.56897
1007 1 0.261521 0.358193 0.567304
936 1 0.267271 0.370492 0.570057
1146 1 0.252307 0.366183 0.568629
1086 1 0.28218 0.365755 0.570573
1159 1 0.316189 0.356592 0.568627
1227 1 0.301679 0.358899 0.568449
1303 1 0.312351 0.368846 0.571181
1304 1 0.32937 0.350314 0.567583
1240 1 0.339468 0.360783 0.569664
1020 1 0.35471 0.352098 0.567318
1312 1 0.36966 0.355998 0.565857
1241 1 0.362394 0.366042 0.568675
1441 1 0.350675 0.368521 0.570914
1170 1 0.393344 0.359489 0.568579
1176 1 0.382663 0.351733 0.56558
1032 1 0.38032 0.364885 0.569446
1249 1 0.396245 0.374921 0.570762
1014 1 0.408443 0.364866 0.567351
964 1 0.420558 0.35277 0.564104
1112 1 0.424498 0.366358 0.567029
1095 1 0.438477 0.355165 0.565224
1115 1 0.438551 0.369864 0.567288
1189 1 0.453611 0.356469 0.564489
3856 1 0.451683 0.372132 0.567199
3711 1 0.471086 0.355924 0.564047
1114 1 0.465241 0.367526 0.566894
3860 1 0.494553 0.370767 0.567247
909 1 0.48749 0.354924 0.564758
3994 1 0.481658 0.3747 0.566472
1199 1 0.0647987 0.388512 0.55864
1338 1 0.077794 0.377384 0.557603
1278 1 0.0942406 0.380239 0.55787
1334 1 0.0780151 0.391144 0.5598
1196 1 0.0916529 0.39426 0.561141
1216 1 0.105594 0.392064 0.561729
1335 1 0.114819 0.397935 0.567432
1210 1 0.11555 0.38093 0.564047
1264 1 0.12704 0.387546 0.566232
1193 1 0.142117 0.381222 0.56791
1215 1 0.139804 0.396823 0.568947
1266 1 0.171139 0.38018 0.571315
1155 1 0.22607 0.376009 0.571341
1145 1 0.25189 0.379789 0.57128
1246 1 0.417653 0.378414 0.570062
1106 1 0.446049 0.384045 0.569483
1185 1 0.430283 0.383 0.568842
1177 1 0.433068 0.395762 0.571228
1120 1 0.447955 0.399885 0.571068
1187 1 0.459941 0.38298 0.568352
1316 1 0.46616 0.396932 0.571329
3851 1 0.472174 0.382237 0.56877
1330 1 0.488543 0.384666 0.567916
3921 1 0.479617 0.395624 0.570094
1056 1 0.00999368 0.415238 0.558903
1204 1 0.0434787 0.417044 0.560555
3850 1 0.0508351 0.405086 0.558317
1271 1 0.0671302 0.404491 0.559182
1269 1 0.0588843 0.416335 0.560575
1268 1 0.0775648 0.4182 0.561205
1198 1 0.0819574 0.404712 0.562616
1274 1 0.0904189 0.416409 0.564648
1342 1 0.0996784 0.404521 0.564196
1331 1 0.104681 0.41784 0.565381
1406 1 0.116749 0.412701 0.567199
1475 1 0.128941 0.404551 0.569783
1276 1 0.128553 0.417932 0.570874
1130 1 0.0118634 0.43935 0.561821
1203 1 0.0204234 0.428915 0.560108
1131 1 0.00392921 0.429986 0.558822
4055 1 0.00126016 0.44708 0.561258
3918 1 0.0256937 0.443607 0.561454
1128 1 0.0347213 0.430665 0.561101
1261 1 0.0433706 0.440659 0.561196
1403 1 0.0502254 0.42895 0.563185
1407 1 0.0677127 0.429346 0.562665
1332 1 0.0577872 0.439697 0.561958
1191 1 0.0657502 0.448311 0.564025
1404 1 0.0973593 0.431262 0.565654
4199 1 0.0846848 0.432556 0.563571
1543 1 0.0818823 0.447145 0.563837
1401 1 0.0947523 0.446321 0.566465
1472 1 0.121082 0.44487 0.570476
1144 1 0.105724 0.439481 0.5677
1408 1 0.117821 0.426094 0.567712
1405 1 0.133118 0.432481 0.571133
3907 1 0.014611 0.457017 0.562455
1197 1 0.00699904 0.470535 0.564365
1122 1 0.022031 0.469903 0.563869
1194 1 0.034384 0.459487 0.561416
1754 1 0.0464266 0.469825 0.563162
1471 1 0.0520555 0.454373 0.562685
4264 1 0.06438 0.464934 0.565118
1542 1 0.0789408 0.460754 0.565091
1402 1 0.0936057 0.460288 0.566131
1411 1 0.11086 0.454353 0.568829
1409 1 0.105628 0.465719 0.567014
4269 1 0.118972 0.471814 0.569528
1615 1 0.12746 0.458655 0.568934
1410 1 0.135967 0.4668 0.571307
4126 1 0.0223186 0.498176 0.56645
3988 1 0.0181537 0.481701 0.564732
4053 1 0.00635923 0.49586 0.566946
3981 1 0.00237376 0.483421 0.567135
4339 1 0.0326441 0.476384 0.563404
1613 1 0.0297269 0.48879 0.566304
4408 1 0.0440457 0.487673 0.565906
4409 1 0.0596114 0.479047 0.565676
1684 1 0.0715922 0.490585 0.566847
4128 1 0.0546375 0.493492 0.566716
1333 1 0.0914145 0.475324 0.56743
4410 1 0.0756372 0.476614 0.56517
1616 1 0.0859363 0.488201 0.565328
1412 1 0.0975052 0.497863 0.566466
1687 1 0.122655 0.498526 0.568696
4340 1 0.104119 0.481903 0.568165
1544 1 0.111048 0.492335 0.566254
1617 1 0.123103 0.483054 0.568179
1481 1 0.135795 0.49411 0.570077
1486 1 0.136475 0.480296 0.5705
1075 1 0.213572 0.37431 0.573426
1022 1 0.239731 0.372092 0.571802
1233 1 0.295806 0.369233 0.571681
1373 1 0.325064 0.362328 0.571699
1164 1 0.333812 0.372594 0.573825
1286 1 0.155182 0.387812 0.571773
1213 1 0.167989 0.393473 0.573866
1136 1 0.184995 0.375047 0.571743
1139 1 0.199392 0.379309 0.573633
1291 1 0.183221 0.389439 0.574254
1143 1 0.197654 0.394507 0.575643
1169 1 0.211204 0.389242 0.574722
1079 1 0.224209 0.390473 0.574387
1152 1 0.237474 0.384992 0.573578
1156 1 0.237445 0.397601 0.5759
1218 1 0.255543 0.3917 0.574206
1142 1 0.267934 0.388967 0.57277
1217 1 0.279711 0.379383 0.572753
1297 1 0.279419 0.395117 0.575726
1154 1 0.288607 0.387187 0.575127
1306 1 0.302254 0.397203 0.577115
1223 1 0.304625 0.379708 0.575165
1081 1 0.317443 0.392929 0.576828
1235 1 0.320718 0.378063 0.574696
1242 1 0.331245 0.390008 0.574254
1088 1 0.345795 0.384127 0.573766
1369 1 0.372869 0.377073 0.574097
1160 1 0.359121 0.379643 0.574606
1238 1 0.359208 0.395692 0.575587
1380 1 0.375176 0.391694 0.576813
1250 1 0.387151 0.381946 0.575511
1175 1 0.394825 0.394841 0.574967
1104 1 0.419802 0.393581 0.571599
1302 1 0.406182 0.386128 0.572661
1416 1 0.141425 0.412224 0.571968
1137 1 0.152973 0.40237 0.572361
1205 1 0.154331 0.416319 0.57547
1071 1 0.168042 0.408492 0.575937
1491 1 0.169353 0.422925 0.578225
1011 1 0.183286 0.401042 0.576866
1284 1 0.195998 0.408657 0.57784
1214 1 0.180744 0.414583 0.580762
1353 1 0.197214 0.423121 0.581097
1295 1 0.209673 0.403647 0.577195
1493 1 0.211688 0.415307 0.578588
1221 1 0.223055 0.404088 0.577353
1293 1 0.226443 0.42211 0.581903
1211 1 0.23685 0.410797 0.577509
1010 1 0.249708 0.404701 0.576562
1352 1 0.264889 0.403127 0.576158
1085 1 0.257631 0.419748 0.57977
1228 1 0.272246 0.416269 0.578483
1162 1 0.287825 0.405852 0.578409
1220 1 0.290394 0.421592 0.579782
1153 1 0.302084 0.413255 0.578709
1151 1 0.317134 0.406456 0.578894
1375 1 0.314875 0.423383 0.579094
1174 1 0.343791 0.400245 0.575861
1307 1 0.331716 0.420023 0.578344
1229 1 0.331278 0.407189 0.577467
1231 1 0.346474 0.41865 0.577077
1354 1 0.356754 0.410247 0.575798
1355 1 0.369061 0.406357 0.576311
1376 1 0.373206 0.420795 0.579017
1436 1 0.38476 0.408176 0.577892
1308 1 0.397667 0.411575 0.577094
1377 1 0.386655 0.422857 0.579614
1186 1 0.408589 0.401373 0.573756
1182 1 0.412537 0.415705 0.575456
1449 1 0.421896 0.407648 0.573043
1109 1 0.436 0.411373 0.57351
1247 1 0.426943 0.422671 0.574843
1257 1 0.449418 0.41397 0.572808
1329 1 0.462073 0.411078 0.573592
1253 1 0.472755 0.422258 0.574478
3991 1 0.478313 0.408925 0.574132
3925 1 0.493672 0.405359 0.572359
4062 1 0.487086 0.422699 0.574341
1341 1 0.143744 0.425309 0.574322
1336 1 0.146056 0.442769 0.573498
1422 1 0.158158 0.433772 0.576725
1343 1 0.172209 0.439945 0.579161
1474 1 0.159042 0.449352 0.57729
1417 1 0.184724 0.431987 0.579795
1495 1 0.198931 0.441022 0.580834
1413 1 0.187537 0.449714 0.580611
1207 1 0.209629 0.429189 0.581811
1485 1 0.213867 0.442322 0.58248
1285 1 0.242332 0.426073 0.581158
1347 1 0.230005 0.437362 0.58094
1425 1 0.243473 0.442884 0.581287
1282 1 0.263915 0.433757 0.57978
1499 1 0.261619 0.448246 0.581924
1078 1 0.27664 0.427841 0.580481
1292 1 0.275113 0.441471 0.580536
1300 1 0.289197 0.43571 0.581232
1281 1 0.288442 0.449117 0.581324
1357 1 0.300654 0.427731 0.580934
1270 1 0.301621 0.442481 0.58053
1158 1 0.314019 0.437231 0.580427
1222 1 0.323671 0.448101 0.580312
1225 1 0.326913 0.433528 0.577773
1161 1 0.342827 0.430297 0.577945
1094 1 0.337028 0.443003 0.579213
1226 1 0.36166 0.426448 0.577456
1163 1 0.352835 0.44013 0.578797
1288 1 0.366788 0.43697 0.580589
1365 1 0.376118 0.448625 0.580741
1489 1 0.380529 0.434387 0.579841
1381 1 0.393439 0.439128 0.580553
1157 1 0.403973 0.425874 0.579692
1245 1 0.417723 0.432077 0.576885
1320 1 0.408594 0.442163 0.580302
1322 1 0.423124 0.444288 0.577755
1317 1 0.443476 0.425878 0.575293
1325 1 0.435574 0.43623 0.577508
1385 1 0.438263 0.449647 0.577925
1251 1 0.459067 0.428919 0.574821
1188 1 0.451377 0.442138 0.576856
1173 1 0.465637 0.442664 0.57478
1180 1 0.479118 0.435027 0.574162
3930 1 0.495447 0.43507 0.576588
1248 1 0.482046 0.449368 0.575285
1345 1 0.137032 0.450419 0.57211
1426 1 0.148623 0.459149 0.573702
1419 1 0.149654 0.473724 0.573826
1421 1 0.160671 0.467788 0.576224
1473 1 0.173411 0.457692 0.578968
1418 1 0.187193 0.467051 0.579198
1484 1 0.199542 0.464524 0.581346
1500 1 0.208519 0.454942 0.582649
1351 1 0.222965 0.466174 0.581185
1483 1 0.227141 0.451327 0.583511
1420 1 0.235971 0.459087 0.581075
1434 1 0.24833 0.457912 0.581358
1346 1 0.235152 0.473481 0.58014
1283 1 0.273826 0.457093 0.580458
1279 1 0.259272 0.465083 0.579137
1569 1 0.273784 0.473318 0.579924
1294 1 0.288221 0.463543 0.580737
1339 1 0.301596 0.457339 0.581635
1280 1 0.303462 0.47046 0.580996
1427 1 0.316643 0.458705 0.580328
1363 1 0.322976 0.472318 0.582612
1428 1 0.332062 0.45808 0.5806
1358 1 0.347865 0.453846 0.581626
1575 1 0.33946 0.468561 0.583263
1230 1 0.354493 0.463917 0.583894
1384 1 0.362542 0.452441 0.58111
1350 1 0.368478 0.466409 0.582572
1506 1 0.397798 0.452206 0.581313
1356 1 0.385277 0.455789 0.581985
1374 1 0.3846 0.468308 0.580925
1309 1 0.39842 0.467784 0.582567
1437 1 0.412595 0.457121 0.581915
1315 1 0.416004 0.471036 0.581284
1165 1 0.425165 0.460579 0.580866
1190 1 0.438581 0.464063 0.578577
1318 1 0.449144 0.471771 0.579088
1388 1 0.451756 0.455689 0.577983
4061 1 0.468483 0.455597 0.576625
1256 1 0.464052 0.469083 0.577053
4063 1 0.492964 0.462986 0.575622
1465 1 0.4789 0.46637 0.575802
1395 1 0.497326 0.450164 0.574102
1551 1 0.147362 0.487612 0.572142
1545 1 0.174607 0.475863 0.577783
1550 1 0.161381 0.484558 0.574605
1414 1 0.171997 0.493162 0.576469
1641 1 0.183884 0.498834 0.576687
1415 1 0.184635 0.484746 0.578492
1431 1 0.196865 0.494493 0.578302
1492 1 0.197321 0.480289 0.580443
1362 1 0.211131 0.476866 0.580387
1496 1 0.209335 0.493729 0.580554
1578 1 0.223251 0.48439 0.579479
1574 1 0.224518 0.497039 0.579406
1348 1 0.237279 0.491014 0.579145
1424 1 0.249123 0.478965 0.57953
1711 1 0.251715 0.492819 0.578593
1512 1 0.273285 0.498724 0.578196
1435 1 0.263764 0.483774 0.580296
1440 1 0.288512 0.498847 0.57827
1429 1 0.288323 0.476858 0.579614
1508 1 0.278874 0.48595 0.578846
1290 1 0.297632 0.486 0.579596
1432 1 0.30674 0.496588 0.578847
1212 1 0.321163 0.494244 0.582032
1647 1 0.312445 0.481555 0.581424
1498 1 0.331429 0.484009 0.582985
1423 1 0.349664 0.477424 0.583941
1504 1 0.342814 0.490254 0.583492
1299 1 0.361405 0.481894 0.582114
1503 1 0.362861 0.494884 0.584835
1372 1 0.376787 0.479427 0.5835
1460 1 0.379247 0.494465 0.583243
1524 1 0.393355 0.481602 0.58267
1296 1 0.39348 0.49474 0.583113
1452 1 0.420173 0.484106 0.582103
1445 1 0.41937 0.497476 0.580464
1389 1 0.406542 0.482641 0.58234
1232 1 0.407976 0.494291 0.583384
1464 1 0.446453 0.485286 0.580641
1311 1 0.431365 0.477798 0.580939
1319 1 0.433378 0.492587 0.581398
1456 1 0.473737 0.479342 0.576507
4074 1 0.472297 0.495064 0.576611
3923 1 0.459433 0.485114 0.578749
1387 1 0.490404 0.47713 0.575525
1455 1 0.485045 0.488841 0.577539
2296 1 0.307341 0.896085 0.427699
2292 1 0.323258 0.896243 0.427762
2303 1 0.337793 0.895794 0.428563
2442 1 0.353817 0.898911 0.425307
2514 1 0.367877 0.898285 0.425825
2375 1 0.38015 0.890184 0.427235
2222 1 0.391597 0.895212 0.426552
2447 1 0.390793 0.879728 0.428267
2443 1 0.40683 0.887061 0.427443
2232 1 0.416703 0.899163 0.427333
2299 1 0.433282 0.892354 0.428219
2444 1 0.2852 0.920887 0.425201
2430 1 0.297111 0.905022 0.428069
2436 1 0.297766 0.91814 0.427653
2367 1 0.312051 0.913468 0.425872
2435 1 0.328218 0.908968 0.425295
2577 1 0.342155 0.907747 0.424935
2500 1 0.340939 0.920188 0.422278
2434 1 0.357361 0.91004 0.423259
2511 1 0.370928 0.918827 0.422322
2576 1 0.35418 0.923611 0.420805
2366 1 0.379502 0.905579 0.423317
2302 1 0.39244 0.911725 0.423123
2441 1 0.383772 0.921797 0.4215
2223 1 0.405085 0.904817 0.425509
2374 1 0.403812 0.921106 0.421602
2373 1 0.419222 0.91385 0.424411
2518 1 0.431118 0.905371 0.425503
5259 1 0.434786 0.91787 0.424314
2516 1 0.446846 0.907111 0.425627
5251 1 0.450815 0.923157 0.424507
2310 1 0.462225 0.910135 0.426857
5260 1 0.4795 0.913562 0.427955
5182 1 0.493264 0.914114 0.426109
2635 1 0.273771 0.928684 0.427237
2501 1 0.264839 0.939475 0.425699
2634 1 0.25276 0.934269 0.428242
2489 1 0.258345 0.949737 0.426857
2620 1 0.276013 0.948372 0.424567
2697 1 0.292919 0.930646 0.421896
2569 1 0.280804 0.935183 0.422254
2431 1 0.288848 0.946771 0.421823
2372 1 0.322723 0.925803 0.42477
2371 1 0.307988 0.929471 0.424247
2651 1 0.304188 0.942636 0.422187
2510 1 0.32012 0.942677 0.421212
2364 1 0.33291 0.93749 0.421226
2438 1 0.349162 0.93677 0.419589
2785 1 0.364735 0.932859 0.41894
2437 1 0.356435 0.94878 0.419128
2645 1 0.370979 0.946615 0.418812
2446 1 0.39474 0.930639 0.419236
2520 1 0.379244 0.933487 0.420592
2787 1 0.388489 0.943505 0.419245
2517 1 0.414881 0.928787 0.422206
2583 1 0.406179 0.938756 0.419595
2647 1 0.419468 0.943876 0.420157
2582 1 0.428812 0.93019 0.422575
5111 1 0.434853 0.943203 0.41928
2378 1 0.440599 0.932574 0.42313
5113 1 0.448681 0.94955 0.4183
2448 1 0.465691 0.925908 0.423843
5333 1 0.455322 0.937872 0.421352
5188 1 0.463659 0.948903 0.417679
5256 1 0.474964 0.938191 0.42015
5050 1 0.482788 0.926213 0.424559
5186 1 0.4985 0.929268 0.423607
2727 1 0.488425 0.938096 0.421888
110 1 0.245071 0.950759 0.427409
2486 1 0.238773 0.964935 0.428169
2566 1 0.252293 0.96387 0.426688
2711 1 0.267786 0.962234 0.423565
2570 1 0.295549 0.972754 0.422502
2507 1 0.285272 0.960353 0.423522
2575 1 0.279862 0.973768 0.424431
2581 1 0.299648 0.956707 0.420225
2439 1 0.31495 0.954833 0.420644
2504 1 0.309862 0.969267 0.421822
2638 1 0.329181 0.952553 0.420559
2655 1 0.3258 0.967581 0.419849
2578 1 0.340387 0.965045 0.419682
2509 1 0.343967 0.951184 0.419116
2789 1 0.357 0.961931 0.418232
62 1 0.37137 0.959075 0.419016
2723 1 0.365244 0.973502 0.419871
2579 1 0.350894 0.974489 0.418435
2783 1 0.385309 0.958216 0.419562
63 1 0.381015 0.971501 0.418827
2648 1 0.3995 0.95121 0.418926
2584 1 0.396993 0.967074 0.418904
2640 1 0.412276 0.955392 0.41804
2508 1 0.41374 0.968357 0.417631
5114 1 0.424469 0.957462 0.418151
2587 1 0.437736 0.958207 0.418147
2512 1 0.432458 0.970325 0.418755
2585 1 0.449521 0.971544 0.415591
2586 1 0.45564 0.962013 0.417142
2656 1 0.469928 0.962535 0.416184
5257 1 0.479956 0.950132 0.419205
2652 1 0.495727 0.9503 0.419555
2519 1 0.485213 0.962549 0.418116
2450 1 0.494765 0.971923 0.41739
2558 1 0.247132 0.978938 0.428371
2701 1 0.260536 0.975227 0.427207
2642 1 0.272754 0.985459 0.426306
2709 1 0.284981 0.997648 0.427297
2571 1 0.289666 0.983698 0.424626
60 1 0.298965 0.996128 0.426729
2368 1 0.319412 0.979665 0.421572
2636 1 0.304051 0.985387 0.423864
2643 1 0.314193 0.992669 0.424264
2779 1 0.333623 0.979739 0.419556
2503 1 0.330094 0.99248 0.42253
2432 1 0.344994 0.988636 0.422064
197 1 0.359198 0.989963 0.422461
53 1 0.373502 0.987046 0.420811
2657 1 0.387195 0.982101 0.420767
2717 1 0.383444 0.99849 0.423118
59 1 0.401257 0.993336 0.421611
2653 1 0.421098 0.977571 0.416066
61 1 0.405992 0.981484 0.419659
130 1 0.419867 0.992817 0.417925
2716 1 0.437061 0.984085 0.416291
134 1 0.435079 0.997738 0.417776
135 1 0.464496 0.975401 0.417509
5325 1 0.452954 0.985718 0.416396
2725 1 0.450981 0.997562 0.415496
2794 1 0.466697 0.990718 0.415725
2792 1 0.479086 0.976695 0.415393
2721 1 0.485375 0.988953 0.417326
2788 1 0.475722 0.999956 0.41627
2567 1 0.349928 0.845703 0.440751
2492 1 0.332643 0.845206 0.442269
2143 1 0.362058 0.846343 0.438441
2427 1 0.36874 0.8362 0.442084
2288 1 0.354495 0.831809 0.442655
2300 1 0.395811 0.838335 0.440778
2307 1 0.382204 0.843643 0.439443
2229 1 0.420038 0.847134 0.440082
2238 1 0.405411 0.848461 0.439432
5118 1 0.410308 0.833448 0.442818
2363 1 0.43457 0.8479 0.441747
4911 1 0.451949 0.84534 0.44258
5184 1 0.470697 0.845716 0.440735
4979 1 0.498261 0.846767 0.441778
2308 1 0.483891 0.846387 0.440396
2483 1 0.247225 0.871577 0.439639
2625 1 0.261133 0.863956 0.441548
2559 1 0.273991 0.869472 0.437421
2142 1 0.291359 0.853475 0.442471
2490 1 0.275885 0.858962 0.441134
2362 1 0.288292 0.865408 0.43897
2359 1 0.300754 0.87131 0.436097
2360 1 0.322143 0.855598 0.439132
2496 1 0.306407 0.855979 0.440928
2356 1 0.316208 0.86714 0.43654
2428 1 0.329207 0.870879 0.435023
2289 1 0.337021 0.856149 0.436796
2285 1 0.34627 0.868028 0.435174
2283 1 0.357212 0.857843 0.437021
2354 1 0.364895 0.86579 0.432726
2429 1 0.372529 0.851883 0.436748
2295 1 0.393387 0.854071 0.436631
2498 1 0.397559 0.865698 0.431802
2358 1 0.381806 0.859398 0.433185
2513 1 0.412576 0.860075 0.435676
2377 1 0.422427 0.868981 0.432165
2298 1 0.408196 0.874329 0.430404
5255 1 0.426876 0.857271 0.436654
5115 1 0.44194 0.856447 0.437836
4972 1 0.437101 0.866752 0.434265
2650 1 0.453619 0.864237 0.435976
2376 1 0.461589 0.854466 0.436347
5043 1 0.469337 0.86919 0.434401
5126 1 0.478302 0.857725 0.435067
5123 1 0.493997 0.859983 0.437992
5045 1 0.486135 0.87179 0.435033
2694 1 0.234144 0.884107 0.441973
2693 1 0.231991 0.898212 0.439837
34 1 0.245942 0.898928 0.436733
2572 1 0.245808 0.884534 0.43811
2440 1 0.262028 0.878423 0.438102
2565 1 0.259915 0.89362 0.435656
2433 1 0.275545 0.885418 0.434606
2769 1 0.287742 0.879167 0.435762
2703 1 0.287439 0.893769 0.431931
2506 1 0.298899 0.887735 0.432173
2370 1 0.313445 0.880856 0.431584
2353 1 0.339098 0.882237 0.431249
2361 1 0.325717 0.883549 0.42915
2369 1 0.366932 0.886086 0.429641
2365 1 0.356163 0.876412 0.431179
2515 1 0.351975 0.88832 0.428802
2449 1 0.376558 0.875418 0.429903
2445 1 0.421474 0.884749 0.429087
5112 1 0.431395 0.880456 0.432745
2304 1 0.446208 0.890784 0.428886
5042 1 0.44366 0.87826 0.430958
2379 1 0.459611 0.893221 0.429792
2231 1 0.457511 0.875338 0.432543
5194 1 0.473285 0.898209 0.43083
5048 1 0.467826 0.882708 0.43274
5185 1 0.488785 0.897496 0.429823
5127 1 0.481969 0.884484 0.432554
2305 1 0.494717 0.884575 0.431538
2934 1 0.0105478 0.921916 0.439976
2866 1 0.00482483 0.903697 0.440935
2737 1 0.018626 0.906398 0.442316
2662 1 0.0272967 0.921126 0.441714
2766 1 0.212313 0.906073 0.442436
35 1 0.209983 0.917567 0.440684
33 1 0.22521 0.913459 0.438014
2624 1 0.240233 0.912293 0.436526
2695 1 0.24889 0.920949 0.431352
2698 1 0.271747 0.91304 0.42987
111 1 0.261504 0.922905 0.429745
2560 1 0.273348 0.900043 0.432456
2683 1 0.257592 0.906093 0.432854
2564 1 0.28454 0.90606 0.429627
71 1 0.00707304 0.935397 0.437806
142 1 0.0212867 0.934674 0.439834
5525 1 0.0104473 0.947742 0.435798
5597 1 0.0243462 0.948621 0.437066
2667 1 0.0399934 0.948442 0.439861
2 1 0.0344113 0.93407 0.441309
2668 1 0.0570733 0.948159 0.440836
2536 1 0.0750198 0.945989 0.440754
2609 1 0.0881719 0.944151 0.440804
2745 1 0.0965657 0.932165 0.44277
2741 1 0.104982 0.944134 0.440884
2534 1 0.113889 0.930503 0.442813
2759 1 0.135711 0.946777 0.442603
90 1 0.149401 0.942867 0.440154
2607 1 0.172838 0.928836 0.441719
2756 1 0.166051 0.941118 0.441149
30 1 0.155546 0.931499 0.441885
2747 1 0.188247 0.933469 0.440886
26 1 0.180256 0.944818 0.440135
2752 1 0.197994 0.942277 0.438046
101 1 0.216308 0.930157 0.436375
109 1 0.202734 0.929155 0.439144
38 1 0.212707 0.942506 0.435527
2562 1 0.230478 0.92504 0.434418
2762 1 0.225423 0.937552 0.432783
2557 1 0.239303 0.936094 0.430741
149 1 0.00302155 0.961268 0.431683
217 1 0.0177296 0.960471 0.433188
2938 1 0.0334305 0.963517 0.436201
2939 1 0.0257426 0.973338 0.435239
2673 1 0.0486627 0.962878 0.438766
79 1 0.0630037 0.95899 0.438433
2732 1 0.0554668 0.973143 0.437304
2739 1 0.0705487 0.970634 0.436372
2758 1 0.0781795 0.960983 0.439012
2743 1 0.0969891 0.959493 0.439462
2672 1 0.0903554 0.971239 0.438437
2755 1 0.112114 0.958162 0.439665
2539 1 0.105487 0.972096 0.436946
94 1 0.121436 0.969681 0.435666
2750 1 0.126249 0.958084 0.440203
100 1 0.141726 0.958389 0.43949
173 1 0.138131 0.974153 0.437919
166 1 0.151897 0.97076 0.437228
2676 1 0.156668 0.956904 0.439922
2744 1 0.165926 0.971381 0.438416
24 1 0.173061 0.958224 0.439078
37 1 0.186334 0.954701 0.437363
32 1 0.179611 0.969176 0.437423
158 1 0.194557 0.96731 0.436992
39 1 0.201949 0.957099 0.435416
2773 1 0.221347 0.955251 0.432547
41 1 0.211272 0.967087 0.433234
2768 1 0.232654 0.951426 0.42915
2765 1 0.225033 0.968917 0.432318
75 1 0.0125152 0.975285 0.432811
2935 1 0.00599164 0.989629 0.428866
73 1 0.0190544 0.987659 0.432887
1 1 0.039538 0.975565 0.435857
81 1 0.0323948 0.989204 0.432478
143 1 0.0462189 0.986976 0.436724
2740 1 0.0569869 0.999232 0.433868
2736 1 0.0630662 0.984969 0.43609
74 1 0.0722773 0.995812 0.436537
84 1 0.0808039 0.982664 0.435647
16 1 0.0991353 0.983342 0.435343
6 1 0.0894486 0.99609 0.435224
95 1 0.104253 0.997719 0.43543
2738 1 0.115358 0.985132 0.43546
88 1 0.122198 0.996672 0.434022
165 1 0.129994 0.984924 0.433884
99 1 0.145825 0.983257 0.435192
86 1 0.135873 0.999995 0.434583
233 1 0.159535 0.986277 0.436684
25 1 0.174966 0.98483 0.435888
87 1 0.151154 0.998142 0.435272
107 1 0.189539 0.983492 0.435146
2748 1 0.180685 0.996852 0.434408
161 1 0.198105 0.994447 0.433368
235 1 0.20418 0.977929 0.43355
181 1 0.217492 0.982669 0.433794
96 1 0.212739 0.996926 0.432505
36 1 0.23235 0.982413 0.431224
28 1 0.22685 0.997002 0.43219
254 1 0.241353 0.993084 0.430048
2632 1 0.258642 0.98838 0.429833
2704 1 0.269423 0.997918 0.429041
2696 1 0.239986 0.824931 0.455398
2641 1 0.263481 0.82432 0.455823
2485 1 0.276188 0.813505 0.453099
2421 1 0.284876 0.821793 0.45532
2352 1 0.291297 0.805729 0.457134
2286 1 0.303326 0.8168 0.455046
2357 1 0.316272 0.822229 0.451381
2216 1 0.328591 0.81439 0.453913
2140 1 0.343447 0.811677 0.454285
2155 1 0.336765 0.822578 0.450628
2290 1 0.350181 0.82146 0.44807
2218 1 0.359996 0.814393 0.451376
2291 1 0.366263 0.82385 0.446352
2221 1 0.374986 0.814258 0.453159
2235 1 0.382363 0.822354 0.448558
2293 1 0.395841 0.819182 0.451699
2497 1 0.38677 0.812098 0.456091
2228 1 0.413351 0.816011 0.452519
2166 1 0.40181 0.808356 0.457067
4971 1 0.420817 0.824744 0.447733
2234 1 0.405666 0.824366 0.447877
2237 1 0.442543 0.811965 0.455511
2168 1 0.428741 0.815221 0.453176
4973 1 0.435673 0.824312 0.44865
5187 1 0.4512 0.823767 0.449622
4841 1 0.460592 0.814986 0.455021
5055 1 0.497862 0.822401 0.449897
5116 1 0.476622 0.81498 0.455277
2240 1 0.492573 0.814138 0.454717
2628 1 0.195716 0.843493 0.45457
2475 1 0.208708 0.842228 0.455109
2417 1 0.216267 0.834188 0.455239
2488 1 0.225825 0.845637 0.453206
2552 1 0.240073 0.841443 0.453179
2422 1 0.229965 0.833051 0.455302
2629 1 0.251816 0.831135 0.452798
2767 1 0.264261 0.839842 0.449941
2553 1 0.251233 0.845457 0.448625
2556 1 0.27731 0.832285 0.452101
2573 1 0.27888 0.846332 0.446009
2077 1 0.297758 0.827148 0.450814
2426 1 0.290229 0.838592 0.44722
2487 1 0.315992 0.84693 0.444263
2637 1 0.302549 0.842797 0.444734
2278 1 0.313865 0.83336 0.44754
2355 1 0.327594 0.835432 0.446208
2160 1 0.341888 0.834655 0.444357
2424 1 0.381012 0.832035 0.443922
5044 1 0.393441 0.828905 0.445822
2099 1 0.426947 0.835713 0.444174
4904 1 0.442498 0.835292 0.445535
2306 1 0.467772 0.825698 0.449643
2239 1 0.459255 0.833421 0.444732
4914 1 0.484455 0.826991 0.450614
4844 1 0.477585 0.835555 0.444676
5121 1 0.492209 0.835147 0.444884
5450 1 0.0144958 0.869431 0.455695
2403 1 0.133912 0.867894 0.455561
2680 1 0.153336 0.865185 0.454424
2757 1 0.168833 0.871325 0.454376
2616 1 0.168022 0.857491 0.454771
2761 1 0.18343 0.867618 0.45496
2685 1 0.198671 0.860849 0.454508
2610 1 0.184074 0.850747 0.455946
2484 1 0.223276 0.861864 0.449138
2473 1 0.208448 0.87208 0.449259
2692 1 0.212467 0.855971 0.451995
2555 1 0.235347 0.869846 0.443992
2690 1 0.235855 0.854075 0.448978
2639 1 0.246506 0.859843 0.445231
2631 1 0.262066 0.85099 0.443853
5451 1 0.00880222 0.881937 0.45052
5524 1 0.0139328 0.89151 0.444549
5526 1 0.0233887 0.883542 0.450421
5 1 0.0280703 0.899039 0.445826
2671 1 0.0374349 0.8873 0.449492
2596 1 0.0465431 0.898497 0.448825
5459 1 0.0351559 0.875085 0.45467
5528 1 0.049648 0.882417 0.454408
2598 1 0.0655931 0.878519 0.456057
2601 1 0.0574626 0.89212 0.451468
2604 1 0.0709133 0.894113 0.452228
2529 1 0.0780986 0.886193 0.456859
2753 1 0.0863329 0.896017 0.45322
2460 1 0.0949474 0.886253 0.453609
2544 1 0.112265 0.880248 0.456266
2320 1 0.106652 0.892514 0.451777
2535 1 0.12015 0.893803 0.452604
2472 1 0.142549 0.879033 0.454593
2464 1 0.12574 0.88254 0.454718
2751 1 0.135804 0.889726 0.451659
27 1 0.150574 0.891276 0.449523
2679 1 0.158844 0.878569 0.452126
167 1 0.166249 0.891035 0.450286
2548 1 0.192242 0.891462 0.449442
2611 1 0.192015 0.877734 0.451019
2605 1 0.179206 0.882995 0.452026
2613 1 0.178761 0.89547 0.447989
2691 1 0.218536 0.89236 0.445294
2689 1 0.221819 0.876795 0.44589
2551 1 0.205622 0.885966 0.447051
7 1 0.0417072 0.921652 0.444829
2663 1 0.0355712 0.909797 0.444831
5600 1 0.0497773 0.909929 0.445809
2670 1 0.0585071 0.921296 0.445639
2606 1 0.0623726 0.904916 0.448224
2537 1 0.0734307 0.920593 0.446733
2675 1 0.0806506 0.907496 0.44963
2608 1 0.0906868 0.919785 0.446366
2612 1 0.0971609 0.904395 0.451687
2540 1 0.11193 0.905473 0.449595
2684 1 0.104277 0.918345 0.446946
2754 1 0.118415 0.917878 0.447617
2542 1 0.128345 0.904493 0.449895
2760 1 0.143736 0.903102 0.448682
2681 1 0.133827 0.917797 0.447978
2466 1 0.148242 0.916414 0.444692
2749 1 0.161664 0.917424 0.445201
29 1 0.17125 0.905506 0.445135
11 1 0.156373 0.903595 0.446867
2688 1 0.195306 0.917234 0.442868
23 1 0.187259 0.90433 0.445796
2764 1 0.180898 0.917116 0.443841
31 1 0.201136 0.901081 0.444173
2669 1 0.0505022 0.933146 0.443318
2731 1 0.0652812 0.93429 0.443903
2678 1 0.0805617 0.93195 0.444184
2614 1 0.119469 0.943806 0.443163
2677 1 0.139671 0.931581 0.443426
2538 1 0.126655 0.931889 0.444082
2423 1 0.245415 0.774099 0.469985
2617 1 0.198735 0.798287 0.467606
2480 1 0.1822 0.793695 0.471213
2554 1 0.220716 0.791655 0.467394
2342 1 0.203794 0.787554 0.470723
2687 1 0.212691 0.799963 0.464321
2621 1 0.21696 0.781283 0.471036
2622 1 0.234115 0.797565 0.464573
2418 1 0.231117 0.780233 0.468536
2413 1 0.247684 0.786895 0.464811
2561 1 0.248015 0.799548 0.461807
2568 1 0.261136 0.791201 0.462924
2491 1 0.261891 0.776375 0.467581
2350 1 0.277161 0.77562 0.469873
2212 1 0.290609 0.790615 0.461904
2425 1 0.275665 0.784807 0.464471
2138 1 0.288767 0.779386 0.468923
2420 1 0.275633 0.796112 0.459249
2063 1 0.315473 0.783941 0.46664
2206 1 0.300777 0.783359 0.465408
2351 1 0.315615 0.794955 0.461943
2076 1 0.331811 0.780042 0.468844
2215 1 0.339025 0.797982 0.460687
2284 1 0.34607 0.784963 0.467488
2068 1 0.331509 0.788492 0.463044
2156 1 0.353695 0.79364 0.462916
2170 1 0.369071 0.794675 0.461942
2159 1 0.364749 0.785976 0.468458
2220 1 0.355185 0.778142 0.471185
2301 1 0.383124 0.791386 0.463938
2236 1 0.397462 0.789339 0.467396
1960 1 0.381139 0.78029 0.470036
4977 1 0.405379 0.798585 0.462428
4833 1 0.414772 0.790552 0.468144
2153 1 0.42431 0.794488 0.462996
4621 1 0.427445 0.789104 0.470041
5053 1 0.441515 0.795683 0.467206
4554 1 0.44977 0.785516 0.470606
4974 1 0.464065 0.782824 0.468474
2163 1 0.46225 0.794324 0.465523
4763 1 0.476116 0.793631 0.463363
4982 1 0.489865 0.779493 0.467902
4836 1 0.477386 0.78426 0.468683
4850 1 0.490543 0.790906 0.463121
2321 1 0.123896 0.823057 0.465803
2397 1 0.133479 0.812999 0.470008
2401 1 0.148363 0.81425 0.46746
2479 1 0.163635 0.816041 0.466933
2547 1 0.17383 0.808763 0.467578
2546 1 0.150587 0.82445 0.462024
2481 1 0.178173 0.819583 0.463919
2471 1 0.188886 0.806722 0.465973
2474 1 0.195644 0.819494 0.461726
2619 1 0.204818 0.809529 0.464266
2615 1 0.211522 0.821359 0.459296
2618 1 0.223044 0.808151 0.461669
2623 1 0.224808 0.821185 0.458434
2563 1 0.236218 0.809879 0.459012
2770 1 0.250469 0.813899 0.458157
2626 1 0.263563 0.806394 0.458829
2144 1 0.316575 0.808789 0.457813
2282 1 0.304731 0.803342 0.459709
2005 1 0.328281 0.803168 0.458902
2499 1 0.36502 0.803112 0.457507
2297 1 0.352635 0.805037 0.457377
2224 1 0.390626 0.801621 0.460407
2287 1 0.377711 0.802993 0.457445
2230 1 0.418667 0.80682 0.459128
4919 1 0.432963 0.805222 0.460068
4909 1 0.45078 0.802391 0.460939
4903 1 0.466076 0.804601 0.459127
4840 1 0.483585 0.803495 0.458046
5250 1 0.0165377 0.836626 0.469729
5457 1 0.0124971 0.846014 0.46455
2451 1 0.00272603 0.83448 0.468062
5456 1 0.0302338 0.83332 0.470088
5599 1 0.0432966 0.843728 0.465777
2523 1 0.0279923 0.845078 0.46702
5313 1 0.0482082 0.835543 0.470773
2454 1 0.058425 0.847768 0.466073
2666 1 0.072437 0.844283 0.467827
2462 1 0.089854 0.839913 0.466535
2392 1 0.0994829 0.849911 0.464153
2457 1 0.0950717 0.827141 0.470037
2532 1 0.111974 0.826736 0.467489
2385 1 0.108509 0.84093 0.464348
2398 1 0.122735 0.8346 0.462214
2463 1 0.123648 0.849842 0.459018
2394 1 0.135065 0.840259 0.461151
2266 1 0.136881 0.826976 0.464017
2541 1 0.170205 0.84196 0.458738
2543 1 0.166894 0.826256 0.460628
2468 1 0.153078 0.839902 0.459121
2465 1 0.184274 0.835016 0.459428
2493 1 0.200625 0.831101 0.458392
2592 1 0.00621851 0.858031 0.460363
5447 1 0.0218451 0.856428 0.462029
3 1 0.0422359 0.869098 0.45907
2734 1 0.0266778 0.866981 0.459291
2661 1 0.0357012 0.854585 0.461109
2533 1 0.0491222 0.858099 0.460972
2531 1 0.0566459 0.869437 0.460309
2664 1 0.0686285 0.857168 0.462618
2528 1 0.0888898 0.873993 0.457464
2733 1 0.0767554 0.869608 0.45873
2393 1 0.0823823 0.852595 0.464794
2603 1 0.0910257 0.861593 0.461379
2399 1 0.1195 0.867097 0.457339
2602 1 0.102956 0.870562 0.457167
2395 1 0.110423 0.8553 0.461106
2599 1 0.140303 0.855185 0.457205
2682 1 0.155012 0.852132 0.45743
2348 1 0.216317 0.745739 0.485326
2271 1 0.228173 0.745571 0.48354
2339 1 0.240314 0.748432 0.482849
2343 1 0.253444 0.742031 0.485351
2205 1 0.292655 0.748163 0.483659
2139 1 0.308047 0.749899 0.483208
2026 1 0.349892 0.74904 0.48552
2058 1 0.173632 0.770721 0.483237
2545 1 0.183838 0.758666 0.484235
2419 1 0.187781 0.768961 0.478799
2411 1 0.199348 0.750393 0.4843
2202 1 0.200207 0.762195 0.477903
2341 1 0.212977 0.755775 0.479545
2346 1 0.216177 0.765803 0.473989
2340 1 0.204325 0.774294 0.475039
2550 1 0.229764 0.767463 0.472093
2347 1 0.227821 0.757365 0.478313
2416 1 0.242526 0.761565 0.476055
2494 1 0.256582 0.764152 0.474368
2412 1 0.255236 0.753676 0.479808
2495 1 0.270688 0.756115 0.47908
2344 1 0.271536 0.7673 0.474493
2074 1 0.289183 0.766602 0.47369
2280 1 0.298916 0.760043 0.478465
2211 1 0.282937 0.75973 0.479649
2073 1 0.303452 0.772201 0.472062
2080 1 0.319054 0.772393 0.472009
2214 1 0.312439 0.762083 0.47723
1931 1 0.322399 0.756095 0.481045
2281 1 0.335903 0.750755 0.485164
2217 1 0.331241 0.76515 0.477391
2075 1 0.344242 0.760646 0.478645
2088 1 0.342618 0.772076 0.47314
2294 1 0.358043 0.767789 0.475371
4902 1 0.371177 0.763805 0.479814
2083 1 0.357093 0.756575 0.481238
2081 1 0.378652 0.756808 0.483859
2225 1 0.38501 0.770623 0.476993
4908 1 0.392663 0.763948 0.482498
2169 1 0.401433 0.771384 0.478829
1884 1 0.414441 0.77166 0.480038
2084 1 0.405495 0.758599 0.484973
4835 1 0.423469 0.760709 0.484807
2165 1 0.430905 0.770554 0.478909
4912 1 0.445204 0.768299 0.479733
4691 1 0.440873 0.757896 0.485075
4704 1 0.46649 0.765265 0.477767
4975 1 0.455906 0.773785 0.47524
4764 1 0.474798 0.757112 0.483266
4622 1 0.458993 0.757629 0.483027
4907 1 0.493106 0.771761 0.474309
4910 1 0.476939 0.77309 0.473292
4917 1 0.492709 0.751015 0.484094
2096 1 0.484602 0.765075 0.478062
4906 1 0.499518 0.762449 0.478094
2459 1 0.0543446 0.79965 0.482821
2404 1 0.0860801 0.79925 0.482186
2332 1 0.11352 0.787896 0.485378
2335 1 0.103382 0.796641 0.479683
2326 1 0.125741 0.792724 0.480987
2477 1 0.138982 0.798663 0.478826
2414 1 0.141264 0.787757 0.482463
2407 1 0.151709 0.794176 0.477892
2410 1 0.167883 0.793934 0.474649
2270 1 0.160914 0.783307 0.481912
2549 1 0.173578 0.78041 0.475524
2405 1 0.187623 0.781187 0.474202
2167 1 0.371167 0.775536 0.474817
2082 1 0.394238 0.780085 0.473538
2233 1 0.408314 0.782725 0.474894
4832 1 0.423123 0.780292 0.475645
4980 1 0.439217 0.777961 0.474622
2387 1 0.0234563 0.803515 0.482128
2458 1 0.0145234 0.811813 0.478757
2524 1 0.00387538 0.802317 0.482029
5390 1 0.00873962 0.823895 0.473453
2525 1 0.0240825 0.820889 0.474267
2317 1 0.0388089 0.800447 0.483889
2600 1 0.0403118 0.822483 0.474229
5249 1 0.0327475 0.810379 0.478586
2526 1 0.0466871 0.809224 0.478317
2324 1 0.0718579 0.800795 0.481318
2246 1 0.0540988 0.821697 0.475667
2390 1 0.0624824 0.809803 0.479721
2389 1 0.0711664 0.820926 0.475432
2530 1 0.0857534 0.820078 0.475989
2386 1 0.0836623 0.808835 0.477653
2402 1 0.118792 0.814955 0.471758
2259 1 0.101085 0.810408 0.478199
2319 1 0.10617 0.818027 0.472718
2260 1 0.115259 0.805379 0.47765
2467 1 0.145022 0.806861 0.473009
2331 1 0.128109 0.804252 0.474388
2408 1 0.15979 0.803903 0.471496
2388 1 0.0659038 0.833003 0.47159
2527 1 0.0814026 0.832128 0.472903
2128 1 0.190165 0.723258 0.499231
2201 1 0.218569 0.716743 0.497681
2277 1 0.233422 0.713187 0.499156
1992 1 0.233526 0.724676 0.495011
2208 1 0.249442 0.721272 0.497676
2132 1 0.266132 0.72274 0.496807
1910 1 0.124457 0.746704 0.499887
2268 1 0.148633 0.742939 0.497108
2123 1 0.162742 0.734498 0.496102
2197 1 0.159409 0.747773 0.493533
2130 1 0.175382 0.730061 0.497872
2269 1 0.17514 0.741617 0.491492
2336 1 0.189492 0.73379 0.493793
2131 1 0.186842 0.745276 0.488093
2062 1 0.204736 0.725554 0.496083
2275 1 0.203447 0.737649 0.488774
2409 1 0.217536 0.731353 0.492756
2204 1 0.24355 0.733239 0.489536
2415 1 0.230102 0.736164 0.489009
2349 1 0.265227 0.743597 0.48592
2279 1 0.259747 0.730658 0.491032
2209 1 0.280279 0.74474 0.486313
2003 1 0.284912 0.725713 0.495518
2141 1 0.275429 0.730732 0.491484
2135 1 0.289717 0.736898 0.490404
2065 1 0.298505 0.726932 0.495969
2147 1 0.312793 0.726066 0.496937
2213 1 0.315918 0.734959 0.492558
2064 1 0.319487 0.746288 0.48686
2070 1 0.303188 0.740411 0.489489
2162 1 0.344544 0.73066 0.499217
2079 1 0.328804 0.727043 0.498292
2134 1 0.329039 0.739995 0.491175
2161 1 0.344949 0.740257 0.491287
2219 1 0.358918 0.738659 0.49048
2227 1 0.36047 0.731033 0.499193
4976 1 0.373175 0.73894 0.495692
2154 1 0.367773 0.747594 0.487053
4552 1 0.399477 0.729849 0.498828
2157 1 0.381847 0.74648 0.489715
2087 1 0.390798 0.741284 0.495824
2094 1 0.41377 0.731854 0.498135
1956 1 0.405046 0.742928 0.493809
2097 1 0.421349 0.739917 0.494264
2158 1 0.416092 0.749274 0.489223
2027 1 0.441258 0.738341 0.49384
2098 1 0.432581 0.7489 0.489104
2086 1 0.431858 0.731053 0.498097
1959 1 0.465108 0.727569 0.499648
4762 1 0.451731 0.746786 0.490096
2030 1 0.456625 0.73692 0.495333
1818 1 0.465474 0.748066 0.490391
4692 1 0.474593 0.737277 0.494979
4630 1 0.497867 0.726074 0.498819
4839 1 0.498469 0.740468 0.488375
4697 1 0.490947 0.735211 0.493628
4996 1 0.479171 0.745878 0.487305
5245 1 0.0188772 0.7721 0.497769
2313 1 0.00662239 0.770437 0.497823
2322 1 0.031976 0.772843 0.496523
2400 1 0.047101 0.773365 0.494922
2325 1 0.0552321 0.760981 0.499662
2256 1 0.0621137 0.770603 0.495264
2329 1 0.0710057 0.761486 0.498691
2406 1 0.0822796 0.7696 0.493541
2254 1 0.085235 0.755398 0.497147
2469 1 0.0974578 0.766205 0.494385
2195 1 0.0993808 0.75344 0.497551
2262 1 0.121311 0.772462 0.489896
2054 1 0.110193 0.762925 0.493254
2127 1 0.113985 0.753291 0.497723
2267 1 0.148864 0.774156 0.486419
2196 1 0.125603 0.761797 0.495004
2476 1 0.137111 0.770814 0.491307
2119 1 0.137179 0.753884 0.496975
2265 1 0.148543 0.760963 0.493425
2478 1 0.16242 0.764141 0.488813
2334 1 0.17271 0.754791 0.488279
2100 1 0.394789 0.750552 0.488453
2252 1 0.00522681 0.783134 0.492333
2248 1 0.0210962 0.784631 0.491673
2453 1 0.0127513 0.79521 0.487432
2330 1 0.0464044 0.791513 0.48852
2391 1 0.0289015 0.795406 0.48721
2184 1 0.0368253 0.784366 0.49327
2257 1 0.056275 0.781624 0.491222
2250 1 0.0699492 0.780948 0.491143
2396 1 0.0611518 0.79122 0.487468
2338 1 0.0954965 0.788472 0.486016
2461 1 0.0897131 0.780519 0.490054
2333 1 0.0754085 0.790808 0.486276
2337 1 0.1061 0.777193 0.489606
2482 1 0.130615 0.783757 0.486477
2056 1 0.144466 0.693527 0.514146
1914 1 0.168569 0.696546 0.510945
1998 1 0.181566 0.6916 0.510913
2059 1 0.192058 0.696894 0.510055
1990 1 0.203807 0.691859 0.510558
2207 1 0.216893 0.696901 0.509167
1768 1 0.229783 0.694416 0.51102
2053 1 0.242028 0.696762 0.50992
1941 1 0.267459 0.688174 0.513281
2133 1 0.258053 0.699179 0.509235
2137 1 0.28326 0.691426 0.511779
2007 1 0.295989 0.689436 0.512295
2188 1 0.0990697 0.722363 0.51004
2199 1 0.111631 0.718725 0.510343
2046 1 0.12449 0.711729 0.50977
1980 1 0.140955 0.708159 0.509575
1920 1 0.137074 0.720175 0.505299
2047 1 0.14954 0.715886 0.505766
2048 1 0.133427 0.700229 0.513959
2120 1 0.154458 0.703098 0.510047
1922 1 0.163471 0.710348 0.506221
2203 1 0.160972 0.723724 0.502093
2050 1 0.177701 0.716907 0.502591
2200 1 0.188692 0.710753 0.504734
1986 1 0.177443 0.703341 0.507916
1982 1 0.203078 0.70465 0.507406
2272 1 0.217534 0.706601 0.503226
2061 1 0.201127 0.714821 0.501119
2273 1 0.231324 0.704522 0.50595
1991 1 0.24542 0.706752 0.504334
2274 1 0.262084 0.711465 0.504536
2345 1 0.271534 0.702354 0.508544
2067 1 0.288616 0.704029 0.506568
2002 1 0.279818 0.714486 0.502306
2276 1 0.29295 0.714785 0.501545
1919 1 0.30401 0.703003 0.50778
1864 1 0.31528 0.709148 0.510789
2210 1 0.30501 0.714023 0.502828
2090 1 0.317728 0.715065 0.502737
2089 1 0.328816 0.709008 0.509238
2092 1 0.335894 0.71694 0.503526
2150 1 0.347875 0.710624 0.510135
2093 1 0.351497 0.722126 0.505944
2012 1 0.365241 0.712654 0.511091
2164 1 0.366726 0.723364 0.505907
1945 1 0.390433 0.706982 0.514236
2078 1 0.380972 0.717864 0.508325
4761 1 0.393476 0.723367 0.505976
1958 1 0.408515 0.723951 0.504605
2025 1 0.40214 0.715347 0.50954
2023 1 0.420821 0.713277 0.511093
2017 1 0.421428 0.721813 0.50383
4765 1 0.4392 0.719722 0.505102
2022 1 0.437825 0.712352 0.512453
4484 1 0.460342 0.720779 0.50469
1888 1 0.468684 0.713827 0.512538
1885 1 0.451246 0.712772 0.509624
4625 1 0.47575 0.718865 0.506321
1886 1 0.483759 0.711648 0.511757
4767 1 0.492146 0.718924 0.505057
4415 1 0.499045 0.710581 0.511853
2181 1 0.0198097 0.746865 0.508769
2112 1 0.0115177 0.736219 0.512797
2253 1 0.0276811 0.73669 0.513206
2185 1 0.0331549 0.74862 0.507741
2194 1 0.0394482 0.738714 0.511903
2190 1 0.0489126 0.746563 0.507147
2129 1 0.0600224 0.736364 0.508067
2258 1 0.0642158 0.749106 0.504035
2255 1 0.0506852 0.731765 0.51306
2114 1 0.0675944 0.726959 0.513521
1907 1 0.0816599 0.725527 0.511806
1973 1 0.0755032 0.736612 0.507957
2263 1 0.0789012 0.745412 0.50178
2327 1 0.0904266 0.732216 0.505837
2264 1 0.0928933 0.742364 0.501656
2470 1 0.107268 0.731711 0.505233
2055 1 0.116809 0.737347 0.502533
2060 1 0.106392 0.744474 0.501235
2191 1 0.122906 0.726407 0.50575
2193 1 0.135742 0.73624 0.500851
2049 1 0.150579 0.73244 0.501535
1952 1 0.383284 0.732238 0.501312
4623 1 0.447357 0.728193 0.500161
4848 1 0.480514 0.729733 0.500877
2182 1 0.000803395 0.761653 0.503261
5248 1 0.00663003 0.750059 0.509156
2109 1 0.0134066 0.758549 0.503196
2180 1 0.0277971 0.759441 0.502153
2125 1 0.0420622 0.759296 0.500914
2051 1 0.150825 0.667199 0.527033
1988 1 0.165855 0.663437 0.52626
1556 1 0.176788 0.671552 0.521853
1994 1 0.178565 0.656989 0.527027
1932 1 0.190645 0.672289 0.519992
1837 1 0.194797 0.662291 0.525348
1989 1 0.209081 0.660579 0.525004
1995 1 0.218424 0.674541 0.521129
1997 1 0.223893 0.664565 0.525025
1926 1 0.204522 0.672479 0.520222
1929 1 0.241339 0.66457 0.52479
2072 1 0.247718 0.67438 0.52061
1930 1 0.258706 0.665267 0.523411
1860 1 0.275248 0.669134 0.523473
1940 1 0.281736 0.658673 0.528214
2004 1 0.29043 0.673809 0.521973
2001 1 0.298276 0.665023 0.527051
1938 1 0.323011 0.672418 0.526454
2071 1 0.307838 0.673469 0.52327
1868 1 0.311928 0.665025 0.527988
1979 1 0.0506448 0.697254 0.526343
1903 1 0.0630375 0.692843 0.526601
1911 1 0.0936855 0.687195 0.527853
1978 1 0.0777096 0.688459 0.528017
2118 1 0.107767 0.686189 0.524628
2042 1 0.120035 0.695213 0.519101
2117 1 0.121727 0.684584 0.523085
2189 1 0.101972 0.698478 0.520072
1834 1 0.111429 0.67584 0.527897
2121 1 0.136247 0.675545 0.524286
2111 1 0.132474 0.689792 0.519499
1839 1 0.149678 0.680122 0.521178
1628 1 0.161513 0.675661 0.522385
2113 1 0.157691 0.689033 0.516982
1934 1 0.171791 0.681807 0.51787
2057 1 0.194731 0.682323 0.514517
1766 1 0.182592 0.680354 0.514744
2000 1 0.223579 0.684958 0.516538
2198 1 0.210276 0.685017 0.515205
2136 1 0.239068 0.687267 0.516033
1850 1 0.232199 0.675259 0.520679
1925 1 0.253017 0.684563 0.51445
1784 1 0.263201 0.675722 0.519083
1935 1 0.28273 0.680772 0.516892
1950 1 0.300431 0.682279 0.518295
2145 1 0.310575 0.694769 0.515058
2006 1 0.317523 0.684988 0.520749
1936 1 0.331754 0.69519 0.520212
1858 1 0.332187 0.683733 0.525114
1874 1 0.346959 0.694233 0.522447
2019 1 0.361035 0.691562 0.526182
2148 1 0.369978 0.69446 0.5211
1948 1 0.381937 0.687625 0.52486
2028 1 0.38407 0.697638 0.519359
4831 1 0.398572 0.689275 0.52357
2095 1 0.413699 0.690059 0.523115
2021 1 0.404851 0.698189 0.518199
4901 1 0.428187 0.695713 0.523597
1955 1 0.443915 0.693362 0.52407
1794 1 0.432865 0.687472 0.527463
1749 1 0.458508 0.690108 0.524934
4481 1 0.471238 0.69195 0.524123
1680 1 0.485268 0.688797 0.522602
1662 1 0.496304 0.683842 0.526679
1816 1 0.47867 0.67969 0.527858
1887 1 0.499025 0.691969 0.521373
2038 1 0.0234499 0.700836 0.526708
2105 1 0.00191318 0.719773 0.523324
2177 1 0.0144468 0.713387 0.522066
2178 1 0.0177148 0.724792 0.518211
2187 1 0.0483469 0.710027 0.519488
2044 1 0.0305237 0.713085 0.519481
1977 1 0.037811 0.704265 0.523664
2122 1 0.07256 0.700399 0.524654
2175 1 0.0580246 0.718666 0.517159
2037 1 0.0607838 0.703407 0.521227
2186 1 0.0705634 0.715308 0.516886
2124 1 0.090112 0.700618 0.523757
1912 1 0.0792524 0.707493 0.519281
2115 1 0.0879986 0.715663 0.516568
2192 1 0.102809 0.711359 0.516856
2261 1 0.115559 0.706373 0.515132
2152 1 0.324181 0.700872 0.51573
2085 1 0.339861 0.703081 0.515755
2008 1 0.355134 0.701998 0.517681
2226 1 0.371683 0.703884 0.515007
1877 1 0.420012 0.70435 0.517757
4905 1 0.434667 0.704517 0.518504
4834 1 0.451931 0.702724 0.5188
1820 1 0.465881 0.702518 0.518687
1819 1 0.478895 0.704462 0.519258
1815 1 0.491106 0.701016 0.516397
5180 1 0.000333712 0.730138 0.51703
2328 1 0.0380448 0.726042 0.516934
1845 1 0.162234 0.623282 0.539789
1924 1 0.177421 0.61908 0.541026
1909 1 0.200454 0.620733 0.54241
1697 1 0.110017 0.638968 0.542485
1700 1 0.12459 0.643081 0.539595
1698 1 0.140076 0.639706 0.53681
1786 1 0.133829 0.630167 0.541027
1916 1 0.150322 0.633442 0.539056
1843 1 0.166626 0.637294 0.535098
1974 1 0.153569 0.643882 0.532912
1928 1 0.178422 0.645148 0.530983
1769 1 0.179325 0.633719 0.536817
2069 1 0.192268 0.637306 0.534693
2066 1 0.190876 0.625605 0.539042
1996 1 0.191731 0.648974 0.530098
1921 1 0.204669 0.633759 0.53724
1993 1 0.21574 0.642266 0.534519
1855 1 0.216479 0.626939 0.540097
1927 1 0.205276 0.649829 0.532181
1787 1 0.22966 0.64068 0.534196
1719 1 0.22863 0.632315 0.540592
1944 1 0.24332 0.635151 0.538213
1918 1 0.24356 0.646244 0.533361
1872 1 0.256881 0.636501 0.539107
2013 1 0.271193 0.64299 0.537044
1852 1 0.258241 0.647291 0.534073
1943 1 0.280661 0.637073 0.540526
1792 1 0.292998 0.643869 0.538025
1804 1 0.282285 0.647607 0.533778
1714 1 0.308185 0.640407 0.53801
1796 1 0.319558 0.636221 0.542123
1999 1 0.321937 0.648449 0.537151
1732 1 0.33794 0.64424 0.539988
1908 1 0.011512 0.665579 0.540132
1762 1 0.0230267 0.673907 0.537688
4822 1 0.00309514 0.651254 0.542371
1898 1 0.0371933 0.6715 0.539767
1905 1 0.0652597 0.66277 0.539869
1841 1 0.0535727 0.672513 0.537943
1985 1 0.0861211 0.656257 0.538412
1976 1 0.0755378 0.669529 0.535468
1981 1 0.0951941 0.666837 0.536418
1913 1 0.0990254 0.650188 0.540688
1983 1 0.112676 0.650738 0.539157
1626 1 0.105767 0.661732 0.533832
1557 1 0.121159 0.663352 0.532227
1840 1 0.126567 0.674443 0.528666
1846 1 0.147576 0.656358 0.531031
1835 1 0.130915 0.653529 0.535122
1844 1 0.13599 0.663782 0.530316
1842 1 0.163421 0.651784 0.530699
1861 1 0.219678 0.651772 0.529761
1788 1 0.234663 0.654808 0.530049
1862 1 0.251337 0.654749 0.528606
1856 1 0.269221 0.657138 0.529131
2149 1 0.295598 0.653571 0.531543
1863 1 0.310601 0.653089 0.532642
1937 1 0.323304 0.65887 0.531008
2015 1 0.336437 0.670655 0.530253
1791 1 0.334581 0.657912 0.535847
1867 1 0.348352 0.667603 0.534494
1878 1 0.349706 0.650423 0.541159
1724 1 0.358403 0.659136 0.539951
1949 1 0.372034 0.657297 0.541037
2151 1 0.371147 0.670353 0.535187
2018 1 0.383744 0.663065 0.538752
2009 1 0.397841 0.672232 0.535704
1947 1 0.393567 0.653519 0.541596
2010 1 0.384494 0.674749 0.534525
1817 1 0.404834 0.661205 0.539461
1806 1 0.413834 0.672385 0.535473
1661 1 0.415438 0.655364 0.542125
1666 1 0.439779 0.665178 0.539757
1722 1 0.425658 0.665549 0.537786
1812 1 0.437395 0.673842 0.532963
1798 1 0.455619 0.671088 0.533323
1953 1 0.451516 0.661343 0.540332
1799 1 0.464989 0.656584 0.541208
1810 1 0.469183 0.668383 0.534976
2024 1 0.483437 0.661459 0.538615
2029 1 0.493129 0.654672 0.541728
1740 1 0.487179 0.672457 0.532113
4755 1 0.00744981 0.680608 0.536469
1966 1 0.0246908 0.687903 0.531837
2110 1 0.0119946 0.691859 0.533585
1975 1 0.035727 0.681165 0.533749
2045 1 0.0360862 0.694191 0.5298
1969 1 0.0516145 0.686522 0.53181
1763 1 0.0643682 0.681582 0.532488
1831 1 0.0860323 0.676515 0.533602
2052 1 0.100575 0.676886 0.532769
2146 1 0.349263 0.681695 0.528575
1946 1 0.36104 0.678046 0.532674
1933 1 0.372571 0.683665 0.529134
1879 1 0.393933 0.681068 0.529688
2020 1 0.40793 0.680039 0.528763
1880 1 0.422893 0.680699 0.531201
1882 1 0.449089 0.682095 0.529417
1954 1 0.465675 0.679146 0.529718
2039 1 0.0072239 0.703052 0.528663
1552 1 0.16142 0.574131 0.55671
4550 1 0.0033697 0.59205 0.556735
4547 1 0.0157771 0.586231 0.555467
4620 1 0.0265145 0.593912 0.554245
1688 1 0.0443115 0.59311 0.556253
4200 1 0.0334983 0.582149 0.555314
4687 1 0.0583333 0.599934 0.554062
1836 1 0.0732192 0.590236 0.555615
1770 1 0.0872486 0.599076 0.554171
1692 1 0.0836287 0.58371 0.556715
1625 1 0.0965763 0.583977 0.55671
1558 1 0.121993 0.592032 0.553358
1633 1 0.105241 0.595976 0.553243
1701 1 0.136755 0.587724 0.552728
1565 1 0.125713 0.580588 0.5571
1699 1 0.142069 0.598929 0.548207
1622 1 0.143342 0.576542 0.556127
1634 1 0.151931 0.588088 0.551354
1497 1 0.167204 0.585617 0.55444
1703 1 0.162822 0.598674 0.547396
1771 1 0.175635 0.592899 0.551711
1915 1 0.186488 0.587173 0.554248
1854 1 0.216703 0.589427 0.553683
1707 1 0.200589 0.595386 0.551919
1706 1 0.203343 0.581794 0.556546
1709 1 0.231935 0.594766 0.554001
1777 1 0.232397 0.58087 0.556968
1857 1 0.25611 0.596253 0.555472
1752 1 0.0130262 0.614585 0.551932
1897 1 0.0133585 0.6014 0.554227
4759 1 0.0246584 0.624843 0.549137
1694 1 0.0262983 0.610591 0.551434
1822 1 0.0393507 0.618974 0.549315
1893 1 0.0393455 0.604396 0.55208
1627 1 0.0743199 0.603056 0.553181
1824 1 0.0537212 0.614091 0.550211
1891 1 0.0657698 0.611707 0.551193
4618 1 0.0695966 0.624442 0.550042
1632 1 0.0842154 0.615377 0.549494
1630 1 0.097077 0.623579 0.548208
1765 1 0.0950926 0.609427 0.551185
1838 1 0.113542 0.606263 0.551677
1764 1 0.108092 0.618222 0.548074
1917 1 0.148499 0.620743 0.54309
1564 1 0.128979 0.603569 0.550585
1621 1 0.131456 0.61286 0.544914
1987 1 0.151572 0.60698 0.544174
1779 1 0.16435 0.611845 0.543459
1923 1 0.174932 0.606705 0.547773
1848 1 0.188281 0.60199 0.549974
1984 1 0.187309 0.613347 0.545962
1853 1 0.214021 0.600701 0.550614
1648 1 0.211794 0.614272 0.54608
1782 1 0.200396 0.606517 0.546071
1866 1 0.242148 0.623101 0.543616
1781 1 0.226476 0.609028 0.54864
1712 1 0.242083 0.601758 0.551744
1778 1 0.240241 0.612013 0.547045
1723 1 0.226006 0.618933 0.543859
1642 1 0.255572 0.610913 0.55012
2016 1 0.271489 0.618834 0.547792
1720 1 0.270269 0.605737 0.552791
1859 1 0.257822 0.620965 0.545007
1651 1 0.28445 0.600648 0.554941
1865 1 0.283896 0.613487 0.549524
1718 1 0.295898 0.609466 0.554279
1793 1 0.295801 0.620333 0.547746
1514 1 0.3219 0.613244 0.552636
1730 1 0.309422 0.613609 0.550019
1644 1 0.311585 0.601651 0.5571
2014 1 0.320564 0.624058 0.547432
1656 1 0.336982 0.61156 0.55548
1801 1 0.332816 0.623106 0.549986
1733 1 0.344405 0.624584 0.552783
1795 1 0.359949 0.620478 0.554755
1588 1 0.384114 0.621704 0.555652
1444 1 0.416919 0.619159 0.55679
1729 1 0.404743 0.615122 0.555526
1881 1 0.461673 0.623044 0.556791
1538 1 0.479319 0.616905 0.556955
4688 1 0.0221322 0.638439 0.547103
4754 1 0.00979802 0.628169 0.549446
1696 1 0.00723614 0.641003 0.546572
4686 1 0.0362679 0.633017 0.54901
4615 1 0.0483731 0.644342 0.547113
1892 1 0.0514317 0.628974 0.548678
1689 1 0.0677944 0.637943 0.546905
1833 1 0.0843485 0.629918 0.546586
1618 1 0.0822845 0.641994 0.543529
1832 1 0.096564 0.637216 0.545449
1629 1 0.118535 0.625864 0.545048
2011 1 0.268577 0.631896 0.542968
1942 1 0.296532 0.632946 0.54337
1939 1 0.284184 0.628528 0.545431
1875 1 0.309556 0.629544 0.545474
1870 1 0.332861 0.633893 0.545024
1876 1 0.346617 0.63697 0.546193
1871 1 0.356931 0.631212 0.549623
1659 1 0.370114 0.626941 0.551711
1800 1 0.365783 0.639765 0.545061
1790 1 0.380557 0.634666 0.550128
1675 1 0.39658 0.626436 0.55291
1663 1 0.394864 0.637581 0.547324
1668 1 0.381901 0.645258 0.545416
1602 1 0.409937 0.63293 0.548992
1883 1 0.42216 0.627908 0.552382
1802 1 0.418386 0.644941 0.547989
1805 1 0.405224 0.647187 0.544606
1660 1 0.436354 0.629307 0.554149
1738 1 0.432281 0.641497 0.549128
1873 1 0.446811 0.640966 0.549879
1814 1 0.457062 0.636682 0.553816
1607 1 0.47253 0.630291 0.55218
1678 1 0.469504 0.641601 0.549177
1736 1 0.458534 0.649942 0.546473
1735 1 0.48626 0.627906 0.552576
1803 1 0.496807 0.643355 0.545274
1677 1 0.498022 0.632501 0.549738
1746 1 0.483784 0.639506 0.547855
1963 1 0.0167235 0.652378 0.545353
4760 1 0.0293981 0.660868 0.543249
1828 1 0.033586 0.650246 0.547259
1767 1 0.0442712 0.659177 0.543841
1830 1 0.0740743 0.65482 0.54317
1827 1 0.0595072 0.650723 0.544648
1951 1 0.444468 0.653643 0.544277
1748 1 0.430354 0.654149 0.543166
1813 1 0.478276 0.651015 0.544675
983 1 0.0147084 0.511742 0.566026
4060 1 0.00456285 0.523171 0.564788
4130 1 0.0289301 0.514038 0.563737
1121 1 0.0391834 0.50201 0.566592
4127 1 0.0433781 0.517237 0.565041
1478 1 0.0528521 0.508502 0.566513
1681 1 0.0670983 0.506448 0.566649
4058 1 0.0672712 0.521686 0.56649
4129 1 0.0548646 0.52408 0.563971
1541 1 0.0813392 0.504146 0.565648
4270 1 0.082267 0.518519 0.567283
1476 1 0.0948324 0.510051 0.565408
4196 1 0.104692 0.519368 0.565929
1755 1 0.108768 0.504912 0.56465
1619 1 0.120841 0.515914 0.566856
1611 1 0.131629 0.510371 0.568157
1479 1 0.14689 0.506131 0.570098
1547 1 0.142755 0.520886 0.567888
1559 1 0.170537 0.520987 0.570209
1482 1 0.1582 0.514806 0.568667
4197 1 0.00583829 0.537228 0.564674
4124 1 0.0184134 0.528196 0.564342
4195 1 0.0145933 0.54449 0.562085
3989 1 0.0291174 0.54062 0.563288
1686 1 0.0343673 0.529507 0.56275
1052 1 0.0469741 0.536309 0.562934
4338 1 0.0641255 0.53701 0.563819
1263 1 0.054621 0.548017 0.560822
1192 1 0.0930898 0.528048 0.565643
1826 1 0.0795032 0.533591 0.565226
1549 1 0.094533 0.542979 0.562289
1477 1 0.0784485 0.549411 0.563724
1682 1 0.104954 0.53418 0.564685
1756 1 0.117207 0.52876 0.564288
1685 1 0.114302 0.543074 0.561511
1344 1 0.130882 0.526754 0.565383
1759 1 0.127895 0.540949 0.56381
1548 1 0.141663 0.535761 0.564317
1567 1 0.15477 0.543485 0.563262
1546 1 0.155326 0.528898 0.566853
1563 1 0.167749 0.536394 0.566971
1639 1 0.181453 0.534396 0.569586
1561 1 0.192904 0.545997 0.567545
1490 1 0.179359 0.547884 0.56731
1775 1 0.194795 0.531168 0.571126
1776 1 0.205019 0.542306 0.568156
1704 1 0.225546 0.542724 0.570589
1581 1 0.256082 0.544811 0.570434
1515 1 0.281839 0.543456 0.571234
4548 1 0.0139025 0.56012 0.559968
4121 1 0.0224602 0.572626 0.557813
4253 1 0.00802945 0.573778 0.558791
1758 1 0.0274515 0.555976 0.560858
4479 1 0.0410598 0.551617 0.560121
1480 1 0.0482671 0.562137 0.561196
1262 1 0.0357634 0.566982 0.558336
1693 1 0.0650227 0.55524 0.561636
1620 1 0.0604568 0.567903 0.561035
1488 1 0.0777393 0.562253 0.560255
1623 1 0.0917594 0.55833 0.560048
1761 1 0.0874499 0.571615 0.558542
1562 1 0.105457 0.568617 0.558763
1555 1 0.122423 0.554807 0.559559
1487 1 0.105666 0.5545 0.560851
1560 1 0.120375 0.56829 0.560074
1554 1 0.140108 0.551218 0.562828
1566 1 0.136504 0.566027 0.559841
1757 1 0.163892 0.563754 0.560956
1635 1 0.150359 0.558923 0.560036
1494 1 0.167132 0.55085 0.563793
1568 1 0.178141 0.564778 0.561804
1773 1 0.189282 0.559342 0.563824
1774 1 0.190604 0.574283 0.558787
1783 1 0.203861 0.568003 0.560522
1637 1 0.215124 0.5501 0.565542
1847 1 0.202253 0.55624 0.564259
1780 1 0.21632 0.564247 0.562328
1510 1 0.241967 0.552543 0.568321
1772 1 0.228411 0.55531 0.56593
1649 1 0.240716 0.563406 0.565203
1583 1 0.22882 0.57134 0.562057
1851 1 0.244146 0.574225 0.560824
1646 1 0.254646 0.559264 0.566968
1716 1 0.258055 0.573153 0.564792
1650 1 0.27032 0.568407 0.564978
1713 1 0.268379 0.554348 0.567949
1653 1 0.281296 0.561156 0.568901
1382 1 0.296145 0.564577 0.570437
1585 1 0.284846 0.572618 0.56528
1808 1 0.311311 0.570479 0.570386
1731 1 0.340387 0.572468 0.571061
4203 1 0.463678 0.571747 0.571255
1454 1 0.489289 0.564217 0.570329
1690 1 0.0471841 0.575076 0.557748
1695 1 0.0597571 0.584297 0.557322
1691 1 0.0705646 0.575771 0.55754
1631 1 0.111653 0.581875 0.557695
1502 1 0.175995 0.576437 0.55816
1636 1 0.215699 0.576629 0.557981
1849 1 0.244554 0.587111 0.55748
1785 1 0.260022 0.583758 0.559855
1789 1 0.274723 0.585543 0.564121
1721 1 0.270486 0.59373 0.558215
1725 1 0.286964 0.587978 0.560958
1717 1 0.299757 0.580481 0.566311
1657 1 0.297464 0.597926 0.558383
1516 1 0.315498 0.583758 0.567435
1586 1 0.306588 0.591224 0.562471
1505 1 0.32198 0.5917 0.562089
1654 1 0.328362 0.576607 0.568019
1726 1 0.341647 0.587071 0.565023
1658 1 0.341327 0.599871 0.56057
1533 1 0.351014 0.581869 0.569195
1590 1 0.353986 0.595201 0.564431
1526 1 0.364546 0.590829 0.566466
1370 1 0.388232 0.58129 0.571275
1367 1 0.377936 0.593233 0.568672
1597 1 0.392285 0.595713 0.565426
1595 1 0.400622 0.583969 0.570457
1531 1 0.408953 0.594182 0.566275
1593 1 0.424312 0.593463 0.566204
4201 1 0.440888 0.589474 0.568811
1670 1 0.456155 0.588226 0.569061
1466 1 0.470441 0.58471 0.568559
1679 1 0.467009 0.597757 0.564217
1468 1 0.481712 0.57616 0.569198
1605 1 0.495489 0.583061 0.567318
1672 1 0.48101 0.591708 0.565765
1797 1 0.327248 0.60457 0.558303
1869 1 0.353738 0.610849 0.558735
1664 1 0.367723 0.603643 0.563865
1807 1 0.373784 0.6143 0.559297
1734 1 0.382765 0.603239 0.564281
1517 1 0.391396 0.613603 0.560549
1674 1 0.406611 0.60507 0.560257
1667 1 0.423324 0.608573 0.561922
1811 1 0.449079 0.624316 0.557588
1739 1 0.430739 0.619453 0.558136
1665 1 0.434894 0.602059 0.566335
1743 1 0.442152 0.615383 0.56268
1737 1 0.452632 0.601977 0.564272
1669 1 0.462689 0.611947 0.560345
1608 1 0.492143 0.615672 0.558147
1606 1 0.478363 0.60505 0.562592
1604 1 0.489872 0.60074 0.560697
1553 1 0.161813 0.502245 0.572941
1501 1 0.174932 0.510882 0.573656
1702 1 0.187016 0.518685 0.574072
1705 1 0.196062 0.508556 0.577158
1638 1 0.203155 0.520307 0.573777
1577 1 0.220095 0.519494 0.574088
1571 1 0.20961 0.509393 0.576188
1572 1 0.227999 0.508756 0.576518
1509 1 0.239537 0.52156 0.577605
1573 1 0.24123 0.507189 0.577721
1511 1 0.252322 0.516483 0.576524
1645 1 0.260613 0.505617 0.577461
1580 1 0.272268 0.513493 0.576604
1715 1 0.285922 0.512667 0.577532
1710 1 0.299334 0.521587 0.575428
1359 1 0.301351 0.508598 0.577959
1640 1 0.317686 0.51019 0.578424
1584 1 0.31309 0.524583 0.574634
1518 1 0.334991 0.501973 0.581326
1364 1 0.328741 0.519416 0.57829
1438 1 0.342893 0.515206 0.579385
1507 1 0.351877 0.501464 0.582464
1361 1 0.370174 0.505044 0.584038
1433 1 0.357121 0.514949 0.582853
1386 1 0.373434 0.520707 0.582167
1383 1 0.386109 0.509793 0.58408
1453 1 0.403792 0.509678 0.58164
1244 1 0.417812 0.511593 0.580172
1530 1 0.402303 0.522398 0.580978
1390 1 0.446493 0.500728 0.579741
1391 1 0.431607 0.505421 0.581034
1310 1 0.4403 0.515994 0.579513
1252 1 0.429312 0.52219 0.579111
1392 1 0.460531 0.500124 0.579014
1521 1 0.473281 0.509885 0.576372
1451 1 0.455728 0.514689 0.578484
1393 1 0.471568 0.523604 0.576019
4071 1 0.498272 0.505865 0.571772
1314 1 0.486139 0.502042 0.574223
3999 1 0.487583 0.515819 0.574524
1570 1 0.21284 0.533145 0.572346
1430 1 0.228489 0.531185 0.573779
1643 1 0.24147 0.539212 0.572715
1360 1 0.252704 0.531058 0.575212
1582 1 0.267931 0.539166 0.571711
1579 1 0.264493 0.525731 0.574761
1708 1 0.279684 0.526644 0.574177
1442 1 0.290493 0.533278 0.574275
1366 1 0.30706 0.540785 0.574054
1513 1 0.320045 0.536688 0.576954
1576 1 0.337362 0.531692 0.57867
1439 1 0.346776 0.542575 0.577323
1655 1 0.332351 0.542847 0.574632
1371 1 0.351214 0.528117 0.579336
1301 1 0.362622 0.542552 0.577785
1527 1 0.362873 0.527961 0.581908
1458 1 0.388157 0.525912 0.581224
1298 1 0.386517 0.541743 0.580962
1673 1 0.375812 0.53307 0.579456
1379 1 0.403326 0.537031 0.581315
1603 1 0.415286 0.528306 0.580663
1528 1 0.417186 0.546134 0.580751
1594 1 0.426779 0.536955 0.579014
1254 1 0.43809 0.543387 0.578593
1313 1 0.444863 0.529838 0.579019
1459 1 0.461244 0.530707 0.576837
1522 1 0.453033 0.544364 0.576383
1534 1 0.467334 0.544865 0.574625
1400 1 0.491778 0.540438 0.573066
1601 1 0.480487 0.54911 0.573356
1599 1 0.493848 0.5263 0.571442
1525 1 0.481866 0.533259 0.573901
1728 1 0.294335 0.550125 0.573435
1587 1 0.324586 0.565151 0.57236
1519 1 0.3088 0.557721 0.573838
1591 1 0.322224 0.55072 0.574518
1652 1 0.340094 0.556768 0.573406
1443 1 0.371946 0.552134 0.577845
1446 1 0.354559 0.553317 0.574863
1727 1 0.354601 0.569084 0.572427
1447 1 0.36294 0.562475 0.576521
1589 1 0.375728 0.567295 0.5769
1368 1 0.387815 0.555644 0.576912
1523 1 0.389868 0.570125 0.576055
1448 1 0.400959 0.550384 0.580196
1450 1 0.402815 0.562141 0.577323
1529 1 0.405613 0.573322 0.573531
1378 1 0.415491 0.557603 0.576929
1398 1 0.420597 0.569649 0.575469
1469 1 0.448947 0.574006 0.57228
1600 1 0.43469 0.564969 0.573869
1532 1 0.429169 0.553137 0.578763
1671 1 0.44563 0.556831 0.574101
1535 1 0.472407 0.561709 0.573313
4133 1 0.459272 0.559449 0.574705
1520 1 0.368521 0.57924 0.572158
1598 1 0.417009 0.582047 0.5719
1592 1 0.431041 0.579133 0.571658
3035 1 0.709204 0.0119511 0.413467
2818 1 0.723705 0.0170763 0.412545
2814 1 0.721073 0.0012039 0.413803
5550 1 0.74168 0.0235348 0.41157
2891 1 0.737223 0.00601743 0.411294
5349 1 0.752898 0.00964186 0.411506
5548 1 0.757197 0.0231315 0.410805
2823 1 0.766569 0.0107112 0.410929
2970 1 0.779445 0.0154023 0.412338
2828 1 0.794156 0.0128404 0.412974
2831 1 0.786931 0.000740149 0.413013
2846 1 0.809156 0.0120872 0.41278
2913 1 0.824466 0.0170052 0.414149
2904 1 0.802389 0.0237939 0.410025
2911 1 0.85372 0.0192557 0.413901
2909 1 0.896184 0.0145139 0.41409
2815 1 0.713774 0.0303979 0.412237
2892 1 0.723146 0.0442848 0.411328
2820 1 0.709404 0.046813 0.413353
5554 1 0.742708 0.0390955 0.411809
2883 1 0.727778 0.0330759 0.410996
5488 1 0.771088 0.0296963 0.40981
2893 1 0.75612 0.0364476 0.410217
2903 1 0.767545 0.0455447 0.409085
5494 1 0.787824 0.0278467 0.410049
5496 1 0.783035 0.0417339 0.409207
5491 1 0.799983 0.0385425 0.410213
2838 1 0.815826 0.0272724 0.411756
2840 1 0.818879 0.041861 0.412397
5495 1 0.831087 0.0302978 0.412557
5563 1 0.83525 0.045505 0.41293
2979 1 0.848698 0.0482217 0.414101
2929 1 0.866614 0.02856 0.412864
5562 1 0.858954 0.0380952 0.413047
2918 1 0.889217 0.0292133 0.414099
2865 1 0.877213 0.0386624 0.412255
2927 1 0.890003 0.0464312 0.414041
2819 1 0.73778 0.0515519 0.41203
2894 1 0.754747 0.0506396 0.411642
3041 1 0.767531 0.0613166 0.410667
3038 1 0.758786 0.0726198 0.413454
2830 1 0.77713 0.0743708 0.412879
2981 1 0.792686 0.0531771 0.409328
2898 1 0.779823 0.0559512 0.40806
5422 1 0.786006 0.0676391 0.409874
2968 1 0.80657 0.0522045 0.410661
2961 1 0.801643 0.0651825 0.409553
3109 1 0.814256 0.0650813 0.411269
2905 1 0.824854 0.0563706 0.411792
2899 1 0.830703 0.0722684 0.412764
2977 1 0.840849 0.0605862 0.411562
3175 1 0.845006 0.0744316 0.413313
3044 1 0.857745 0.0621913 0.413155
3048 1 0.870162 0.0687076 0.413312
2833 1 0.790929 0.0825509 0.41176
2965 1 0.780167 0.0882463 0.414134
2902 1 0.803676 0.0778188 0.412496
3108 1 0.8032 0.0916597 0.412923
3112 1 0.818806 0.0798807 0.410794
2901 1 0.821243 0.0930225 0.414173
2972 1 0.834607 0.0854618 0.41393
2719 1 0.518169 0.0145575 0.420162
2724 1 0.502952 0.0149263 0.419065
2797 1 0.52828 0.00312604 0.41768
5462 1 0.542053 0.00649844 0.418352
2793 1 0.530797 0.0201129 0.420101
2590 1 0.545452 0.0208016 0.419363
5461 1 0.557909 0.00845688 0.419219
5465 1 0.558442 0.0211334 0.419833
5392 1 0.57171 0.0108039 0.420926
2660 1 0.585017 0.0158394 0.424188
5538 1 0.595795 0.00427821 0.424605
5393 1 0.579267 0.000970823 0.422569
5481 1 0.60099 0.0159153 0.427885
5472 1 0.618371 0.0133386 0.426517
5328 1 0.608881 0.00187283 0.426603
5400 1 0.623629 0.0005995 0.424671
5345 1 0.638188 0.00762373 0.42215
5342 1 0.631685 0.0237988 0.423896
2824 1 0.645589 0.0233191 0.422227
5483 1 0.65647 0.01698 0.419052
5411 1 0.674041 0.0138164 0.418805
5341 1 0.664021 0.00462779 0.419616
5412 1 0.696315 0.0186115 0.415298
5415 1 0.682543 0.0249633 0.418164
5556 1 0.689057 0.00770635 0.416083
2829 1 0.820802 0.00141865 0.414735
5580 1 0.840129 0.0172982 0.416147
5423 1 0.836565 0.00433742 0.415881
5576 1 0.850764 0.00463451 0.416829
2841 1 0.864216 0.0117707 0.41462
5509 1 0.874567 0.0027199 0.414487
2836 1 0.880569 0.0189424 0.414754
2839 1 0.887564 0.00217381 0.416707
2910 1 0.913555 0.00941104 0.417639
5591 1 0.907657 0.022253 0.415671
2993 1 0.923135 0.0221536 0.417395
5581 1 0.929165 0.00426083 0.420647
2980 1 0.937726 0.016359 0.419374
2858 1 0.943637 0.00158356 0.420468
2999 1 0.953396 0.0158182 0.42247
2928 1 0.964514 0.0228307 0.421199
2861 1 0.968403 0.00994361 0.423289
5523 1 0.956088 0.00011532 0.423371
211 1 0.979859 0.0180735 0.42444
229 1 0.991503 0.00993127 0.426891
221 1 0.981312 0.00103204 0.426479
132 1 0.509891 0.0280994 0.422785
2798 1 0.52273 0.0308688 0.422602
2799 1 0.513731 0.0410181 0.426308
3011 1 0.52736 0.0444934 0.425676
2873 1 0.538287 0.0337783 0.422261
70 1 0.545616 0.0495861 0.423559
2877 1 0.552346 0.0357643 0.422326
5531 1 0.565184 0.0373046 0.422352
5536 1 0.572668 0.0254294 0.422457
5468 1 0.574488 0.0464507 0.426925
2882 1 0.598293 0.0302321 0.425694
5467 1 0.582288 0.033294 0.424964
5555 1 0.590642 0.0435306 0.427253
5540 1 0.614531 0.0259235 0.426743
5413 1 0.60822 0.0392278 0.427193
5475 1 0.62341 0.0375132 0.427396
2813 1 0.639492 0.038524 0.424667
5478 1 0.667752 0.0277715 0.419569
5549 1 0.654045 0.0346718 0.423165
2963 1 0.673737 0.0450279 0.421119
2817 1 0.661228 0.0497983 0.423639
5547 1 0.698901 0.036097 0.414302
2886 1 0.687386 0.0378432 0.418974
2908 1 0.844632 0.0320991 0.414487
5582 1 0.867678 0.0492366 0.414423
2906 1 0.900271 0.0355813 0.415023
2859 1 0.915182 0.036566 0.418377
2924 1 0.935361 0.032598 0.418381
2931 1 0.928228 0.0440544 0.419614
2914 1 0.946591 0.0451879 0.419636
3069 1 0.950616 0.0308438 0.419161
3137 1 0.962048 0.0369551 0.42187
144 1 0.989396 0.0279872 0.42475
3068 1 0.976091 0.0322236 0.422936
3009 1 0.985532 0.0408643 0.425594
3138 1 0.998778 0.0374925 0.428175
210 1 0.519781 0.0569679 0.42824
347 1 0.535609 0.057096 0.425962
2874 1 0.559454 0.0504944 0.424289
2941 1 0.552542 0.0627917 0.427039
2884 1 0.64792 0.0508743 0.425886
2967 1 0.656921 0.0615595 0.428408
5542 1 0.671403 0.0604856 0.425588
2966 1 0.692762 0.0521672 0.417002
2885 1 0.682807 0.0695998 0.424608
3027 1 0.681553 0.0545087 0.420519
3018 1 0.694613 0.0671156 0.418533
3026 1 0.721967 0.058381 0.414789
2896 1 0.706156 0.0607041 0.41482
3025 1 0.717835 0.0717729 0.415666
2959 1 0.705416 0.0734734 0.420816
2826 1 0.749147 0.0617348 0.414535
3036 1 0.736391 0.0659294 0.415575
5575 1 0.880743 0.0575736 0.414325
2916 1 0.882017 0.0723072 0.416238
2989 1 0.895288 0.0630352 0.416125
3064 1 0.91774 0.0508746 0.417713
2842 1 0.903505 0.0504659 0.415872
5568 1 0.911877 0.0642001 0.418285
2921 1 0.930008 0.0607947 0.417104
3133 1 0.943989 0.0572485 0.41953
2857 1 0.940198 0.0715252 0.418901
3213 1 0.974015 0.0500108 0.424085
2933 1 0.959117 0.0518708 0.422199
2860 1 0.954262 0.0682059 0.420996
2930 1 0.968941 0.0630822 0.424656
2926 1 0.9858 0.0597262 0.426332
2862 1 0.980279 0.0739836 0.42717
3031 1 0.693341 0.0806653 0.425031
3315 1 0.702803 0.0882306 0.424607
2957 1 0.714415 0.0847753 0.420002
2825 1 0.714062 0.0965404 0.426151
2897 1 0.745791 0.0766779 0.416511
3097 1 0.730229 0.0928314 0.423061
2890 1 0.73127 0.082771 0.418279
3039 1 0.743872 0.0940344 0.420012
2962 1 0.755804 0.0916154 0.419286
3042 1 0.76675 0.085315 0.415223
3391 1 0.765712 0.0986034 0.418404
3102 1 0.790467 0.096853 0.416578
2900 1 0.778619 0.0992465 0.419942
2974 1 0.845774 0.090487 0.417225
3121 1 0.871283 0.0838276 0.417565
2895 1 0.858394 0.0819139 0.415552
2969 1 0.863431 0.0943096 0.421646
2907 1 0.897301 0.0770823 0.417188
2985 1 0.886044 0.0880134 0.419524
2919 1 0.924493 0.0756231 0.41787
2856 1 0.9018 0.0905729 0.41862
2851 1 0.910271 0.0803095 0.418465
3136 1 0.910829 0.097949 0.421848
2984 1 0.923468 0.0888321 0.419647
2855 1 0.937299 0.0873106 0.420911
3059 1 0.952884 0.0819258 0.422325
3139 1 0.967026 0.0756623 0.424243
2844 1 0.953891 0.0962257 0.424976
2992 1 0.968175 0.0893123 0.425063
2997 1 0.983759 0.0897486 0.428024
3034 1 0.72395 0.104389 0.427336
3173 1 0.702463 0.103336 0.42824
3106 1 0.7413 0.105979 0.426218
3107 1 0.754815 0.106111 0.424185
2960 1 0.770374 0.113395 0.423735
3040 1 0.757997 0.119037 0.427802
3177 1 0.784586 0.112243 0.420905
2976 1 0.782568 0.123789 0.425893
3116 1 0.796076 0.120752 0.423289
3195 1 0.812333 0.102359 0.416654
2973 1 0.800518 0.109127 0.418438
3184 1 0.810201 0.116331 0.422677
2848 1 0.823573 0.111464 0.41978
2975 1 0.833203 0.102933 0.418005
2982 1 0.837106 0.114776 0.422079
5559 1 0.849068 0.105463 0.42014
5489 1 0.850482 0.121344 0.424222
3057 1 0.865349 0.108269 0.423199
3045 1 0.865436 0.121721 0.425316
2995 1 0.875916 0.101144 0.42007
2987 1 0.891155 0.100535 0.421513
3065 1 0.881201 0.113056 0.424066
3063 1 0.891806 0.121585 0.426353
3129 1 0.902176 0.109074 0.423698
3206 1 0.916603 0.111049 0.424901
2852 1 0.905209 0.124069 0.428107
3273 1 0.940203 0.100938 0.422925
3131 1 0.925852 0.101277 0.422676
3199 1 0.928945 0.112027 0.426639
2915 1 0.944767 0.114421 0.425826
3276 1 0.959154 0.108847 0.428201
3140 1 0.972098 0.102719 0.428093
3249 1 0.769029 0.125978 0.427235
3114 1 0.788309 0.133215 0.428391
2986 1 0.819633 0.125686 0.42691
2978 1 0.802371 0.129997 0.427452
3047 1 0.834338 0.126134 0.426776
3060 1 0.862722 0.137959 0.428208
2854 1 0.877062 0.127404 0.42705
2812 1 0.616986 0.049439 0.428759
209 1 0.508009 0.0534232 0.42895
349 1 0.511276 0.0691417 0.431629
2804 1 0.526783 0.0694523 0.429388
5535 1 0.542817 0.0700094 0.430593
5464 1 0.567913 0.0590215 0.428697
2802 1 0.560838 0.0727978 0.42918
2803 1 0.576381 0.0720233 0.432541
5539 1 0.583667 0.0571864 0.428891
2816 1 0.595753 0.0627176 0.433718
2876 1 0.600984 0.0521764 0.429298
2809 1 0.614259 0.0609978 0.433317
2952 1 0.603884 0.0731552 0.435502
5482 1 0.630082 0.0519725 0.428802
2821 1 0.629262 0.0651134 0.43265
2879 1 0.641992 0.0641009 0.429162
3019 1 0.670649 0.0720951 0.429299
2888 1 0.654521 0.0729733 0.4307
3006 1 0.99663 0.0506195 0.42901
3070 1 0.99366 0.0704432 0.428832
348 1 0.521484 0.0809859 0.435946
140 1 0.504252 0.079807 0.436861
419 1 0.513327 0.0913993 0.441425
2949 1 0.536309 0.0822184 0.433946
276 1 0.543889 0.0945218 0.43845
3086 1 0.528932 0.0923902 0.440965
69 1 0.551678 0.0829973 0.434271
2887 1 0.567763 0.0794865 0.435772
2881 1 0.562249 0.0942334 0.439221
3083 1 0.577784 0.0908986 0.439389
2945 1 0.58733 0.0765901 0.436467
3023 1 0.595001 0.0858213 0.43941
3029 1 0.622792 0.0750264 0.43483
2822 1 0.611573 0.0826661 0.439173
3095 1 0.623878 0.0920935 0.43943
2944 1 0.605359 0.095218 0.441643
5544 1 0.642331 0.0777902 0.432562
2808 1 0.633126 0.0838055 0.437013
2951 1 0.638804 0.0966119 0.438322
2889 1 0.652453 0.0884759 0.435031
2878 1 0.665848 0.0842894 0.433428
2807 1 0.66565 0.0980103 0.435242
2954 1 0.691986 0.0946217 0.429817
2956 1 0.679583 0.0841448 0.429536
3022 1 0.679337 0.0983513 0.4331
3146 1 0.997795 0.0885345 0.431596
139 1 0.590388 0.101692 0.442834
2872 1 0.614416 0.104388 0.442832
2943 1 0.630674 0.10764 0.44087
2955 1 0.650076 0.103957 0.439068
2801 1 0.668169 0.112069 0.440254
2875 1 0.6773 0.123998 0.441045
2953 1 0.680769 0.111073 0.435635
3105 1 0.69296 0.110134 0.432143
3014 1 0.689563 0.123211 0.437982
3104 1 0.714415 0.110794 0.432397
3239 1 0.705055 0.120268 0.433342
3032 1 0.743792 0.116676 0.430132
3094 1 0.728522 0.116297 0.430616
2923 1 0.919748 0.123906 0.429584
3135 1 0.967436 0.119889 0.429818
76 1 0.989332 0.102051 0.431097
3067 1 0.980761 0.114074 0.431502
3080 1 0.992798 0.117995 0.433791
3174 1 0.697706 0.131973 0.439953
3183 1 0.720864 0.125295 0.435566
3089 1 0.710185 0.132942 0.437185
3179 1 0.72705 0.136895 0.437896
3261 1 0.735737 0.12737 0.432981
3243 1 0.738931 0.138478 0.435857
3182 1 0.731574 0.147594 0.441149
3119 1 0.750546 0.128922 0.430472
2971 1 0.761147 0.136501 0.431006
3186 1 0.751728 0.14036 0.435242
3113 1 0.764217 0.146092 0.436276
3117 1 0.775481 0.136727 0.430745
3124 1 0.795108 0.143253 0.431566
3258 1 0.779195 0.146831 0.43539
3049 1 0.812845 0.137982 0.430492
3110 1 0.822019 0.14844 0.43485
3058 1 0.806993 0.148508 0.436131
2991 1 0.830017 0.138022 0.430401
3115 1 0.838841 0.148238 0.433827
3050 1 0.850129 0.133824 0.428782
2920 1 0.851829 0.145724 0.434085
2922 1 0.865767 0.149361 0.435825
3193 1 0.878077 0.1408 0.430016
3043 1 0.895177 0.135575 0.430664
3349 1 0.890858 0.146543 0.435246
3066 1 0.913329 0.136486 0.432455
3072 1 0.905632 0.146371 0.437146
3287 1 0.922188 0.143162 0.438402
2925 1 0.937226 0.125472 0.429884
3272 1 0.947653 0.137775 0.435084
3209 1 0.931399 0.13549 0.432827
3142 1 0.939315 0.142595 0.439447
3277 1 0.952703 0.125453 0.430991
3074 1 0.962139 0.133453 0.435087
3076 1 0.955562 0.145498 0.440691
3147 1 0.97153 0.1399 0.441394
3219 1 0.978199 0.127813 0.436322
351 1 0.992582 0.131526 0.439404
3037 1 0.746263 0.15201 0.439352
3326 1 0.756226 0.160308 0.441434
3388 1 0.770428 0.158481 0.440562
3122 1 0.792793 0.15109 0.436785
3187 1 0.783705 0.16051 0.43993
3255 1 0.800958 0.160772 0.44174
3196 1 0.815093 0.157974 0.44053
3330 1 0.829224 0.159319 0.438642
3118 1 0.844 0.159754 0.439361
3046 1 0.854961 0.160263 0.441289
2994 1 0.868464 0.160364 0.441022
2990 1 0.879558 0.152199 0.437339
2847 1 0.897349 0.156903 0.43979
3054 1 0.885907 0.162616 0.440507
3205 1 0.916563 0.155823 0.441768
341 1 0.506986 0.0973014 0.448737
3017 1 0.519564 0.102261 0.446199
3152 1 0.509793 0.109937 0.451209
3153 1 0.524804 0.110865 0.450557
555 1 0.51695 0.118442 0.457013
627 1 0.533242 0.103546 0.44397
3158 1 0.547742 0.103916 0.444409
549 1 0.539412 0.115708 0.449876
3165 1 0.547786 0.121334 0.456966
3082 1 0.531889 0.120703 0.455942
279 1 0.562257 0.108398 0.443447
3091 1 0.556289 0.114501 0.449458
2805 1 0.57171 0.115957 0.447932
3090 1 0.560269 0.124281 0.456378
3015 1 0.575015 0.103364 0.443355
3092 1 0.586044 0.114221 0.448198
274 1 0.601654 0.110487 0.445695
2810 1 0.611563 0.11959 0.448541
3093 1 0.624171 0.117881 0.447363
2950 1 0.640122 0.11813 0.445915
2947 1 0.653524 0.114347 0.444059
3189 1 0.664351 0.121835 0.445323
208 1 0.596519 0.125984 0.449807
3013 1 0.581311 0.126781 0.454277
3016 1 0.59419 0.136641 0.457045
3101 1 0.621707 0.130323 0.453021
2942 1 0.607672 0.1341 0.454129
3021 1 0.635516 0.129408 0.451418
3087 1 0.644403 0.140897 0.453945
3096 1 0.651131 0.128102 0.449068
3030 1 0.659436 0.143317 0.45379
3245 1 0.67049 0.136727 0.447544
2948 1 0.685825 0.136284 0.443948
3247 1 0.681996 0.144655 0.449454
3319 1 0.716834 0.145401 0.443139
3103 1 0.70141 0.142863 0.443852
286 1 0.984683 0.143665 0.443515
3387 1 0.672708 0.152287 0.454386
2964 1 0.694119 0.15104 0.449684
3188 1 0.687053 0.160806 0.454518
3181 1 0.699578 0.169002 0.454169
3250 1 0.705794 0.155052 0.447458
3185 1 0.724344 0.158658 0.445947
3390 1 0.71294 0.165209 0.450185
3399 1 0.722666 0.174506 0.45085
3393 1 0.741544 0.160198 0.444374
3257 1 0.749597 0.172296 0.444398
3325 1 0.764165 0.171335 0.445153
3111 1 0.77844 0.171178 0.445194
3263 1 0.792068 0.172388 0.444283
2850 1 0.809758 0.171021 0.446006
3053 1 0.823904 0.169011 0.44675
3194 1 0.839083 0.168797 0.44503
3190 1 0.857403 0.171195 0.44634
3191 1 0.873633 0.17252 0.446564
3192 1 0.890684 0.170096 0.445731
3204 1 0.906009 0.168545 0.44543
3275 1 0.922195 0.166381 0.446822
3346 1 0.931129 0.152914 0.442878
3216 1 0.9354 0.165227 0.446625
3071 1 0.946741 0.155825 0.443885
355 1 0.970695 0.152009 0.443887
3148 1 0.960427 0.160153 0.447144
425 1 0.950388 0.169367 0.450314
3212 1 0.97285 0.163271 0.450312
287 1 0.986773 0.155913 0.447303
3285 1 0.989392 0.166811 0.453079
3246 1 0.71059 0.178043 0.455588
3251 1 0.726411 0.186687 0.455536
3332 1 0.737548 0.175818 0.448193
3327 1 0.742669 0.187545 0.454336
3253 1 0.753346 0.181702 0.449252
3061 1 0.77016 0.182972 0.450269
3398 1 0.755935 0.192063 0.453571
2988 1 0.77065 0.194761 0.455299
3262 1 0.785043 0.181989 0.448937
3126 1 0.788606 0.191737 0.454447
3051 1 0.799889 0.180243 0.448661
3334 1 0.805272 0.190236 0.454032
3259 1 0.816144 0.18148 0.449494
3407 1 0.820591 0.190745 0.455883
3403 1 0.831262 0.181234 0.451644
3329 1 0.847125 0.179222 0.452106
3340 1 0.838355 0.19087 0.457001
3055 1 0.864709 0.182418 0.450868
3202 1 0.853427 0.190126 0.456608
3616 1 0.868895 0.192494 0.456617
3052 1 0.881388 0.185069 0.451458
3056 1 0.89714 0.186096 0.454819
3348 1 0.908214 0.178064 0.451314
3211 1 0.923016 0.178389 0.452113
3125 1 0.93716 0.17599 0.450755
3339 1 0.93502 0.185723 0.456965
3279 1 0.967448 0.176134 0.453243
3217 1 0.951952 0.182837 0.453296
3344 1 0.980586 0.176481 0.454796
835 1 0.50369 0.116272 0.458339
3221 1 0.510964 0.127916 0.463721
3292 1 0.504399 0.13789 0.471324
557 1 0.518496 0.137444 0.469095
3161 1 0.52974 0.127971 0.462059
3295 1 0.542166 0.132185 0.463365
3088 1 0.533615 0.137018 0.469818
3231 1 0.556169 0.132024 0.46251
3228 1 0.551319 0.141288 0.469652
3151 1 0.567181 0.142459 0.465645
343 1 0.570691 0.130545 0.459734
3024 1 0.581132 0.142612 0.461712
3237 1 0.592295 0.148948 0.465407
3309 1 0.617157 0.14183 0.458737
3171 1 0.603668 0.144457 0.460196
3169 1 0.631411 0.143679 0.457581
3028 1 0.647139 0.149257 0.460539
3298 1 0.578063 0.152616 0.469223
3459 1 0.592144 0.159333 0.470859
3244 1 0.619015 0.154421 0.463501
3241 1 0.605241 0.154941 0.466139
3156 1 0.616503 0.163806 0.469905
3099 1 0.630737 0.163989 0.467956
3230 1 0.633993 0.154782 0.462031
3168 1 0.641033 0.170047 0.470438
3163 1 0.650489 0.163063 0.465355
2958 1 0.662526 0.156358 0.460423
3178 1 0.674989 0.16309 0.460546
3033 1 0.665163 0.171056 0.466149
3176 1 0.688822 0.1739 0.459744
3170 1 0.652839 0.176254 0.471009
3318 1 0.664237 0.185266 0.471193
3012 1 0.678336 0.177621 0.465552
3100 1 0.689798 0.186282 0.466752
3316 1 0.677605 0.189351 0.47101
3260 1 0.700228 0.182452 0.460253
3320 1 0.711496 0.189309 0.461432
3456 1 0.70352 0.196055 0.467557
3458 1 0.719304 0.199021 0.464012
3460 1 0.734193 0.199133 0.460399
3127 1 0.887618 0.197691 0.457847
3201 1 0.904369 0.195038 0.460667
3282 1 0.91294 0.186985 0.458492
3203 1 0.925191 0.192109 0.4596
3132 1 0.939538 0.196319 0.46463
3208 1 0.949246 0.191173 0.459854
3210 1 0.964413 0.186344 0.458693
3345 1 0.960324 0.199159 0.46382
3143 1 0.994942 0.181888 0.458406
3351 1 0.981149 0.186688 0.460549
3289 1 0.990565 0.195544 0.464647
3454 1 0.714791 0.205531 0.470957
3545 1 0.746587 0.202522 0.461087
3465 1 0.743824 0.211966 0.468282
3539 1 0.730631 0.206089 0.468135
3541 1 0.764144 0.200589 0.460298
3324 1 0.7586 0.208339 0.468311
3396 1 0.775906 0.205404 0.466752
3265 1 0.797651 0.200465 0.457829
3331 1 0.785032 0.213359 0.471101
3120 1 0.782261 0.200315 0.460553
3473 1 0.79263 0.210546 0.463102
3268 1 0.800114 0.224844 0.471162
3123 1 0.810496 0.203158 0.459218
3397 1 0.805139 0.213738 0.464669
3404 1 0.820331 0.212319 0.465141
3758 1 0.814251 0.22272 0.470796
3410 1 0.827488 0.202409 0.461091
3337 1 0.836799 0.211246 0.467089
3128 1 0.842793 0.201577 0.461233
3405 1 0.852118 0.21007 0.46682
3480 1 0.868953 0.210263 0.468174
3335 1 0.859802 0.200746 0.461364
3269 1 0.876432 0.200048 0.462532
3479 1 0.882494 0.210057 0.467417
3062 1 0.897543 0.204241 0.465104
3418 1 0.895891 0.215155 0.471255
3343 1 0.914271 0.203348 0.463026
3354 1 0.909763 0.212422 0.468942
3130 1 0.927597 0.203139 0.466065
283 1 0.949385 0.203877 0.46785
3350 1 0.965859 0.206435 0.47016
212 1 0.977443 0.201018 0.465792
768 1 0.511382 0.148429 0.477162
3155 1 0.525486 0.149385 0.476541
3226 1 0.541124 0.146602 0.474447
3154 1 0.562887 0.149345 0.473389
685 1 0.509623 0.157869 0.482938
766 1 0.523845 0.157782 0.483577
3437 1 0.538644 0.156575 0.481637
3085 1 0.54965 0.155719 0.479203
3299 1 0.57292 0.158963 0.476025
3236 1 0.560187 0.164824 0.482178
3438 1 0.575926 0.172762 0.481871
3159 1 0.584191 0.165657 0.475878
3453 1 0.590819 0.174747 0.480386
3233 1 0.604026 0.167492 0.472727
3162 1 0.630046 0.174577 0.473356
3377 1 0.595805 0.186904 0.48391
3225 1 0.604685 0.181036 0.479162
3164 1 0.616458 0.175793 0.476624
3386 1 0.619421 0.19031 0.482644
3242 1 0.642557 0.180803 0.475393
3308 1 0.629669 0.183542 0.479755
3392 1 0.644161 0.194106 0.481534
3238 1 0.633579 0.196319 0.484687
3166 1 0.655934 0.190118 0.477364
3307 1 0.667966 0.194554 0.477361
3389 1 0.692496 0.19771 0.47202
3310 1 0.657788 0.20195 0.483863
3240 1 0.672373 0.203498 0.483826
3314 1 0.681495 0.20137 0.477587
3172 1 0.69254 0.209121 0.47965
3254 1 0.6996 0.219587 0.485588
3380 1 0.704298 0.208288 0.476013
3394 1 0.708897 0.218674 0.480421
3322 1 0.719069 0.213634 0.475828
3471 1 0.749364 0.219245 0.474534
3256 1 0.731884 0.216224 0.473983
3468 1 0.726102 0.223898 0.48205
3266 1 0.766527 0.217565 0.47178
3546 1 0.760939 0.224133 0.477391
3338 1 0.778026 0.222918 0.476768
3475 1 0.829046 0.219063 0.472154
3618 1 0.843444 0.220082 0.473779
3267 1 0.858345 0.215586 0.474439
3476 1 0.872287 0.222141 0.477556
3270 1 0.883137 0.219971 0.473553
3488 1 0.895808 0.224326 0.477635
3406 1 0.912401 0.2209 0.475911
3421 1 0.92294 0.212344 0.473137
3284 1 0.923098 0.224883 0.480918
3341 1 0.938551 0.209746 0.472101
3342 1 0.93575 0.218828 0.477952
3497 1 0.951134 0.214689 0.472378
3280 1 0.965583 0.218923 0.476575
3569 1 0.992838 0.206756 0.471512
284 1 0.980523 0.213117 0.473439
3412 1 0.994445 0.217272 0.477412
3134 1 0.979285 0.222794 0.480609
3543 1 0.739314 0.22567 0.481139
3264 1 0.752843 0.23309 0.484293
3336 1 0.767818 0.231483 0.483375
3333 1 0.790301 0.225495 0.47528
3467 1 0.794794 0.234496 0.480446
3750 1 0.781429 0.231668 0.483005
3553 1 0.807101 0.233762 0.477455
3549 1 0.821312 0.228236 0.47759
3611 1 0.812851 0.238037 0.484007
3542 1 0.83449 0.230631 0.47946
3613 1 0.825194 0.234621 0.484233
3409 1 0.848416 0.227186 0.479692
3557 1 0.860028 0.229179 0.482075
3198 1 0.871662 0.234146 0.485238
3490 1 0.883364 0.231044 0.482363
3271 1 0.908327 0.229599 0.481234
3416 1 0.94884 0.225032 0.480132
3218 1 0.936983 0.230768 0.484569
3417 1 0.964651 0.228909 0.483382
3288 1 0.991408 0.225629 0.484297
3229 1 0.50286 0.166588 0.490455
3296 1 0.516908 0.169239 0.489185
3020 1 0.54686 0.16739 0.486379
3367 1 0.531834 0.168614 0.487433
689 1 0.504762 0.17586 0.496714
827 1 0.516924 0.178086 0.495551
3501 1 0.530848 0.181113 0.492385
3363 1 0.545344 0.178326 0.490769
3503 1 0.538888 0.190538 0.497066
3432 1 0.52553 0.191009 0.499211
3297 1 0.560634 0.177545 0.487058
3098 1 0.567053 0.187042 0.492075
3439 1 0.553065 0.186491 0.494134
3361 1 0.563308 0.195514 0.498902
3505 1 0.580368 0.183219 0.487091
3302 1 0.579117 0.19251 0.494516
3657 1 0.591021 0.196056 0.489434
3527 1 0.606239 0.193953 0.486787
3372 1 0.590463 0.203751 0.497318
3312 1 0.618658 0.200429 0.489819
3450 1 0.603762 0.203612 0.493545
3300 1 0.619115 0.208968 0.497253
3376 1 0.632031 0.217681 0.498833
3381 1 0.647546 0.205611 0.488635
3466 1 0.633538 0.207063 0.491089
3378 1 0.643106 0.213765 0.496426
3529 1 0.64751 0.224974 0.499084
3457 1 0.666136 0.211865 0.489477
3534 1 0.655331 0.215834 0.493398
3180 1 0.677748 0.217573 0.492459
3321 1 0.684988 0.212904 0.485722
3197 1 0.713579 0.224979 0.487351
3401 1 0.662822 0.22769 0.498512
3470 1 0.69189 0.225587 0.492549
3402 1 0.677975 0.23088 0.495829
3400 1 0.693713 0.237279 0.49847
3252 1 0.705252 0.233307 0.490729
3751 1 0.708313 0.243556 0.49728
3461 1 0.722983 0.241388 0.494107
3328 1 0.727434 0.234347 0.487713
3615 1 0.740063 0.236855 0.489316
3619 1 0.738216 0.248052 0.49732
3477 1 0.752805 0.241343 0.491609
3472 1 0.767117 0.239877 0.489241
3896 1 0.785388 0.241236 0.488719
3831 1 0.779023 0.248471 0.495072
3624 1 0.800408 0.242701 0.487125
3547 1 0.810963 0.249698 0.491949
3408 1 0.840633 0.237746 0.486887
3827 1 0.826132 0.24324 0.490083
3558 1 0.839288 0.246651 0.492745
3481 1 0.854537 0.236913 0.488098
3563 1 0.866945 0.243043 0.492399
3413 1 0.85371 0.249079 0.494447
3425 1 0.896713 0.232826 0.487414
3200 1 0.883134 0.2411 0.489497
3281 1 0.899827 0.244038 0.49377
3491 1 0.88745 0.24979 0.49737
3493 1 0.910039 0.238993 0.489556
3358 1 0.920693 0.236577 0.486281
3414 1 0.925776 0.246338 0.493033
3415 1 0.941594 0.239719 0.490513
3214 1 0.953764 0.23341 0.486619
3278 1 0.951903 0.246769 0.494115
491 1 0.965689 0.243335 0.490999
423 1 0.977956 0.232432 0.48847
3780 1 0.996011 0.248466 0.498175
421 1 0.991956 0.237447 0.490555
354 1 0.979688 0.247714 0.495888
3687 1 0.75181 0.251111 0.498206
3614 1 0.765909 0.25216 0.497005
3552 1 0.795261 0.250437 0.493451
3620 1 0.801927 0.257337 0.498219
3762 1 0.81395 0.257717 0.499447
3608 1 0.825773 0.255007 0.496228
3691 1 0.842655 0.252786 0.499423
3422 1 0.898641 0.255142 0.499415
3489 1 0.875253 0.250181 0.495868
3347 1 0.913626 0.250066 0.495767
3428 1 0.937461 0.251911 0.498341
3356 1 0.96635 0.25457 0.496676
700 1 0.509625 0.189841 0.501405
760 1 0.503728 0.198649 0.509298
840 1 0.518642 0.198364 0.508594
837 1 0.548173 0.196429 0.502494
3366 1 0.535089 0.200161 0.504093
839 1 0.54184 0.208761 0.51089
3434 1 0.526471 0.206738 0.511935
3510 1 0.555282 0.204208 0.505775
979 1 0.57102 0.21279 0.505287
539 1 0.559571 0.212892 0.511514
3232 1 0.591444 0.212613 0.506513
3294 1 0.596075 0.223508 0.514269
3370 1 0.582279 0.218806 0.511381
3506 1 0.577 0.201602 0.500592
3365 1 0.604234 0.212301 0.501907
3301 1 0.605985 0.219086 0.509043
3395 1 0.619447 0.215631 0.503898
3659 1 0.621142 0.227182 0.508649
3385 1 0.635321 0.225884 0.503988
3317 1 0.637341 0.238087 0.509633
3375 1 0.645886 0.232126 0.50588
3383 1 0.626123 0.2388 0.51238
3323 1 0.660862 0.237104 0.50486
3463 1 0.653381 0.245731 0.510116
3469 1 0.670263 0.246919 0.507897
3609 1 0.672702 0.23769 0.502234
3531 1 0.684548 0.244995 0.504661
3610 1 0.665751 0.256321 0.514138
3538 1 0.682935 0.253948 0.510552
3607 1 0.69621 0.254773 0.510628
3685 1 0.702799 0.250357 0.503691
3530 1 0.708186 0.268891 0.514059
3682 1 0.713539 0.260069 0.507083
3681 1 0.72159 0.250487 0.502053
3462 1 0.725768 0.269606 0.511191
3674 1 0.732145 0.259893 0.50629
3536 1 0.741339 0.26997 0.50971
3747 1 0.745773 0.256334 0.503381
3537 1 0.759742 0.259894 0.50438
3617 1 0.760827 0.270173 0.509574
3745 1 0.772565 0.260996 0.503285
3686 1 0.775544 0.268843 0.509029
3676 1 0.787746 0.26937 0.506388
3474 1 0.785978 0.256775 0.500279
3757 1 0.803031 0.263772 0.506074
3753 1 0.818594 0.264125 0.505902
3550 1 0.809019 0.273888 0.510857
3482 1 0.822727 0.274662 0.511305
3483 1 0.831044 0.260774 0.502756
3756 1 0.848671 0.26272 0.505933
3548 1 0.837336 0.268914 0.509063
3627 1 0.864391 0.266345 0.507046
3492 1 0.850117 0.274024 0.511735
3634 1 0.874038 0.258828 0.502755
3622 1 0.863817 0.274893 0.513653
3551 1 0.858753 0.254857 0.500436
3485 1 0.886419 0.262397 0.503187
3561 1 0.899589 0.264613 0.506445
3486 1 0.877874 0.269961 0.51116
3702 1 0.894772 0.27128 0.513966
3495 1 0.909562 0.258632 0.502589
3562 1 0.920769 0.265492 0.507234
3419 1 0.908969 0.271246 0.510806
3631 1 0.922606 0.256976 0.500978
913 1 0.93693 0.263216 0.505114
3845 1 0.933608 0.273303 0.509612
561 1 0.951775 0.266998 0.5075
424 1 0.96636 0.262293 0.50565
3500 1 0.971028 0.272203 0.512223
3555 1 0.950504 0.257369 0.501461
3708 1 0.997616 0.272805 0.511869
3778 1 0.985022 0.266075 0.508832
775 1 0.99415 0.258294 0.504289
3353 1 0.979891 0.255619 0.502216
3606 1 0.75355 0.277542 0.514157
3638 1 0.921236 0.275653 0.513876
3844 1 0.94605 0.279622 0.511895
3637 1 0.957836 0.276811 0.511556
3639 1 0.98371 0.279709 0.513869
899 1 0.510884 0.20735 0.517016
3508 1 0.515718 0.219288 0.521511
698 1 0.528323 0.213798 0.51822
770 1 0.545276 0.215384 0.517472
3436 1 0.530566 0.222314 0.523604
3577 1 0.544557 0.223767 0.525218
903 1 0.57236 0.222021 0.516053
3504 1 0.557876 0.219687 0.520481
758 1 0.505302 0.226971 0.527315
3572 1 0.520904 0.230841 0.527914
3234 1 0.568125 0.230638 0.523316
3369 1 0.555837 0.231004 0.526671
3451 1 0.57778 0.235876 0.527074
3441 1 0.584722 0.229296 0.520279
3306 1 0.59096 0.240263 0.525982
3452 1 0.611437 0.232591 0.514529
3227 1 0.600184 0.233926 0.520193
3160 1 0.617942 0.240464 0.519826
3235 1 0.608072 0.242257 0.525376
3520 1 0.641555 0.246482 0.515984
3515 1 0.628774 0.245724 0.520587
3535 1 0.623659 0.250219 0.528254
3455 1 0.637098 0.257297 0.522767
3667 1 0.628857 0.265369 0.528254
3384 1 0.641198 0.272061 0.527913
3523 1 0.65231 0.256261 0.517339
3464 1 0.665957 0.268091 0.519984
3605 1 0.650066 0.264824 0.52326
3683 1 0.69457 0.267224 0.515091
3382 1 0.678372 0.264714 0.514557
3540 1 0.673957 0.279663 0.524419
3736 1 0.658314 0.279362 0.527874
3665 1 0.682039 0.275172 0.519172
3677 1 0.693404 0.28126 0.5221
3544 1 0.688374 0.291339 0.526817
3678 1 0.721854 0.279153 0.517178
3522 1 0.704722 0.277525 0.520238
3744 1 0.704459 0.291607 0.526417
3742 1 0.715179 0.284753 0.523426
3746 1 0.721422 0.293964 0.527613
3532 1 0.736447 0.28099 0.516324
3738 1 0.731482 0.286831 0.5234
3597 1 0.747058 0.28787 0.519331
3673 1 0.764742 0.288764 0.520777
3743 1 0.764216 0.299828 0.527317
3694 1 0.768535 0.278735 0.515929
3599 1 0.750885 0.291748 0.526442
3692 1 0.787168 0.280147 0.515286
3478 1 0.777613 0.289721 0.521897
3621 1 0.791057 0.289307 0.523539
3612 1 0.817775 0.283993 0.515362
3496 1 0.802327 0.282626 0.517225
3623 1 0.813027 0.293844 0.522618
3749 1 0.800341 0.299969 0.527165
3693 1 0.83685 0.27935 0.516038
3411 1 0.828071 0.287644 0.51922
3554 1 0.84804 0.292398 0.522234
3560 1 0.834007 0.295712 0.523179
3556 1 0.852878 0.281965 0.519149
3494 1 0.869316 0.284205 0.520361
3900 1 0.862608 0.293326 0.525493
3766 1 0.882047 0.276434 0.516491
3423 1 0.897131 0.281899 0.521719
3564 1 0.883385 0.286885 0.525121
3840 1 0.893814 0.293887 0.526912
3701 1 0.908321 0.278679 0.516918
3913 1 0.920906 0.288756 0.519453
3635 1 0.909022 0.290154 0.522311
3629 1 0.932114 0.282921 0.517302
3705 1 0.942698 0.290374 0.517015
3777 1 0.932194 0.298886 0.522395
843 1 0.969063 0.284205 0.517412
777 1 0.957199 0.288002 0.516892
841 1 0.966509 0.29718 0.520378
3565 1 0.994214 0.286594 0.516726
3776 1 0.980819 0.291532 0.520193
846 1 0.99785 0.297828 0.521954
3688 1 0.783629 0.300383 0.528525
3764 1 0.819597 0.304046 0.526576
3771 1 0.916886 0.300738 0.526342
3626 1 0.904208 0.303524 0.528199
3704 1 0.941604 0.307296 0.525972
3912 1 0.928581 0.310773 0.52773
3566 1 0.949186 0.30081 0.520446
3910 1 0.971751 0.305511 0.526051
3774 1 0.956187 0.308981 0.525683
1057 1 0.985492 0.301975 0.524047
1129 1 0.995775 0.309832 0.526275
915 1 0.983596 0.312748 0.528237
829 1 0.51117 0.234692 0.532446
910 1 0.511112 0.247081 0.538075
3579 1 0.525774 0.242448 0.534288
3502 1 0.535554 0.236369 0.529908
3371 1 0.54934 0.241269 0.531489
3373 1 0.569553 0.243148 0.532022
3575 1 0.558154 0.248311 0.535779
3248 1 0.584118 0.247871 0.531431
908 1 0.523643 0.257135 0.541403
3440 1 0.538976 0.250335 0.53623
833 1 0.536351 0.261073 0.541228
3442 1 0.551937 0.258579 0.539674
3368 1 0.568437 0.258447 0.538262
3303 1 0.598389 0.251269 0.530916
3448 1 0.577311 0.266348 0.542311
3313 1 0.587591 0.260192 0.536051
3586 1 0.591353 0.274081 0.542184
3305 1 0.601398 0.266233 0.536831
3311 1 0.611236 0.257703 0.529084
3655 1 0.61812 0.269038 0.53413
3584 1 0.605213 0.278885 0.54041
3588 1 0.618774 0.281235 0.538584
3447 1 0.631279 0.278625 0.534106
3590 1 0.629261 0.291217 0.540162
3528 1 0.645097 0.283076 0.534425
3653 1 0.643389 0.29686 0.540862
3524 1 0.668164 0.289681 0.530028
3525 1 0.656856 0.292775 0.534828
3669 1 0.668465 0.299796 0.536099
3709 1 0.877452 0.295277 0.52943
3679 1 0.673273 0.310824 0.540436
3806 1 0.657821 0.307001 0.540688
3737 1 0.698451 0.30209 0.530887
3533 1 0.685445 0.30648 0.534995
3591 1 0.699386 0.312864 0.535709
3598 1 0.686037 0.319478 0.539874
3734 1 0.702616 0.323253 0.540363
3882 1 0.71242 0.303632 0.530635
3596 1 0.712979 0.314284 0.53514
3804 1 0.717962 0.323597 0.539214
3733 1 0.726017 0.308039 0.5339
3891 1 0.738611 0.303212 0.529348
3603 1 0.741401 0.315089 0.536236
3526 1 0.730554 0.321268 0.538581
3604 1 0.77179 0.30588 0.531907
3823 1 0.754424 0.310978 0.532675
3961 1 0.769122 0.319132 0.535917
3880 1 0.752951 0.323079 0.538516
3973 1 0.795537 0.311043 0.531057
3897 1 0.78343 0.314016 0.53607
3752 1 0.790913 0.322512 0.540654
3487 1 0.809036 0.311552 0.531817
3755 1 0.823177 0.311803 0.532813
3967 1 0.806132 0.31722 0.537925
3898 1 0.820532 0.321982 0.538329
3625 1 0.848633 0.302461 0.52905
3761 1 0.8348 0.307147 0.528919
3484 1 0.83648 0.31686 0.535834
3765 1 0.851246 0.312928 0.533637
3825 1 0.863651 0.305748 0.531259
3905 1 0.860973 0.320645 0.536997
3899 1 0.874642 0.313815 0.533902
3843 1 0.887484 0.306058 0.530086
3769 1 0.887861 0.320931 0.534747
3707 1 0.90055 0.315747 0.532972
3779 1 0.913822 0.313646 0.531149
981 1 0.941184 0.320906 0.531114
3632 1 0.928979 0.323718 0.533393
3848 1 0.969065 0.318592 0.530062
849 1 0.954727 0.321742 0.532492
994 1 0.998548 0.323074 0.531688
3810 1 0.739681 0.327816 0.541736
3811 1 0.725995 0.331652 0.542753
3828 1 0.765276 0.331457 0.541899
3593 1 0.777845 0.328578 0.541806
3684 1 0.835166 0.328585 0.541276
3763 1 0.848756 0.326876 0.54002
3969 1 0.845679 0.339852 0.542382
4112 1 0.8602 0.33554 0.540566
3829 1 0.87197 0.329482 0.53863
3697 1 0.887674 0.338235 0.53938
3698 1 0.899561 0.329394 0.536812
3748 1 0.875916 0.342838 0.542264
3833 1 0.899047 0.347844 0.541933
3628 1 0.914429 0.328818 0.53542
3767 1 0.908423 0.338651 0.540447
3835 1 0.928378 0.337589 0.536699
911 1 0.943542 0.334071 0.534498
3917 1 0.934973 0.346974 0.542547
3775 1 0.947077 0.343426 0.540153
914 1 0.959166 0.334628 0.535314
3915 1 0.972748 0.332873 0.534786
3847 1 0.964356 0.345967 0.540025
926 1 0.983123 0.325096 0.531187
3914 1 0.979103 0.344365 0.537945
993 1 0.990486 0.334019 0.534315
781 1 0.998615 0.345586 0.539712
3696 1 0.91526 0.350169 0.542046
3699 1 0.973484 0.358278 0.540897
844 1 0.986111 0.357497 0.541912
905 1 0.506571 0.257552 0.544949
3574 1 0.522047 0.270199 0.546487
836 1 0.506896 0.269304 0.55001
3573 1 0.543847 0.269994 0.545983
3713 1 0.561179 0.269152 0.544748
3715 1 0.516 0.283506 0.550619
1119 1 0.512618 0.294113 0.554279
828 1 0.529797 0.27905 0.549833
3712 1 0.526982 0.29077 0.55501
3578 1 0.539522 0.295918 0.556738
3581 1 0.543652 0.283217 0.552304
3443 1 0.554188 0.29102 0.551916
3167 1 0.557626 0.278297 0.549369
3507 1 0.568707 0.287733 0.551453
3509 1 0.574561 0.277801 0.546738
3449 1 0.587399 0.288848 0.547495
3589 1 0.580276 0.295099 0.552072
3516 1 0.616986 0.294834 0.544133
3514 1 0.600474 0.288937 0.545463
3374 1 0.564797 0.302253 0.555567
3379 1 0.594547 0.301269 0.548852
3444 1 0.577576 0.306458 0.55518
3871 1 0.589187 0.313435 0.552745
3445 1 0.578516 0.321595 0.556951
3446 1 0.606649 0.304955 0.548251
3799 1 0.601608 0.318421 0.552626
3807 1 0.62074 0.311445 0.548816
3656 1 0.61593 0.322095 0.553677
3512 1 0.629118 0.303869 0.544857
3672 1 0.641119 0.311915 0.544976
3651 1 0.630777 0.32152 0.548962
3666 1 0.655144 0.319071 0.544693
3739 1 0.669564 0.32138 0.543159
3658 1 0.591835 0.3271 0.556509
3731 1 0.624318 0.335869 0.553926
3664 1 0.605647 0.331702 0.555716
3594 1 0.647204 0.328632 0.548888
3662 1 0.636561 0.334641 0.552347
3735 1 0.63891 0.348738 0.556706
3732 1 0.652365 0.339724 0.552762
3595 1 0.662997 0.333048 0.549598
3803 1 0.664048 0.345487 0.554131
4013 1 0.6774 0.345439 0.550616
3881 1 0.677679 0.333062 0.547585
3946 1 0.690202 0.343243 0.549949
4016 1 0.693916 0.332363 0.54579
3873 1 0.709754 0.331218 0.544305
4021 1 0.718988 0.340499 0.54602
4019 1 0.704718 0.343288 0.548903
4020 1 0.7394 0.339537 0.545705
3945 1 0.751258 0.334799 0.543956
3741 1 0.762917 0.344382 0.548662
3963 1 0.750162 0.349738 0.549599
3819 1 0.79268 0.335445 0.546904
3689 1 0.776754 0.341582 0.546704
4042 1 0.804866 0.33024 0.543401
4041 1 0.820128 0.333834 0.544066
3971 1 0.809742 0.343454 0.547329
3690 1 0.830983 0.341101 0.546367
3725 1 0.669471 0.358469 0.555014
3808 1 0.652758 0.353626 0.556075
3592 1 0.685428 0.355852 0.552744
4017 1 0.696378 0.366071 0.556342
3943 1 0.681372 0.367095 0.555693
3801 1 0.700004 0.355074 0.551504
4088 1 0.711315 0.368955 0.554517
3668 1 0.71791 0.354779 0.549619
3878 1 0.733421 0.350582 0.549624
4086 1 0.727469 0.364208 0.551981
3875 1 0.742474 0.362372 0.552288
3830 1 0.774875 0.356607 0.551321
3822 1 0.75702 0.359353 0.552433
3680 1 0.771056 0.370336 0.553979
3600 1 0.755571 0.373264 0.555277
4039 1 0.792152 0.350384 0.550218
3675 1 0.786776 0.362399 0.553987
4169 1 0.802362 0.371226 0.555254
3671 1 0.804679 0.356494 0.551349
4037 1 0.821376 0.35409 0.549821
3958 1 0.818343 0.367101 0.554237
3887 1 0.834897 0.355675 0.550557
3902 1 0.832737 0.367807 0.55602
3972 1 0.848471 0.364993 0.550742
4111 1 0.849025 0.352553 0.5475
3976 1 0.861818 0.350171 0.545392
3760 1 0.863185 0.362425 0.550427
3824 1 0.876773 0.362385 0.547987
3837 1 0.875678 0.373283 0.554138
3695 1 0.886534 0.353666 0.543639
3906 1 0.891897 0.366291 0.549632
3700 1 0.903495 0.357697 0.546486
3920 1 0.924114 0.357998 0.546953
3901 1 0.911017 0.367177 0.549652
3706 1 0.941768 0.358399 0.546189
3909 1 0.944522 0.372763 0.550156
3839 1 0.927736 0.368628 0.5509
3703 1 0.95411 0.353991 0.54384
3916 1 0.9545 0.367382 0.547064
1053 1 0.969275 0.369425 0.546223
708 1 0.981712 0.373154 0.546475
1072 1 0.99418 0.369073 0.545238
3950 1 0.723787 0.376674 0.556416
3876 1 0.741598 0.376752 0.55519
3601 1 0.769902 0.387152 0.5552
4030 1 0.751795 0.388579 0.556021
4038 1 0.783418 0.376966 0.556342
3892 1 0.826033 0.381656 0.556717
4110 1 0.845685 0.378176 0.556837
4185 1 0.861027 0.375788 0.555247
3834 1 0.885361 0.381035 0.555651
3826 1 0.899827 0.376773 0.554856
3842 1 0.913387 0.384284 0.554983
4120 1 0.920467 0.397138 0.556955
3772 1 0.944993 0.386541 0.552503
3841 1 0.928352 0.383063 0.553592
3904 1 0.93444 0.394581 0.555709
1123 1 0.947836 0.397578 0.556377
3768 1 0.961158 0.380524 0.549463
1051 1 0.961388 0.392751 0.553345
1059 1 0.97503 0.386016 0.551904
984 1 0.993471 0.382905 0.549048
1127 1 0.985704 0.395783 0.552204
3985 1 0.971614 0.403895 0.554605
3974 1 0.958194 0.406338 0.556911
3846 1 0.96284 0.419184 0.55578
3983 1 0.975379 0.418617 0.557044
3773 1 0.985105 0.407853 0.555685
4192 1 0.993356 0.422201 0.556775
1058 1 0.978909 0.429446 0.556736
3854 1 0.523787 0.302704 0.558171
3645 1 0.508622 0.303737 0.558989
3643 1 0.507968 0.317643 0.561608
3785 1 0.521202 0.315268 0.561381
3717 1 0.535216 0.30799 0.560255
3716 1 0.533213 0.323505 0.561839
3517 1 0.547827 0.313764 0.560465
3587 1 0.55261 0.300681 0.557531
3519 1 0.564799 0.317724 0.559501
3718 1 0.508246 0.331498 0.563687
3720 1 0.521822 0.328773 0.562862
3647 1 0.518276 0.344103 0.565611
3786 1 0.502938 0.346844 0.566177
3513 1 0.538134 0.335846 0.563675
3646 1 0.548816 0.343497 0.562615
3714 1 0.531998 0.34642 0.565699
3511 1 0.549778 0.327961 0.561936
3304 1 0.563607 0.33415 0.560434
3521 1 0.563661 0.348355 0.564258
3580 1 0.594123 0.344081 0.557709
3582 1 0.579236 0.337724 0.559429
3792 1 0.608616 0.343384 0.55751
3602 1 0.625386 0.349944 0.557778
3857 1 0.508421 0.36099 0.568442
3788 1 0.518847 0.371983 0.568637
3783 1 0.524916 0.35879 0.567454
3661 1 0.541236 0.357551 0.566669
3787 1 0.531619 0.371649 0.568168
3722 1 0.553696 0.359337 0.565727
3782 1 0.555406 0.37224 0.567526
3727 1 0.569765 0.363542 0.564608
3660 1 0.580929 0.353266 0.562929
3867 1 0.598609 0.354788 0.562233
3583 1 0.592667 0.365539 0.564016
3585 1 0.581482 0.371955 0.565344
3663 1 0.607263 0.370769 0.564448
3800 1 0.614572 0.357051 0.560158
3937 1 0.618917 0.368219 0.564046
3874 1 0.629089 0.362029 0.560332
3802 1 0.643791 0.36344 0.559906
3939 1 0.634206 0.374404 0.562318
3872 1 0.659394 0.367762 0.559271
4014 1 0.671379 0.373651 0.558987
3996 1 0.505167 0.379147 0.567784
3922 1 0.514613 0.393088 0.570548
3650 1 0.528277 0.385476 0.570124
3652 1 0.539431 0.397348 0.571229
3861 1 0.541335 0.381194 0.570549
3858 1 0.553413 0.386526 0.569861
3993 1 0.565873 0.394315 0.569923
3730 1 0.567376 0.378675 0.565961
3518 1 0.578141 0.39001 0.567541
3942 1 0.59276 0.379993 0.565333
3869 1 0.593928 0.3954 0.568978
3726 1 0.607046 0.389737 0.566344
3870 1 0.619971 0.383139 0.563829
3793 1 0.622819 0.398752 0.567604
3724 1 0.635111 0.389418 0.563891
4090 1 0.646835 0.377638 0.562455
3862 1 0.649603 0.390459 0.564942
3868 1 0.661206 0.380654 0.563322
4011 1 0.665787 0.392898 0.562429
3797 1 0.678187 0.385234 0.562341
4093 1 0.690204 0.378808 0.559061
3728 1 0.68833 0.394423 0.562758
4010 1 0.701954 0.393579 0.560405
4083 1 0.705712 0.380774 0.557385
4084 1 0.715978 0.388081 0.558543
4081 1 0.726727 0.397202 0.559708
3944 1 0.733965 0.388285 0.557707
3740 1 0.767717 0.398466 0.55955
4106 1 0.796916 0.385915 0.557231
4032 1 0.783172 0.39393 0.558766
4107 1 0.796447 0.399541 0.560268
4031 1 0.811806 0.378849 0.557148
3895 1 0.809419 0.393251 0.559244
3979 1 0.824245 0.396796 0.558697
4098 1 0.840346 0.391808 0.557982
3759 1 0.87212 0.385434 0.557986
4183 1 0.857853 0.389076 0.558403
3903 1 0.881536 0.393063 0.558901
4054 1 0.894695 0.391413 0.558644
3770 1 0.906533 0.397141 0.558491
3852 1 0.552066 0.40334 0.570836
3648 1 0.56951 0.409486 0.57066
3929 1 0.580382 0.417816 0.569085
3859 1 0.584128 0.402372 0.568277
3795 1 0.594028 0.411283 0.570143
3721 1 0.606676 0.404077 0.568114
3719 1 0.610205 0.417651 0.567923
4005 1 0.627102 0.414405 0.567464
3729 1 0.639953 0.403243 0.565717
3864 1 0.642289 0.421594 0.566353
3794 1 0.653745 0.401565 0.56532
3863 1 0.651786 0.413866 0.564704
4077 1 0.665093 0.409164 0.565774
3938 1 0.664448 0.423408 0.564796
3798 1 0.677769 0.403996 0.56285
4085 1 0.678192 0.418666 0.56581
4158 1 0.696309 0.407499 0.562725
4159 1 0.690639 0.423978 0.563624
4104 1 0.713117 0.403246 0.561876
4015 1 0.721065 0.413258 0.564083
3812 1 0.706233 0.41639 0.564288
3951 1 0.740973 0.401057 0.559209
3805 1 0.733115 0.410828 0.562298
4223 1 0.731422 0.42157 0.566354
3670 1 0.746972 0.415706 0.562611
3947 1 0.754201 0.402212 0.559836
3893 1 0.762572 0.414032 0.56144
3968 1 0.775523 0.408118 0.559207
3821 1 0.776768 0.423847 0.563238
3959 1 0.789921 0.412926 0.562013
4317 1 0.802983 0.417738 0.559562
4035 1 0.809865 0.407368 0.559698
4036 1 0.823552 0.409513 0.560965
4034 1 0.815256 0.421157 0.562367
4047 1 0.83805 0.405196 0.559835
4114 1 0.832896 0.421434 0.56227
3977 1 0.845442 0.417557 0.562453
3894 1 0.86999 0.400771 0.559979
4040 1 0.852927 0.403379 0.561718
3836 1 0.858394 0.415297 0.562119
3970 1 0.87248 0.415438 0.562665
4119 1 0.882821 0.406332 0.560688
4113 1 0.897839 0.408517 0.562018
4179 1 0.889141 0.419923 0.561521
4246 1 0.91531 0.40965 0.559989
4109 1 0.905967 0.420872 0.561181
3911 1 0.927842 0.409701 0.559477
3838 1 0.942339 0.410166 0.558015
1124 1 0.948533 0.42323 0.558348
3980 1 0.935658 0.424065 0.559415
3998 1 0.567637 0.42641 0.570309
3723 1 0.567309 0.440203 0.571096
3934 1 0.553126 0.445033 0.570941
3941 1 0.595032 0.425562 0.570615
3865 1 0.595696 0.442238 0.570933
3791 1 0.581789 0.436124 0.570469
3933 1 0.60923 0.436328 0.570307
3654 1 0.618932 0.427298 0.567948
4153 1 0.62137 0.441331 0.568833
4082 1 0.633063 0.433704 0.567155
4226 1 0.644366 0.442227 0.566894
4368 1 0.652073 0.431069 0.566602
3960 1 0.666843 0.438343 0.56453
4151 1 0.657563 0.448688 0.566336
4154 1 0.680274 0.433587 0.565467
4028 1 0.692813 0.440893 0.565892
4087 1 0.71769 0.426058 0.566572
3890 1 0.703246 0.43127 0.565638
4101 1 0.711522 0.441415 0.566631
3877 1 0.727498 0.434352 0.568336
3809 1 0.736589 0.444981 0.565638
3818 1 0.742418 0.430153 0.565885
3964 1 0.752883 0.426737 0.562797
3754 1 0.766057 0.433575 0.5634
3817 1 0.754116 0.444256 0.563642
3952 1 0.768116 0.448137 0.56296
3966 1 0.790589 0.427059 0.563545
3816 1 0.78115 0.439323 0.563252
3815 1 0.794117 0.442616 0.563516
3965 1 0.806255 0.432734 0.562783
3962 1 0.820111 0.443943 0.565127
3820 1 0.806453 0.445615 0.564513
3978 1 0.824753 0.430919 0.56358
4173 1 0.834926 0.441452 0.564633
4118 1 0.844666 0.430953 0.563248
4045 1 0.851909 0.444511 0.564903
3832 1 0.8594 0.429264 0.565422
4182 1 0.866065 0.441299 0.565301
4184 1 0.876103 0.429345 0.564577
4048 1 0.886961 0.437973 0.563173
4249 1 0.902155 0.434457 0.560715
3908 1 0.914326 0.438487 0.561175
4187 1 0.919546 0.426157 0.560078
4051 1 0.933018 0.437794 0.560106
4265 1 0.948568 0.437705 0.558366
3982 1 0.942255 0.448161 0.561648
3919 1 0.9613 0.431374 0.557788
1195 1 0.973076 0.441452 0.55894
4052 1 0.959085 0.446986 0.560058
1132 1 0.992323 0.437269 0.559733
4002 1 0.612043 0.470465 0.569745
4078 1 0.61481 0.453365 0.5684
4359 1 0.629531 0.450105 0.56848
4080 1 0.641822 0.457975 0.567324
3940 1 0.627523 0.463697 0.569137
4012 1 0.639377 0.470738 0.567959
4157 1 0.662925 0.461772 0.565269
4008 1 0.650535 0.465431 0.565948
4155 1 0.675233 0.452289 0.565945
4022 1 0.678661 0.467864 0.565135
3889 1 0.690137 0.456121 0.564919
3954 1 0.692528 0.470101 0.565193
4018 1 0.704245 0.452697 0.567524
4298 1 0.704132 0.465478 0.565503
4168 1 0.719873 0.468249 0.566926
4163 1 0.722414 0.452138 0.567036
4167 1 0.735077 0.460754 0.56636
3957 1 0.74825 0.456155 0.564065
4161 1 0.747987 0.469506 0.566659
4024 1 0.734018 0.474966 0.566502
4240 1 0.762356 0.459947 0.564616
3953 1 0.763122 0.473009 0.566795
3955 1 0.776524 0.464185 0.56341
3813 1 0.785734 0.453727 0.563957
4172 1 0.790991 0.469941 0.564884
4102 1 0.800381 0.459589 0.565153
3956 1 0.816295 0.456207 0.565493
4245 1 0.812091 0.470193 0.567127
4243 1 0.829833 0.457575 0.566793
4177 1 0.831468 0.470562 0.566768
4100 1 0.842286 0.455904 0.565788
4175 1 0.846059 0.474513 0.564675
4050 1 0.853409 0.462915 0.565406
4180 1 0.865938 0.456575 0.565526
4255 1 0.874793 0.470518 0.565541
4044 1 0.87755 0.452587 0.564175
4046 1 0.893986 0.451749 0.563404
4190 1 0.886189 0.464559 0.56493
4115 1 0.901098 0.464903 0.562806
4117 1 0.90901 0.453541 0.561168
4116 1 0.921462 0.450761 0.56088
4125 1 0.916978 0.467226 0.560144
4320 1 0.932723 0.459311 0.562055
4257 1 0.943894 0.468462 0.561735
4191 1 0.929614 0.472355 0.561143
4189 1 0.97133 0.4548 0.562115
4057 1 0.954571 0.458519 0.561335
4194 1 0.967409 0.467589 0.561968
1125 1 0.985647 0.450202 0.559969
1200 1 0.984829 0.463345 0.563094
4056 1 0.999114 0.460428 0.560581
4059 1 0.99398 0.472762 0.565007
4070 1 0.561216 0.495057 0.57127
4217 1 0.577244 0.496666 0.570392
4006 1 0.600767 0.479184 0.571218
4075 1 0.623094 0.493181 0.567264
3936 1 0.608595 0.49022 0.5697
4145 1 0.623129 0.478249 0.569039
4293 1 0.636935 0.487855 0.566526
4294 1 0.651819 0.49845 0.566386
4439 1 0.664327 0.475399 0.564562
4152 1 0.651171 0.481019 0.566724
3949 1 0.663547 0.490023 0.566847
3883 1 0.677541 0.497992 0.566771
4227 1 0.679318 0.481373 0.565421
4160 1 0.69075 0.488015 0.565148
4094 1 0.702504 0.496415 0.56722
3886 1 0.704094 0.480186 0.565624
4033 1 0.718559 0.484626 0.567363
4450 1 0.748687 0.49861 0.567086
4239 1 0.735577 0.488781 0.56719
4096 1 0.749697 0.483983 0.566588
4371 1 0.764151 0.487048 0.566094
4170 1 0.775853 0.494414 0.56555
4241 1 0.776835 0.477499 0.565236
4105 1 0.788514 0.485335 0.566218
4027 1 0.804179 0.479667 0.566868
4162 1 0.80155 0.493216 0.565507
4166 1 0.820113 0.485719 0.565682
4178 1 0.829849 0.499212 0.562469
4314 1 0.835183 0.483786 0.565317
4043 1 0.843258 0.493051 0.56408
4256 1 0.863626 0.475314 0.564452
4313 1 0.853276 0.484437 0.563538
4309 1 0.865846 0.492349 0.563181
4252 1 0.875137 0.483609 0.564701
4322 1 0.896942 0.494009 0.563173
4181 1 0.883673 0.492735 0.564555
4103 1 0.890441 0.479554 0.563578
4262 1 0.919403 0.486424 0.56155
4250 1 0.907862 0.479873 0.561568
4321 1 0.910224 0.495597 0.564786
4335 1 0.939594 0.481487 0.563301
4266 1 0.932002 0.49219 0.562161
4188 1 0.950479 0.494241 0.562474
4261 1 0.95378 0.478858 0.561813
4263 1 0.967862 0.485029 0.562639
3987 1 0.993851 0.499513 0.5658
3975 1 0.979271 0.495421 0.564003
3986 1 0.980181 0.476493 0.564077
1337 1 0.990415 0.486256 0.564458
3931 1 0.500814 0.392824 0.571536
3995 1 0.510042 0.406936 0.573161
3853 1 0.502146 0.421752 0.573676
1046 1 0.525576 0.403458 0.571921
3924 1 0.53948 0.411137 0.573931
1255 1 0.526803 0.418929 0.572248
3927 1 0.555461 0.416737 0.572149
4064 1 0.511717 0.428294 0.57485
4001 1 0.509604 0.442614 0.574675
1258 1 0.523878 0.437184 0.573594
1328 1 0.540228 0.425931 0.572531
3997 1 0.538171 0.440739 0.572814
3928 1 0.5532 0.432276 0.572415
1260 1 0.508983 0.459004 0.574301
1321 1 0.514954 0.473173 0.57292
3932 1 0.524994 0.452226 0.574165
1324 1 0.503464 0.474877 0.57507
1399 1 0.526256 0.466505 0.573194
4073 1 0.542996 0.474116 0.573456
3926 1 0.539637 0.454718 0.572085
4007 1 0.554555 0.46037 0.572862
3796 1 0.567495 0.455981 0.573616
3790 1 0.564199 0.469231 0.573744
4066 1 0.591417 0.465959 0.573191
3866 1 0.599757 0.45648 0.571679
3789 1 0.583578 0.451242 0.571458
3649 1 0.577957 0.467851 0.572704
1457 1 0.500644 0.491949 0.574442
4065 1 0.515665 0.487282 0.573687
4069 1 0.543749 0.4912 0.572842
3935 1 0.528953 0.481479 0.572338
1461 1 0.525776 0.498016 0.573661
4213 1 0.570898 0.48369 0.572684
4003 1 0.556058 0.481796 0.572444
4009 1 0.58546 0.481321 0.57186
4141 1 0.593356 0.494166 0.572117
5557 1 0.706474 0.998444 0.413098
2827 1 0.73158 0.989588 0.413361
5414 1 0.744737 0.994295 0.412754
5280 1 0.758569 0.996197 0.413678
5558 1 0.774543 0.997713 0.412404
5261 1 0.508556 0.915285 0.425975
5334 1 0.522118 0.915937 0.426319
5335 1 0.516132 0.900792 0.42815
2658 1 0.500543 0.901634 0.427496
5330 1 0.540387 0.916638 0.4266
5196 1 0.557947 0.911941 0.427611
5190 1 0.572472 0.915816 0.426123
5258 1 0.550754 0.924348 0.426196
5583 1 0.87894 0.923983 0.42795
5573 1 0.894703 0.921124 0.428422
5327 1 0.51388 0.92652 0.423835
5397 1 0.507906 0.941421 0.422335
5189 1 0.523546 0.938976 0.42325
5041 1 0.531369 0.926918 0.424472
5480 1 0.542716 0.935736 0.423755
2588 1 0.532189 0.947453 0.420588
2654 1 0.565135 0.929144 0.426522
2589 1 0.555163 0.939615 0.422435
5337 1 0.572382 0.940408 0.42406
5479 1 0.592226 0.927041 0.425667
5399 1 0.579754 0.930256 0.426623
5252 1 0.588015 0.944318 0.423373
5474 1 0.604212 0.932646 0.426786
5322 1 0.600814 0.947753 0.425567
5477 1 0.617588 0.938296 0.427663
5541 1 0.61903 0.925278 0.427307
5403 1 0.632098 0.939636 0.425878
5347 1 0.645565 0.932581 0.427623
5410 1 0.643302 0.948433 0.424419
5202 1 0.659726 0.930473 0.428418
5486 1 0.657896 0.943271 0.425449
5204 1 0.673786 0.940043 0.425116
5006 1 0.686589 0.936871 0.425166
5214 1 0.685149 0.949871 0.42276
5206 1 0.700419 0.944956 0.423298
5154 1 0.716136 0.943194 0.425439
5075 1 0.701676 0.933263 0.427879
5281 1 0.727548 0.931934 0.42842
5210 1 0.732232 0.945053 0.425649
5421 1 0.753294 0.94548 0.426923
5484 1 0.768723 0.944979 0.425616
5565 1 0.782893 0.943428 0.425975
5357 1 0.796384 0.944151 0.423608
5290 1 0.809369 0.940655 0.426442
5567 1 0.819057 0.93133 0.427351
5355 1 0.827611 0.943972 0.423831
5510 1 0.843675 0.937671 0.424963
5505 1 0.841375 0.949766 0.423087
5493 1 0.833485 0.930894 0.427148
5502 1 0.856331 0.941855 0.424437
5572 1 0.873213 0.936418 0.42479
5431 1 0.881703 0.94909 0.424018
2849 1 0.899624 0.945633 0.424187
5584 1 0.887621 0.936722 0.424716
5520 1 0.914732 0.940053 0.425986
5587 1 0.901074 0.93116 0.424406
5588 1 0.930237 0.938387 0.426825
2729 1 0.518065 0.953602 0.420762
5181 1 0.520937 0.967388 0.419073
2720 1 0.505237 0.96257 0.420148
5473 1 0.547059 0.950028 0.421494
5323 1 0.535794 0.963378 0.418963
2659 1 0.553047 0.9653 0.421109
2728 1 0.56462 0.956001 0.422865
2880 1 0.569582 0.969686 0.421714
5332 1 0.578173 0.952666 0.42255
5395 1 0.590001 0.959147 0.425189
2811 1 0.582511 0.972491 0.423947
5338 1 0.602236 0.964162 0.425174
5543 1 0.614328 0.953953 0.423388
5469 1 0.622644 0.967584 0.423813
5406 1 0.627722 0.954384 0.424473
5402 1 0.63989 0.962451 0.421659
5398 1 0.651023 0.971508 0.419709
5207 1 0.655165 0.959045 0.421526
5208 1 0.667988 0.956713 0.422055
5212 1 0.678255 0.964977 0.420827
5209 1 0.694239 0.962855 0.420937
5275 1 0.708905 0.954447 0.420174
5279 1 0.707741 0.968253 0.417596
5350 1 0.721497 0.966336 0.417504
5285 1 0.723312 0.954512 0.421033
5089 1 0.743984 0.952978 0.424412
5351 1 0.73561 0.962378 0.420485
5215 1 0.749902 0.966166 0.420444
5296 1 0.760308 0.956442 0.422921
5277 1 0.765035 0.97125 0.418479
5487 1 0.775281 0.957303 0.423163
5417 1 0.789751 0.956045 0.421046
5425 1 0.782179 0.971369 0.417492
5430 1 0.796767 0.9682 0.419963
5566 1 0.816238 0.95397 0.422833
5499 1 0.803209 0.956868 0.423392
2837 1 0.814272 0.967469 0.41909
5368 1 0.827813 0.974318 0.418492
5564 1 0.827174 0.959029 0.41997
5492 1 0.8408 0.96377 0.420846
2843 1 0.869135 0.950107 0.422961
2835 1 0.854856 0.972648 0.419295
5427 1 0.855491 0.956917 0.422025
2834 1 0.869854 0.962777 0.421198
2869 1 0.899889 0.958118 0.422189
5504 1 0.885115 0.960556 0.421334
5508 1 0.893274 0.971968 0.41982
5578 1 0.877051 0.974781 0.418415
5590 1 0.913321 0.954402 0.422904
2864 1 0.922415 0.965921 0.422748
2917 1 0.90691 0.970429 0.420378
3002 1 0.940212 0.950644 0.427129
5574 1 0.926371 0.953613 0.425801
2937 1 0.936573 0.964375 0.424617
2998 1 0.947616 0.971853 0.424455
213 1 0.951688 0.959242 0.427276
72 1 0.960936 0.96705 0.426462
3079 1 0.974734 0.965146 0.427378
78 1 0.986468 0.969513 0.428535
5532 1 0.51082 0.978749 0.419027
5463 1 0.521203 0.989399 0.419955
2800 1 0.512532 0.999859 0.419561
2722 1 0.500301 0.988824 0.417876
2730 1 0.530117 0.977688 0.417946
5324 1 0.545962 0.978261 0.417467
5533 1 0.538021 0.992016 0.418199
5534 1 0.551965 0.995409 0.418053
5546 1 0.560098 0.981594 0.418983
5254 1 0.56666 0.996024 0.420424
5394 1 0.574191 0.984109 0.423227
5391 1 0.597869 0.978939 0.42362
5466 1 0.589286 0.990518 0.424306
5551 1 0.613751 0.977532 0.424655
5407 1 0.62232 0.987058 0.423493
5396 1 0.606102 0.989019 0.42399
5409 1 0.633809 0.976404 0.422818
5545 1 0.637162 0.992058 0.42138
5485 1 0.664104 0.975423 0.421117
5278 1 0.651105 0.984928 0.419502
5470 1 0.665839 0.987631 0.419633
5273 1 0.651253 0.999031 0.420283
5282 1 0.694084 0.977627 0.417942
5346 1 0.676543 0.998237 0.418106
5553 1 0.679213 0.980073 0.418877
5268 1 0.691817 0.99301 0.416274
5348 1 0.707529 0.983437 0.415621
5354 1 0.720176 0.979649 0.416521
5284 1 0.737909 0.976993 0.416634
5552 1 0.754632 0.982132 0.416828
5416 1 0.772666 0.983551 0.415334
5560 1 0.791383 0.986437 0.414763
5561 1 0.805532 0.977705 0.417506
5420 1 0.817045 0.986256 0.416164
5419 1 0.802823 0.997245 0.415014
5570 1 0.841397 0.97549 0.417869
2832 1 0.833457 0.988362 0.416735
2912 1 0.848227 0.987447 0.417465
2853 1 0.864056 0.981273 0.418305
5426 1 0.861231 0.996738 0.41651
5370 1 0.890088 0.986566 0.417724
5589 1 0.876992 0.987565 0.416467
5522 1 0.922009 0.979238 0.419085
5579 1 0.903442 0.983264 0.41995
2983 1 0.916783 0.993449 0.418271
2845 1 0.903016 0.998801 0.41723
2936 1 0.933276 0.977924 0.4224
2996 1 0.93269 0.9924 0.42062
3075 1 0.946019 0.988161 0.42152
3274 1 0.968011 0.991513 0.424574
3001 1 0.958804 0.981779 0.423797
148 1 0.974128 0.978253 0.425894
5592 1 0.987474 0.983349 0.427248
82 1 0.992239 0.995246 0.42709
4988 1 0.51027 0.847385 0.441567
4985 1 0.560333 0.848884 0.441124
4981 1 0.503628 0.873588 0.43428
5193 1 0.520684 0.858771 0.436926
4989 1 0.507602 0.859666 0.437933
5125 1 0.529052 0.85039 0.441107
5200 1 0.543045 0.852403 0.439801
5057 1 0.536179 0.863991 0.437103
5339 1 0.546697 0.872325 0.434713
5197 1 0.553164 0.861587 0.437664
5128 1 0.569942 0.860242 0.438233
5183 1 0.564191 0.872621 0.435878
5129 1 0.578651 0.850169 0.440855
5203 1 0.590513 0.8586 0.439679
5199 1 0.595847 0.87449 0.435193
5134 1 0.581549 0.869333 0.436748
5329 1 0.602929 0.861358 0.44036
5336 1 0.616444 0.8665 0.439825
5003 1 0.643094 0.870579 0.442013
5062 1 0.629059 0.874939 0.438372
5124 1 0.518531 0.875369 0.433624
2380 1 0.510435 0.887843 0.430846
5331 1 0.524215 0.890807 0.43131
5192 1 0.533636 0.877494 0.434082
5052 1 0.540994 0.891014 0.432039
5263 1 0.556541 0.884446 0.43196
5262 1 0.572832 0.886278 0.431863
5264 1 0.560222 0.897394 0.430413
5054 1 0.587059 0.884135 0.43429
5408 1 0.582699 0.897548 0.431229
5195 1 0.609333 0.875751 0.436775
5205 1 0.601987 0.888681 0.433205
5401 1 0.615986 0.888043 0.435162
5471 1 0.622801 0.898961 0.432087
5404 1 0.630314 0.889275 0.436731
5272 1 0.643039 0.882325 0.436745
5140 1 0.63925 0.899796 0.4345
5063 1 0.671331 0.876106 0.441476
5142 1 0.655298 0.877558 0.440445
5065 1 0.652349 0.893053 0.436073
5211 1 0.666489 0.889097 0.438228
5146 1 0.684402 0.879458 0.441777
5144 1 0.679737 0.892021 0.438058
5010 1 0.693047 0.89087 0.438167
5221 1 0.700468 0.876095 0.441235
5017 1 0.714374 0.880252 0.442747
5149 1 0.706367 0.891147 0.440138
5023 1 0.718729 0.892741 0.439575
5164 1 0.729601 0.88469 0.441553
4951 1 0.736235 0.897304 0.439553
5295 1 0.80887 0.898736 0.441848
5362 1 0.834005 0.897733 0.439944
5429 1 0.861749 0.894809 0.440041
5437 1 0.874688 0.888153 0.442694
5373 1 0.892214 0.893826 0.441525
5384 1 0.906876 0.894644 0.44138
5253 1 0.546736 0.904548 0.42879
5120 1 0.532283 0.90281 0.428769
5326 1 0.57216 0.903822 0.42941
5537 1 0.587844 0.914406 0.429101
5266 1 0.595704 0.901655 0.431876
5269 1 0.604047 0.91317 0.430122
5265 1 0.620028 0.911546 0.429805
5274 1 0.609527 0.900613 0.431987
5267 1 0.635092 0.910761 0.430997
5476 1 0.646731 0.920369 0.430723
5276 1 0.652349 0.907109 0.432768
5344 1 0.659926 0.917266 0.431178
5340 1 0.666025 0.902756 0.433659
5143 1 0.682417 0.902882 0.435191
5074 1 0.687451 0.92342 0.430265
5079 1 0.675511 0.914106 0.432787
5077 1 0.693778 0.909254 0.43246
5287 1 0.701641 0.920516 0.430821
5019 1 0.70491 0.902446 0.435539
5078 1 0.71472 0.912113 0.432232
5358 1 0.725983 0.905778 0.436695
5353 1 0.741444 0.923453 0.431323
5288 1 0.7291 0.915301 0.43201
5490 1 0.741197 0.908463 0.435375
5283 1 0.751732 0.903364 0.439588
5360 1 0.755244 0.917886 0.435713
5418 1 0.770394 0.91907 0.434849
5219 1 0.765812 0.907064 0.439244
4954 1 0.781448 0.903977 0.441114
5016 1 0.797033 0.920782 0.433362
5424 1 0.784397 0.915852 0.435419
5286 1 0.795068 0.909117 0.437371
5434 1 0.822768 0.904701 0.437976
5498 1 0.810249 0.912227 0.436015
5289 1 0.823088 0.917616 0.431347
5571 1 0.835188 0.909751 0.434851
5449 1 0.837889 0.921009 0.43151
5439 1 0.84825 0.903126 0.436551
5371 1 0.870666 0.904011 0.438022
5569 1 0.855582 0.913714 0.433572
5585 1 0.871838 0.912871 0.432867
2932 1 0.883739 0.902862 0.439435
5577 1 0.886644 0.914756 0.432688
5433 1 0.897751 0.905905 0.436198
2863 1 0.909475 0.917999 0.431695
2867 1 0.912995 0.907538 0.437179
5521 1 0.923856 0.913813 0.435097
5448 1 0.926597 0.900204 0.439302
5453 1 0.937076 0.912179 0.436808
5441 1 0.943725 0.900861 0.440914
5586 1 0.933021 0.924789 0.431331
5444 1 0.959684 0.900526 0.44155
5595 1 0.952073 0.912312 0.43851
5512 1 0.963458 0.923112 0.435743
5514 1 0.968455 0.910348 0.439524
3010 1 0.993087 0.919035 0.440494
2870 1 0.978363 0.91875 0.437056
5527 1 0.975876 0.901159 0.441368
3003 1 0.989476 0.90559 0.442539
5270 1 0.63178 0.927169 0.429346
5217 1 0.673052 0.927508 0.428852
5135 1 0.715316 0.925924 0.43012
5497 1 0.741612 0.938314 0.429551
5352 1 0.754913 0.932074 0.431545
5363 1 0.769554 0.933258 0.430125
5157 1 0.782656 0.930503 0.430649
5088 1 0.795906 0.933273 0.428876
5224 1 0.809041 0.925122 0.431565
5507 1 0.84808 0.927544 0.428879
5506 1 0.86494 0.926336 0.428977
5516 1 0.918671 0.926247 0.428911
5519 1 0.944072 0.938612 0.428956
5452 1 0.956077 0.944809 0.429543
5445 1 0.950106 0.926554 0.431902
5593 1 0.965237 0.936431 0.43263
5517 1 0.978903 0.934975 0.437759
2868 1 0.99192 0.932495 0.437083
5594 1 0.978687 0.946709 0.434349
146 1 0.997301 0.945447 0.435457
141 1 0.97036 0.952324 0.429167
4 1 0.98814 0.954567 0.431729
2735 1 0.997605 0.977755 0.429913
4927 1 0.574379 0.79934 0.456919
5061 1 0.557834 0.79883 0.45624
5051 1 0.509276 0.810772 0.45459
4998 1 0.521308 0.816481 0.453596
2309 1 0.52444 0.801722 0.456847
4710 1 0.533333 0.813471 0.452822
5070 1 0.543025 0.804988 0.456187
4930 1 0.554187 0.813224 0.451487
4997 1 0.568337 0.824311 0.449244
4845 1 0.569201 0.810561 0.452252
4995 1 0.584187 0.806155 0.45486
4773 1 0.599709 0.801483 0.45693
5130 1 0.58471 0.821762 0.450403
5056 1 0.596801 0.815752 0.452349
5131 1 0.607982 0.822291 0.452689
5060 1 0.62068 0.819547 0.455309
5007 1 0.634614 0.819686 0.454539
5004 1 0.646703 0.815723 0.456201
4931 1 0.666652 0.816966 0.456452
4940 1 0.682691 0.820697 0.454701
5080 1 0.697502 0.824024 0.452627
5228 1 0.720041 0.820861 0.456206
5067 1 0.5231 0.839394 0.444343
4990 1 0.511958 0.825851 0.450141
5047 1 0.507393 0.835929 0.444438
4983 1 0.536633 0.838956 0.443153
4992 1 0.528469 0.827745 0.447791
5068 1 0.543662 0.825725 0.449839
4984 1 0.550012 0.840883 0.444413
4986 1 0.557092 0.825189 0.44626
5117 1 0.565337 0.839333 0.444937
5119 1 0.580896 0.835289 0.44615
5058 1 0.591772 0.844894 0.445068
5405 1 0.596168 0.831841 0.447867
5132 1 0.60992 0.836279 0.447637
5198 1 0.605265 0.847575 0.443681
5133 1 0.625055 0.832291 0.45055
4922 1 0.633354 0.845121 0.445759
5153 1 0.641507 0.833621 0.450706
5005 1 0.64753 0.844574 0.446829
5001 1 0.654505 0.827325 0.451713
4858 1 0.672643 0.828201 0.451394
5137 1 0.662353 0.840835 0.447296
5147 1 0.675806 0.844857 0.448144
4864 1 0.690659 0.834199 0.450225
4859 1 0.710732 0.829449 0.452591
4873 1 0.703846 0.841718 0.448832
5012 1 0.719503 0.838261 0.449364
5018 1 0.728255 0.830005 0.452368
4949 1 0.742929 0.834383 0.453572
5155 1 0.735546 0.841926 0.448242
4872 1 0.747671 0.847929 0.449743
5090 1 0.755272 0.838252 0.452846
5222 1 0.772128 0.843856 0.453385
5225 1 0.786677 0.846221 0.456752
5343 1 0.618173 0.850417 0.44379
5071 1 0.632465 0.860513 0.44369
5138 1 0.646489 0.857029 0.444395
5271 1 0.660606 0.866483 0.443391
4861 1 0.660048 0.853309 0.446329
5136 1 0.673356 0.859462 0.446014
5081 1 0.690023 0.850598 0.448062
5066 1 0.684449 0.864605 0.445098
5076 1 0.699837 0.863678 0.444272
5009 1 0.711662 0.852405 0.446147
4948 1 0.712414 0.866849 0.44427
5223 1 0.725813 0.853048 0.447184
5014 1 0.726586 0.871216 0.444984
5218 1 0.741607 0.87231 0.44489
4874 1 0.738843 0.85826 0.446829
5031 1 0.751007 0.862352 0.447847
5292 1 0.765448 0.866675 0.448297
5086 1 0.761453 0.852157 0.45031
5305 1 0.775806 0.872449 0.446819
5159 1 0.779072 0.860737 0.451148
5294 1 0.79503 0.85941 0.454291
5293 1 0.790185 0.872864 0.447838
5167 1 0.807887 0.87105 0.450342
5216 1 0.810801 0.858167 0.455976
5356 1 0.825463 0.873109 0.452599
5220 1 0.841218 0.86913 0.454882
5361 1 0.868923 0.865762 0.455183
5359 1 0.856459 0.871928 0.45423
5291 1 0.880879 0.862832 0.455493
5443 1 0.889889 0.871964 0.450722
5375 1 0.919717 0.868823 0.452903
5435 1 0.905257 0.869893 0.452347
5500 1 0.90742 0.859977 0.457038
5503 1 0.937266 0.872 0.453028
5381 1 0.933037 0.859128 0.457072
5364 1 0.946748 0.861191 0.455091
5446 1 0.951851 0.874407 0.452775
2665 1 0.969204 0.872946 0.452588
5320 1 0.960235 0.86162 0.454861
5454 1 0.984994 0.871536 0.452827
2594 1 0.998442 0.867913 0.452331
4880 1 0.74825 0.889469 0.443446
5213 1 0.764946 0.894895 0.442938
5227 1 0.753692 0.87638 0.447467
5233 1 0.763755 0.88203 0.44338
5148 1 0.795904 0.895345 0.443442
5162 1 0.78038 0.887043 0.444604
5093 1 0.79862 0.88259 0.445223
5158 1 0.822884 0.89199 0.444158
5091 1 0.814409 0.883802 0.446278
5234 1 0.846591 0.878421 0.448606
5231 1 0.834457 0.885117 0.447157
5432 1 0.847563 0.890063 0.443929
5367 1 0.859405 0.88271 0.446514
5511 1 0.873806 0.875276 0.450129
5428 1 0.884609 0.884454 0.446731
5440 1 0.896783 0.881935 0.4464
5515 1 0.919435 0.893765 0.443618
5380 1 0.912166 0.882347 0.447618
2521 1 0.933924 0.890407 0.443738
5436 1 0.927253 0.879001 0.446779
2593 1 0.944001 0.880663 0.446494
5376 1 0.951451 0.8901 0.444382
5386 1 0.960255 0.879164 0.447938
5529 1 0.966993 0.88987 0.444274
5518 1 0.974836 0.882285 0.447552
5530 1 0.993507 0.880688 0.449193
5598 1 0.983654 0.890377 0.445089
5596 1 0.997663 0.8912 0.444223
4772 1 0.505316 0.770985 0.470918
4978 1 0.533296 0.774631 0.469282
4643 1 0.574181 0.771071 0.469112
4642 1 0.589016 0.77214 0.470571
4781 1 0.621847 0.771001 0.470511
5073 1 0.654482 0.768331 0.470472
4862 1 0.668503 0.765979 0.471201
4935 1 0.687918 0.774357 0.46946
5191 1 0.517456 0.793862 0.46231
2091 1 0.518099 0.781114 0.466825
5049 1 0.503428 0.784439 0.466296
5046 1 0.503122 0.799696 0.460113
4915 1 0.53229 0.785659 0.464059
4847 1 0.54781 0.78015 0.467297
4987 1 0.534269 0.797236 0.460555
5072 1 0.547675 0.790122 0.462343
4921 1 0.564154 0.778508 0.466755
4701 1 0.564182 0.790818 0.461471
4852 1 0.576238 0.7852 0.462853
5141 1 0.59084 0.792782 0.459328
4854 1 0.587715 0.781685 0.464298
4706 1 0.602862 0.783412 0.465489
4929 1 0.611026 0.792322 0.460691
4718 1 0.616902 0.78418 0.466051
5064 1 0.624354 0.796996 0.460316
4856 1 0.632423 0.777034 0.4694
4508 1 0.634395 0.787533 0.463148
5002 1 0.646308 0.77571 0.46565
5069 1 0.651857 0.78723 0.464594
4860 1 0.662771 0.777061 0.46661
4782 1 0.667854 0.792377 0.462196
4786 1 0.677644 0.77913 0.466133
4941 1 0.690341 0.784567 0.464544
4938 1 0.679378 0.794063 0.460752
4926 1 0.69354 0.796848 0.460514
4876 1 0.703011 0.775264 0.469414
4853 1 0.705708 0.786859 0.463129
5150 1 0.718427 0.795177 0.464719
5151 1 0.714661 0.780847 0.469675
5024 1 0.727903 0.78715 0.469334
4944 1 0.740025 0.793165 0.467937
4881 1 0.754219 0.79708 0.469345
4946 1 0.766729 0.795781 0.470239
4934 1 0.612809 0.808012 0.457766
5201 1 0.628036 0.808644 0.45723
4720 1 0.640712 0.801754 0.459934
5145 1 0.657327 0.800542 0.460667
4857 1 0.676638 0.806052 0.457839
4780 1 0.691234 0.809136 0.457904
5139 1 0.705516 0.814252 0.457172
5085 1 0.720599 0.807874 0.461395
5152 1 0.706212 0.801154 0.460826
5156 1 0.734231 0.81792 0.459519
5083 1 0.733527 0.802234 0.464007
4943 1 0.743367 0.809601 0.463842
5226 1 0.749353 0.820785 0.457618
5101 1 0.756087 0.808332 0.465067
5304 1 0.763162 0.817857 0.461669
5166 1 0.769732 0.810573 0.467746
5103 1 0.785789 0.81118 0.467635
5301 1 0.778469 0.82338 0.464504
5092 1 0.797929 0.815097 0.470564
5236 1 0.815367 0.818667 0.469484
5174 1 0.828355 0.823262 0.469879
5308 1 0.844219 0.818626 0.470177
5310 1 0.862234 0.816813 0.471142
5160 1 0.764114 0.82989 0.458134
5237 1 0.791113 0.830931 0.463775
5021 1 0.77683 0.835728 0.459458
5238 1 0.804951 0.827431 0.469188
5235 1 0.80493 0.839934 0.463905
5161 1 0.818766 0.836552 0.466163
5087 1 0.830971 0.841227 0.464418
5302 1 0.840226 0.830377 0.466503
5241 1 0.849877 0.841779 0.464568
5239 1 0.856631 0.831614 0.468625
5382 1 0.869266 0.845952 0.464754
5314 1 0.871386 0.831675 0.470239
5307 1 0.886802 0.841148 0.465336
5438 1 0.89922 0.849717 0.461384
5312 1 0.900733 0.83737 0.467817
5385 1 0.913864 0.837702 0.469319
5369 1 0.912981 0.847846 0.463533
5501 1 0.92584 0.845155 0.463109
5513 1 0.930088 0.837002 0.468005
5366 1 0.94047 0.84945 0.460656
5383 1 0.944085 0.837685 0.466229
2381 1 0.93829 0.827116 0.471095
2455 1 0.957247 0.840236 0.466351
2522 1 0.972207 0.837958 0.466065
5242 1 0.962441 0.829552 0.470254
5455 1 0.953858 0.849177 0.460475
2597 1 0.996191 0.849748 0.462157
5378 1 0.987598 0.838654 0.465785
2595 1 0.979366 0.828094 0.469644
5460 1 0.979112 0.847941 0.462002
5100 1 0.81841 0.850949 0.460972
2244 1 0.802047 0.851008 0.459633
5229 1 0.827856 0.860336 0.459142
5230 1 0.839313 0.851763 0.461549
5297 1 0.851174 0.858438 0.458531
5096 1 0.864129 0.855061 0.460134
5387 1 0.879832 0.852174 0.460155
5365 1 0.893848 0.860299 0.457842
5299 1 0.919696 0.856209 0.458413
5388 1 0.966397 0.851944 0.461651
5374 1 0.976388 0.860892 0.457994
5458 1 0.99067 0.862337 0.459908
4837 1 0.514766 0.741991 0.485203
4785 1 0.595692 0.741458 0.483382
4924 1 0.581039 0.741996 0.48377
4578 1 0.614053 0.742546 0.481077
4511 1 0.606451 0.733938 0.485397
4354 1 0.636219 0.744733 0.483403
4512 1 0.653999 0.747462 0.480389
4576 1 0.665335 0.742394 0.483973
4788 1 0.683573 0.74173 0.484603
4654 1 0.701493 0.745857 0.485313
4933 1 0.714337 0.744574 0.485158
4787 1 0.728914 0.746846 0.485028
4916 1 0.521195 0.770302 0.472816
4843 1 0.504682 0.752689 0.482652
4842 1 0.514193 0.762861 0.478284
5122 1 0.5209 0.751876 0.481341
4994 1 0.531888 0.760933 0.47857
4993 1 0.540521 0.766397 0.473725
5000 1 0.542774 0.751401 0.481573
4646 1 0.556143 0.77051 0.471524
4999 1 0.559585 0.750849 0.482216
4779 1 0.552453 0.758303 0.47743
4558 1 0.566258 0.763715 0.474943
4645 1 0.574232 0.753551 0.481154
4562 1 0.588447 0.752453 0.4787
4639 1 0.580489 0.762961 0.474397
4564 1 0.596262 0.759594 0.474222
4712 1 0.602937 0.773622 0.47191
4568 1 0.624416 0.752302 0.479838
4778 1 0.603488 0.75027 0.478842
4932 1 0.61082 0.763776 0.474965
4789 1 0.641823 0.76505 0.472068
4716 1 0.627008 0.761777 0.474858
4580 1 0.637716 0.754567 0.476159
4713 1 0.651227 0.758443 0.475197
4783 1 0.662485 0.754019 0.476384
4784 1 0.677454 0.752039 0.478457
4925 1 0.692305 0.754031 0.480148
4937 1 0.684114 0.765396 0.473838
5082 1 0.699124 0.766663 0.474748
4865 1 0.707992 0.759121 0.480996
5084 1 0.715941 0.768886 0.475255
5011 1 0.721545 0.755737 0.481976
4810 1 0.743353 0.768846 0.478922
4947 1 0.730553 0.766082 0.478697
5015 1 0.738598 0.754189 0.48461
5026 1 0.752036 0.75753 0.482922
5163 1 0.766791 0.761503 0.482064
5311 1 0.757451 0.771341 0.478129
5032 1 0.770145 0.772998 0.477993
4955 1 0.780624 0.768213 0.481655
5033 1 0.793401 0.763497 0.484876
5170 1 0.807622 0.766076 0.4846
5020 1 0.820646 0.773523 0.48528
5171 1 0.728986 0.776847 0.474362
4869 1 0.743378 0.783079 0.47332
5022 1 0.759593 0.784183 0.473215
5027 1 0.773843 0.787474 0.474482
5094 1 0.783068 0.798474 0.472836
5036 1 0.782868 0.781007 0.477838
4969 1 0.79444 0.775866 0.479891
5178 1 0.793062 0.791988 0.476901
5098 1 0.80802 0.791579 0.478141
4888 1 0.807232 0.779861 0.481739
2103 1 0.819806 0.787516 0.482091
5104 1 0.822537 0.799972 0.477037
4958 1 0.833991 0.792584 0.480703
4894 1 0.848533 0.784346 0.483824
5034 1 0.849841 0.798267 0.479264
2243 1 0.832889 0.780502 0.48411
5247 1 0.863623 0.793515 0.481743
5030 1 0.861523 0.781487 0.485411
2312 1 0.892422 0.794454 0.485636
5165 1 0.876718 0.79895 0.480439
2242 1 0.876864 0.787487 0.483135
5029 1 0.79944 0.801856 0.47399
2171 1 0.811405 0.806417 0.47395
5169 1 0.828316 0.810901 0.473227
5168 1 0.839179 0.805995 0.476754
5240 1 0.850349 0.81073 0.474701
5309 1 0.864681 0.805825 0.47856
5243 1 0.875461 0.816234 0.475455
5108 1 0.887268 0.804603 0.479294
5306 1 0.892535 0.818325 0.476491
5172 1 0.899473 0.806431 0.48178
5316 1 0.921654 0.808306 0.48214
5442 1 0.911775 0.814854 0.477331
5319 1 0.938212 0.806361 0.483673
5246 1 0.928161 0.818576 0.476825
2452 1 0.945573 0.813812 0.477633
5177 1 0.953394 0.80823 0.482717
5317 1 0.971044 0.808431 0.481127
5377 1 0.960276 0.817051 0.476019
5173 1 0.972055 0.824194 0.475468
2591 1 0.950878 0.8243 0.471837
2382 1 0.998543 0.814874 0.477686
2456 1 0.99235 0.823978 0.472147
5176 1 0.982846 0.815049 0.47661
2183 1 0.988178 0.802267 0.481743
2174 1 0.884966 0.830493 0.472505
5300 1 0.92279 0.828382 0.472235
5298 1 0.903254 0.826762 0.473745
4766 1 0.515939 0.723717 0.4981
4913 1 0.548702 0.715909 0.496893
4923 1 0.528836 0.720336 0.495903
4711 1 0.57325 0.718827 0.496927
4770 1 0.563949 0.722321 0.493933
4570 1 0.584012 0.72443 0.493262
4777 1 0.599214 0.718548 0.495096
4849 1 0.585938 0.713439 0.498884
4920 1 0.615096 0.716444 0.496246
4775 1 0.608093 0.721437 0.489627
4586 1 0.632097 0.719837 0.492475
4515 1 0.64415 0.715536 0.499361
4702 1 0.628299 0.712158 0.499212
4715 1 0.659792 0.721082 0.497007
4652 1 0.672746 0.721666 0.497
4721 1 0.687172 0.723622 0.496659
4656 1 0.697641 0.715067 0.499744
4918 1 0.507082 0.731861 0.493486
4774 1 0.522198 0.731538 0.489463
4769 1 0.53131 0.742777 0.486139
4708 1 0.546163 0.739503 0.485805
5059 1 0.537715 0.72773 0.491224
4991 1 0.561661 0.736737 0.487513
4855 1 0.550593 0.727146 0.492242
4776 1 0.577695 0.732769 0.488748
4566 1 0.594818 0.728163 0.489388
4493 1 0.624798 0.738781 0.485997
4494 1 0.621824 0.727163 0.489137
4573 1 0.648186 0.726479 0.4935
4640 1 0.636528 0.732553 0.489216
4637 1 0.649157 0.73724 0.486129
4644 1 0.659783 0.732474 0.49162
4717 1 0.676345 0.732465 0.490063
4939 1 0.693809 0.736396 0.489059
5013 1 0.703172 0.725503 0.494349
4871 1 0.718272 0.726025 0.49456
5008 1 0.707891 0.733827 0.489263
4802 1 0.724004 0.734608 0.490261
4804 1 0.733745 0.728691 0.496086
4870 1 0.739039 0.737248 0.490251
4795 1 0.749788 0.734744 0.496212
5028 1 0.750029 0.745509 0.48894
5099 1 0.760802 0.738563 0.493224
4875 1 0.772212 0.731818 0.496676
4962 1 0.763539 0.747024 0.487134
4868 1 0.778055 0.743093 0.491755
4796 1 0.788283 0.735125 0.493917
4963 1 0.792793 0.749917 0.487776
4803 1 0.799846 0.734352 0.498904
4734 1 0.800473 0.746055 0.493857
4953 1 0.818058 0.74774 0.493651
5097 1 0.814899 0.735633 0.499607
4740 1 0.830984 0.744927 0.498955
5232 1 0.777765 0.757199 0.486794
4964 1 0.806576 0.755538 0.489233
4956 1 0.820449 0.761604 0.489105
4812 1 0.843843 0.751706 0.498673
4738 1 0.83303 0.754332 0.492215
2172 1 0.83405 0.766437 0.488249
4960 1 0.846464 0.761016 0.492052
5038 1 0.846587 0.771635 0.486856
2315 1 0.855519 0.755571 0.497708
5110 1 0.85875 0.769123 0.491142
5037 1 0.869546 0.765399 0.495804
4813 1 0.88348 0.772871 0.495403
5040 1 0.892435 0.762651 0.49941
5102 1 0.896791 0.774564 0.494588
2318 1 0.907055 0.760516 0.498102
2176 1 0.921511 0.765042 0.499756
4896 1 0.912796 0.774763 0.495361
5244 1 0.994172 0.773059 0.49624
2249 1 0.978548 0.774189 0.498056
5109 1 0.873248 0.778934 0.490288
5303 1 0.886028 0.782895 0.489261
5379 1 0.909082 0.797102 0.485782
5105 1 0.91607 0.788896 0.48965
2173 1 0.901163 0.786401 0.491329
2245 1 0.92478 0.783275 0.493425
2251 1 0.931515 0.77726 0.498362
5106 1 0.946643 0.796517 0.488961
5175 1 0.941016 0.784046 0.493304
2311 1 0.933175 0.79489 0.489108
2102 1 0.948063 0.775782 0.498941
2323 1 0.964105 0.776898 0.495719
5318 1 0.962529 0.79573 0.487086
2316 1 0.955388 0.785428 0.492486
2384 1 0.974758 0.784855 0.493544
2314 1 0.988956 0.786216 0.492304
5372 1 0.97751 0.795163 0.486258
2383 1 0.995754 0.792966 0.486795
5389 1 0.922164 0.800058 0.487812
1889 1 0.520778 0.699851 0.513296
4698 1 0.546412 0.698319 0.511941
4631 1 0.576907 0.699825 0.511099
4928 1 0.589955 0.69436 0.512264
4771 1 0.619033 0.698268 0.510354
4624 1 0.600927 0.699083 0.507641
4851 1 0.651532 0.697909 0.513798
4936 1 0.701664 0.698271 0.511283
4655 1 0.717917 0.697024 0.513498
4727 1 0.732929 0.698563 0.511622
4838 1 0.506778 0.717793 0.503991
4416 1 0.513043 0.709729 0.509724
4694 1 0.523728 0.713827 0.503398
4553 1 0.530444 0.702298 0.508242
4693 1 0.548838 0.705175 0.505031
4768 1 0.538848 0.709965 0.501023
4695 1 0.56185 0.703167 0.507794
4628 1 0.574283 0.708443 0.50407
1750 1 0.562523 0.710597 0.501007
4696 1 0.589034 0.707472 0.506581
4846 1 0.600693 0.711126 0.502183
4700 1 0.613653 0.708465 0.503485
4703 1 0.629158 0.705591 0.507159
4574 1 0.642746 0.705062 0.50667
4428 1 0.66385 0.702046 0.510073
4709 1 0.656662 0.70949 0.503174
4632 1 0.669439 0.711083 0.504548
4581 1 0.681193 0.701671 0.509368
4942 1 0.694692 0.705837 0.506325
4866 1 0.682174 0.711892 0.502862
4797 1 0.708926 0.709755 0.505463
4793 1 0.721793 0.707547 0.507344
4792 1 0.711837 0.718979 0.500008
4879 1 0.74812 0.701311 0.510726
4724 1 0.736803 0.710166 0.508375
4867 1 0.742528 0.722847 0.501534
4945 1 0.728237 0.71871 0.502003
4641 1 0.763897 0.703578 0.510264
4653 1 0.751523 0.71195 0.504886
4790 1 0.767347 0.715975 0.504844
4884 1 0.775669 0.702932 0.512555
4670 1 0.780726 0.713086 0.508247
4791 1 0.792631 0.712647 0.511204
4952 1 0.795934 0.722991 0.502099
4817 1 0.808331 0.713998 0.510147
5095 1 0.822655 0.719671 0.509338
5025 1 0.841269 0.723574 0.510635
4744 1 0.837192 0.712171 0.513357
4742 1 0.864481 0.719703 0.51392
4794 1 0.760915 0.726653 0.500587
4728 1 0.780419 0.726086 0.501842
4950 1 0.809145 0.727009 0.505429
4882 1 0.827295 0.7303 0.504899
4878 1 0.840251 0.734622 0.503837
4735 1 0.851787 0.730251 0.508718
4821 1 0.864911 0.727129 0.507403
4968 1 0.865412 0.74208 0.504466
5035 1 0.852984 0.742921 0.503449
4886 1 0.877032 0.731196 0.509043
4893 1 0.8891 0.738654 0.508545
1961 1 0.879513 0.745102 0.503717
4809 1 0.890077 0.728388 0.51316
2101 1 0.905944 0.743585 0.508292
2107 1 0.902852 0.732138 0.513432
2035 1 0.920198 0.744258 0.508431
4682 1 0.93517 0.746012 0.509575
5039 1 0.930469 0.733886 0.512891
2031 1 0.943882 0.735643 0.513083
4898 1 0.965671 0.743728 0.511717
2179 1 0.95105 0.747283 0.511052
2043 1 0.981609 0.740861 0.51228
1904 1 0.996004 0.740484 0.512844
4890 1 0.867057 0.752286 0.500177
4885 1 0.894696 0.750582 0.504231
5179 1 0.879013 0.759677 0.501846
4895 1 0.912239 0.753554 0.504095
2034 1 0.929007 0.755572 0.504829
2104 1 0.944748 0.754718 0.505414
2032 1 0.938143 0.765872 0.501304
2247 1 0.961482 0.753372 0.505919
4900 1 0.955834 0.764464 0.501988
2106 1 0.970202 0.763253 0.501265
2116 1 0.977179 0.752105 0.50667
2241 1 0.992138 0.750837 0.506517
5315 1 0.986513 0.763705 0.50167
4344 1 0.53837 0.671164 0.528146
4489 1 0.567341 0.673508 0.524953
4350 1 0.607584 0.670537 0.528288
4559 1 0.619761 0.673615 0.523123
4560 1 0.645869 0.67306 0.52451
4341 1 0.634186 0.66697 0.524403
4571 1 0.661792 0.667769 0.52637
4355 1 0.685263 0.674345 0.525303
4707 1 0.699551 0.669001 0.527357
4427 1 0.715554 0.664309 0.527883
4722 1 0.725255 0.670976 0.523888
4650 1 0.775985 0.673833 0.52431
4965 1 0.819598 0.672085 0.527376
4877 1 0.804902 0.669558 0.527703
4818 1 0.835647 0.674161 0.528129
4486 1 0.514651 0.691508 0.519052
4411 1 0.510019 0.682712 0.524494
1957 1 0.505486 0.699626 0.515535
4487 1 0.525923 0.681946 0.522658
4626 1 0.53282 0.693424 0.516077
1741 1 0.539919 0.683312 0.521054
4422 1 0.562709 0.695797 0.515497
4485 1 0.553056 0.676763 0.523964
4555 1 0.550264 0.68828 0.516659
4419 1 0.563241 0.68148 0.51837
4418 1 0.593707 0.676459 0.525771
4347 1 0.577776 0.689259 0.51784
4420 1 0.579912 0.678705 0.522509
1890 1 0.592661 0.685923 0.520193
4557 1 0.603717 0.691108 0.514371
4634 1 0.6184 0.688488 0.517282
4699 1 0.607253 0.682722 0.521815
4627 1 0.634746 0.695388 0.514732
4638 1 0.629759 0.68231 0.520149
4488 1 0.645878 0.686739 0.519187
4356 1 0.660581 0.691729 0.517142
4501 1 0.656415 0.679199 0.521851
4705 1 0.67232 0.678551 0.522219
4572 1 0.674236 0.693747 0.514823
4513 1 0.691875 0.690263 0.514306
4629 1 0.682439 0.683264 0.518363
4446 1 0.696445 0.681354 0.520525
4577 1 0.710827 0.676441 0.522351
4719 1 0.706878 0.68935 0.516575
4863 1 0.723433 0.684099 0.517182
4569 1 0.749739 0.678974 0.522211
4649 1 0.736145 0.675276 0.52187
4651 1 0.74023 0.687279 0.515432
4589 1 0.770768 0.695306 0.517495
4647 1 0.75404 0.693497 0.516162
4660 1 0.765139 0.683237 0.521452
4657 1 0.789022 0.6983 0.515526
4723 1 0.785293 0.683982 0.518774
4662 1 0.794378 0.67592 0.523165
4800 1 0.802077 0.688876 0.518439
4883 1 0.809935 0.680181 0.523063
4593 1 0.816471 0.695563 0.518154
4743 1 0.825212 0.685287 0.522865
4819 1 0.842998 0.685252 0.52249
4726 1 0.829913 0.695398 0.517099
4815 1 0.850625 0.67552 0.527157
4672 1 0.858512 0.685614 0.523005
4824 1 0.872308 0.686627 0.526895
4889 1 0.889388 0.695234 0.526907
4814 1 0.902004 0.699732 0.527396
4798 1 0.820622 0.708861 0.514864
4808 1 0.803558 0.70308 0.515075
4806 1 0.844952 0.701571 0.517241
4887 1 0.874318 0.700438 0.524538
4745 1 0.852494 0.713614 0.514495
4739 1 0.857769 0.702716 0.522315
4678 1 0.87136 0.710518 0.518071
5107 1 0.885253 0.709764 0.522523
4967 1 0.895364 0.720773 0.518466
4892 1 0.880643 0.720935 0.516188
4816 1 0.900278 0.711969 0.523345
1899 1 0.91545 0.711552 0.524669
1962 1 0.923475 0.702814 0.527113
4747 1 0.909866 0.720275 0.518182
4828 1 0.925435 0.723826 0.518938
4825 1 0.931437 0.714306 0.522909
1901 1 0.946657 0.713531 0.523941
4753 1 0.943053 0.724342 0.518809
1968 1 0.937136 0.703572 0.527877
4758 1 0.963158 0.712031 0.526996
2108 1 0.958782 0.723404 0.521018
2040 1 0.973282 0.722286 0.52277
4757 1 0.952963 0.702987 0.528301
1965 1 0.979634 0.712027 0.527977
1624 1 0.995461 0.710945 0.528406
2041 1 0.98958 0.721164 0.523613
4959 1 0.915258 0.732308 0.514362
2036 1 0.956773 0.733985 0.51588
1972 1 0.973515 0.732609 0.517844
1970 1 0.986536 0.728601 0.518489
4456 1 0.778388 0.616346 0.542517
4666 1 0.79511 0.622077 0.542687
1745 1 0.518789 0.649249 0.53979
1744 1 0.548353 0.647299 0.539468
4561 1 0.562969 0.639083 0.542111
1537 1 0.585287 0.642171 0.542607
4275 1 0.597606 0.638721 0.540182
4349 1 0.575516 0.648695 0.537452
4633 1 0.611801 0.641951 0.537131
4424 1 0.623671 0.634875 0.541771
4504 1 0.62328 0.649142 0.534748
4284 1 0.636006 0.643124 0.539429
4358 1 0.650377 0.643008 0.540536
4505 1 0.664631 0.648817 0.537566
4503 1 0.662819 0.637146 0.542071
4364 1 0.675078 0.640224 0.540861
4579 1 0.687739 0.643429 0.53845
4449 1 0.696135 0.631459 0.542613
4507 1 0.702092 0.642798 0.539352
4516 1 0.715214 0.645858 0.539153
4661 1 0.739003 0.631466 0.542408
4510 1 0.732434 0.644177 0.538426
4587 1 0.748467 0.641494 0.537451
4299 1 0.760043 0.638172 0.535104
4380 1 0.752035 0.628102 0.5413
4520 1 0.767723 0.62953 0.540863
4731 1 0.777208 0.637703 0.536197
4729 1 0.791948 0.641423 0.535201
4811 1 0.785151 0.62948 0.541138
4518 1 0.801657 0.633581 0.539881
4596 1 0.80737 0.648684 0.537257
4673 1 0.816709 0.638221 0.540237
4664 1 0.822723 0.625397 0.542277
4801 1 0.831242 0.637846 0.539208
4807 1 0.844267 0.639963 0.539155
4668 1 0.840518 0.626728 0.541355
4542 1 0.858156 0.64357 0.539286
4469 1 0.873188 0.645022 0.538631
4609 1 0.866779 0.632563 0.542182
4538 1 0.901823 0.646297 0.542737
4752 1 0.914123 0.648337 0.540477
1747 1 0.506305 0.651044 0.540508
1470 1 0.520283 0.673384 0.529668
4135 1 0.514208 0.660855 0.535993
1742 1 0.50015 0.664262 0.534469
1809 1 0.532315 0.653568 0.541156
4551 1 0.529075 0.661505 0.533728
1610 1 0.542062 0.657838 0.53496
4272 1 0.554507 0.665045 0.530868
4346 1 0.560734 0.653385 0.538456
1540 1 0.567615 0.662687 0.533056
4483 1 0.579692 0.67048 0.530173
4429 1 0.596542 0.652108 0.536783
4492 1 0.596231 0.664877 0.530811
4274 1 0.58331 0.659059 0.534794
4563 1 0.622613 0.663701 0.529221
4421 1 0.608396 0.656499 0.53312
4497 1 0.646937 0.664317 0.529591
4277 1 0.63561 0.654304 0.531761
4432 1 0.650212 0.652178 0.534735
4430 1 0.661408 0.657827 0.532421
4423 1 0.676489 0.665454 0.530398
4376 1 0.67775 0.653095 0.535186
4500 1 0.691867 0.656083 0.533855
4440 1 0.706779 0.656576 0.532779
4585 1 0.721061 0.655326 0.535817
4506 1 0.729491 0.662019 0.529271
4648 1 0.74289 0.665641 0.528865
4591 1 0.740615 0.652338 0.533392
4592 1 0.759948 0.66797 0.528615
4658 1 0.752887 0.654768 0.532061
4714 1 0.766726 0.650172 0.533283
4725 1 0.774589 0.661181 0.52929
4799 1 0.789542 0.665282 0.53076
4732 1 0.783894 0.65379 0.535136
4676 1 0.823862 0.650397 0.537643
4749 1 0.801383 0.657954 0.533229
4737 1 0.815062 0.661428 0.533334
4736 1 0.830085 0.662248 0.530978
4730 1 0.838164 0.652454 0.537574
4601 1 0.843988 0.662873 0.53046
4829 1 0.855164 0.665583 0.532196
4674 1 0.851239 0.651952 0.535834
4605 1 0.86621 0.656415 0.535469
4957 1 0.867747 0.673695 0.529124
4611 1 0.884825 0.654749 0.53788
4970 1 0.877588 0.664155 0.532862
4746 1 0.891232 0.666606 0.533197
4681 1 0.90315 0.660781 0.537633
4830 1 0.919218 0.661959 0.536572
4820 1 0.905672 0.674333 0.533296
4751 1 0.9319 0.666676 0.536037
4684 1 0.945968 0.657087 0.539907
4539 1 0.931965 0.652166 0.54074
4891 1 0.943542 0.669405 0.537649
4685 1 0.960768 0.664702 0.537539
4823 1 0.963928 0.654617 0.542524
1971 1 0.999024 0.669247 0.539115
1964 1 0.984871 0.673841 0.537673
4827 1 0.976068 0.664672 0.540411
1896 1 0.976705 0.650061 0.54192
1900 1 0.989318 0.657439 0.539922
4556 1 0.503916 0.675138 0.531415
4679 1 0.883378 0.677796 0.528743
4966 1 0.896605 0.682874 0.529874
4680 1 0.922451 0.677051 0.533588
4826 1 0.911767 0.689595 0.529936
4961 1 0.928996 0.69095 0.529728
4748 1 0.936261 0.678578 0.532593
4897 1 0.942388 0.690462 0.529989
1967 1 0.952383 0.677271 0.533947
4756 1 0.957963 0.689564 0.532092
4613 1 0.968504 0.677774 0.535763
2033 1 0.97087 0.698243 0.531858
1906 1 0.981407 0.685614 0.53487
1902 1 0.993742 0.684213 0.535031
2126 1 0.99737 0.695126 0.532864
4899 1 0.982561 0.70097 0.532
4523 1 0.773905 0.568729 0.55646
4667 1 0.791573 0.567941 0.555638
4465 1 0.805732 0.57121 0.555109
4532 1 0.820068 0.573125 0.554027
4546 1 0.846447 0.566162 0.555237
4395 1 0.870138 0.556396 0.556235
4467 1 0.895532 0.567928 0.556302
4464 1 0.915043 0.572176 0.555699
4478 1 0.931629 0.572113 0.555989
4343 1 0.561475 0.598271 0.556642
4280 1 0.574305 0.594956 0.556882
4436 1 0.67735 0.596457 0.557032
4444 1 0.689043 0.586076 0.556255
4307 1 0.700828 0.591455 0.555068
4312 1 0.713325 0.594918 0.553599
4378 1 0.727407 0.589925 0.554415
4381 1 0.741561 0.59574 0.551404
4521 1 0.754836 0.582604 0.556446
4458 1 0.770678 0.592068 0.550258
4528 1 0.767108 0.580214 0.553625
4595 1 0.755016 0.593663 0.551203
4388 1 0.781326 0.578612 0.553416
4455 1 0.785934 0.592615 0.549459
4451 1 0.795705 0.584713 0.551875
4457 1 0.800897 0.595867 0.547967
4527 1 0.808354 0.584812 0.550881
4525 1 0.814983 0.59638 0.549002
4524 1 0.824798 0.584923 0.550908
4403 1 0.835542 0.575704 0.555174
4604 1 0.840598 0.587953 0.552989
4598 1 0.852783 0.592481 0.550176
4326 1 0.852448 0.581565 0.554632
4473 1 0.867486 0.591656 0.552225
4475 1 0.867696 0.580582 0.555895
4399 1 0.880538 0.591818 0.55334
4332 1 0.885945 0.581697 0.556837
1614 1 0.897639 0.598886 0.55519
4472 1 0.901453 0.582756 0.555373
4186 1 0.926727 0.585395 0.556398
4329 1 0.941914 0.599368 0.556358
4334 1 0.940347 0.585303 0.556855
4139 1 0.518938 0.611748 0.556226
1676 1 0.504112 0.620425 0.553563
4417 1 0.536702 0.614013 0.554734
4357 1 0.555797 0.614043 0.552811
4208 1 0.567529 0.620833 0.547025
4276 1 0.572785 0.607528 0.552454
4498 1 0.58073 0.621493 0.548522
4288 1 0.58776 0.612026 0.55272
4495 1 0.597714 0.618448 0.549147
1609 1 0.610592 0.611379 0.552243
4567 1 0.618284 0.620123 0.546849
4304 1 0.600566 0.60434 0.55592
4519 1 0.624774 0.613593 0.551774
4351 1 0.636195 0.608953 0.553674
4565 1 0.641417 0.621228 0.550309
4231 1 0.649448 0.610293 0.554967
4302 1 0.669705 0.608336 0.555288
4575 1 0.660956 0.618186 0.552445
4584 1 0.678951 0.616655 0.550484
4441 1 0.690796 0.616259 0.547776
4301 1 0.688173 0.601904 0.553244
4514 1 0.70295 0.605001 0.551748
4232 1 0.703087 0.621324 0.54776
4300 1 0.7129 0.611732 0.548785
4234 1 0.722605 0.62168 0.54922
4305 1 0.724857 0.606176 0.551321
4447 1 0.735074 0.623086 0.546901
4308 1 0.737741 0.609374 0.548933
4373 1 0.749774 0.616991 0.546093
4522 1 0.752418 0.605873 0.549166
4659 1 0.765456 0.603575 0.546882
4582 1 0.762441 0.616171 0.543989
4588 1 0.780206 0.604617 0.546499
4526 1 0.792352 0.608578 0.545145
4382 1 0.805197 0.608007 0.547033
4453 1 0.809295 0.621851 0.543386
4452 1 0.817565 0.611175 0.544705
4733 1 0.826497 0.600949 0.549175
4594 1 0.831886 0.61586 0.545844
4665 1 0.839797 0.600863 0.547738
4607 1 0.846969 0.614714 0.545393
4540 1 0.857635 0.603922 0.547975
4536 1 0.871582 0.605051 0.548913
4608 1 0.864706 0.618781 0.546894
4600 1 0.886734 0.604022 0.551469
4606 1 0.882598 0.616613 0.548982
4474 1 0.897022 0.61499 0.551139
4602 1 0.910122 0.622224 0.549632
4545 1 0.911713 0.607385 0.553192
4333 1 0.925529 0.615099 0.553951
4470 1 0.926724 0.601275 0.555403
1683 1 0.942773 0.613382 0.553103
4404 1 0.969508 0.601234 0.555275
4619 1 0.954775 0.607939 0.553544
4690 1 0.957353 0.621833 0.550633
4614 1 0.967175 0.614491 0.553731
1894 1 0.983694 0.610163 0.55326
1751 1 0.982007 0.624931 0.549941
1753 1 0.997058 0.615201 0.550845
1895 1 0.997585 0.603786 0.554738
4271 1 0.516961 0.625844 0.550431
4412 1 0.511433 0.6377 0.545254
4345 1 0.546228 0.626058 0.551028
4414 1 0.533008 0.628436 0.550177
4204 1 0.526353 0.64013 0.545843
4482 1 0.541731 0.638762 0.544534
4348 1 0.556115 0.631332 0.546139
4490 1 0.575702 0.632604 0.543
4353 1 0.591603 0.627262 0.54558
4202 1 0.607064 0.628434 0.543293
4636 1 0.640079 0.633978 0.545226
4499 1 0.63004 0.625733 0.546364
4426 1 0.671753 0.627304 0.547625
4431 1 0.65453 0.628913 0.545629
4635 1 0.682792 0.630028 0.544095
4590 1 0.711077 0.629321 0.544002
4374 1 0.724802 0.633947 0.543032
4741 1 0.853759 0.627255 0.543407
4610 1 0.894625 0.629435 0.547429
4805 1 0.879374 0.627925 0.545871
4543 1 0.884559 0.640867 0.543498
4675 1 0.910205 0.635236 0.547265
4750 1 0.924224 0.641538 0.545139
4541 1 0.941539 0.625711 0.548822
4471 1 0.92674 0.629003 0.549517
4683 1 0.93806 0.63815 0.545638
4476 1 0.96815 0.629809 0.550397
4616 1 0.950272 0.645844 0.543379
4544 1 0.950783 0.634621 0.546608
4677 1 0.962783 0.640177 0.546205
1829 1 0.979856 0.637726 0.545604
4617 1 0.996034 0.630598 0.546997
4612 1 0.993026 0.644026 0.543785
4072 1 0.551232 0.506712 0.571353
4079 1 0.596124 0.519037 0.568497
1396 1 0.580327 0.521743 0.568948
4150 1 0.621055 0.509967 0.566315
4149 1 0.605923 0.505294 0.569233
4076 1 0.609043 0.519471 0.567097
4222 1 0.637752 0.502428 0.566348
4138 1 0.635173 0.518276 0.567024
4435 1 0.649242 0.515683 0.567199
4366 1 0.662486 0.506173 0.567471
4363 1 0.665804 0.522662 0.567509
4092 1 0.680896 0.516032 0.568253
4369 1 0.691909 0.523241 0.568015
4370 1 0.690199 0.50645 0.568025
4229 1 0.701561 0.513327 0.568326
3884 1 0.715927 0.508909 0.568639
3888 1 0.727013 0.500149 0.57045
4091 1 0.726896 0.519188 0.568891
3879 1 0.736563 0.506173 0.567392
4295 1 0.751913 0.515122 0.56593
4228 1 0.762439 0.501486 0.564825
4460 1 0.765913 0.517571 0.565918
4029 1 0.79079 0.501715 0.564587
4171 1 0.77716 0.509967 0.564147
4462 1 0.791956 0.51969 0.563617
4310 1 0.80366 0.510798 0.564822
4530 1 0.81792 0.516117 0.561507
4434 1 0.813941 0.500305 0.564893
4238 1 0.842237 0.507464 0.561748
4603 1 0.83143 0.517191 0.560849
4176 1 0.848214 0.520151 0.560523
4393 1 0.872768 0.502866 0.562845
4108 1 0.860852 0.512387 0.56125
4248 1 0.85387 0.50116 0.562664
4237 1 0.8759 0.516933 0.561726
4254 1 0.888655 0.504934 0.564136
4402 1 0.889626 0.521411 0.561955
4099 1 0.901641 0.50813 0.563083
4324 1 0.91331 0.512651 0.563311
4390 1 0.922329 0.500613 0.563871
4319 1 0.902596 0.521757 0.563062
4325 1 0.938481 0.50657 0.565708
4328 1 0.926255 0.516291 0.564432
4242 1 0.941837 0.518744 0.564329
4123 1 0.964702 0.501946 0.563223
4251 1 0.951404 0.507925 0.562445
4337 1 0.967287 0.514604 0.562422
4049 1 0.956947 0.523565 0.564207
4267 1 0.997571 0.511034 0.565768
4407 1 0.982151 0.510313 0.564045
1259 1 0.509362 0.528296 0.571211
1463 1 0.506815 0.542673 0.571181
4136 1 0.545602 0.538977 0.570488
4146 1 0.574439 0.534695 0.56954
4144 1 0.55997 0.54618 0.568206
4218 1 0.559475 0.532905 0.569729
4148 1 0.577498 0.54809 0.568911
4143 1 0.589256 0.532225 0.568264
4291 1 0.590654 0.54522 0.567018
4147 1 0.603027 0.534512 0.567879
4290 1 0.613749 0.538698 0.566114
4286 1 0.622987 0.527683 0.566012
4215 1 0.604252 0.549797 0.565714
4433 1 0.630294 0.543146 0.564586
4362 1 0.638827 0.531017 0.566174
4216 1 0.644387 0.544288 0.565202
4367 1 0.655087 0.531112 0.565202
4089 1 0.669418 0.538323 0.56527
4156 1 0.657522 0.547637 0.56433
4292 1 0.679131 0.529751 0.567094
4438 1 0.686911 0.542158 0.566317
4289 1 0.697453 0.534757 0.566826
4023 1 0.711896 0.525771 0.56921
4225 1 0.713258 0.540656 0.565725
4318 1 0.726605 0.532241 0.56859
4377 1 0.739713 0.525516 0.56613
3885 1 0.727481 0.54822 0.56458
4459 1 0.738171 0.540054 0.56576
4233 1 0.750185 0.536772 0.563488
4463 1 0.764188 0.53061 0.565415
4303 1 0.763269 0.54398 0.561291
4391 1 0.789011 0.548262 0.559538
4236 1 0.776085 0.542208 0.562694
4235 1 0.780548 0.525384 0.564162
4311 1 0.790126 0.534122 0.561574
4669 1 0.805327 0.526086 0.56251
4461 1 0.805083 0.54102 0.559608
4531 1 0.820759 0.534284 0.558339
4529 1 0.816379 0.547575 0.558138
4174 1 0.838193 0.530397 0.559096
4316 1 0.849328 0.539565 0.558964
4383 1 0.830692 0.543449 0.558845
4392 1 0.861806 0.527683 0.55966
4247 1 0.865885 0.543141 0.558512
4397 1 0.876104 0.531611 0.559797
4394 1 0.878665 0.547994 0.559315
4327 1 0.889612 0.53767 0.560145
4454 1 0.916328 0.527519 0.562266
4244 1 0.903318 0.540799 0.561121
4477 1 0.91921 0.544532 0.561995
4315 1 0.932499 0.53209 0.563694
4401 1 0.936258 0.545543 0.56185
1612 1 0.948533 0.534668 0.563925
4323 1 0.965673 0.53387 0.562639
4259 1 0.950979 0.547335 0.563342
1821 1 0.976758 0.542241 0.562659
4198 1 0.979015 0.527452 0.563763
4689 1 0.989686 0.542249 0.563309
4122 1 0.991976 0.527652 0.563968
3992 1 0.515774 0.559235 0.569716
4209 1 0.517943 0.573208 0.566911
1596 1 0.501369 0.571022 0.568203
4132 1 0.532732 0.551363 0.570357
4142 1 0.545469 0.553276 0.567637
4413 1 0.527725 0.56372 0.56757
4214 1 0.54269 0.565952 0.566445
4211 1 0.556562 0.560723 0.567573
4210 1 0.564032 0.570766 0.564077
4287 1 0.570418 0.557011 0.56581
4220 1 0.586858 0.561154 0.565918
4273 1 0.57652 0.57157 0.564258
4224 1 0.619095 0.552337 0.565965
4205 1 0.600547 0.565393 0.566327
4140 1 0.615452 0.564055 0.565934
4281 1 0.62949 0.573764 0.563887
4365 1 0.632314 0.558714 0.564832
4352 1 0.648826 0.560305 0.562454
4375 1 0.67468 0.551599 0.565058
4437 1 0.662629 0.560402 0.564156
4296 1 0.662076 0.573539 0.56163
4230 1 0.676461 0.564961 0.561447
3814 1 0.687072 0.557073 0.562273
4097 1 0.690063 0.569854 0.559586
3948 1 0.700398 0.552105 0.563799
4517 1 0.700714 0.563598 0.560535
4297 1 0.716828 0.556452 0.561166
4306 1 0.715322 0.5697 0.560082
4026 1 0.73007 0.562371 0.560499
4379 1 0.743566 0.568718 0.559628
4599 1 0.74135 0.552692 0.561911
4534 1 0.758117 0.568236 0.559955
4387 1 0.753924 0.555831 0.561531
4597 1 0.766779 0.556112 0.559192
4448 1 0.779586 0.5574 0.557604
4398 1 0.800021 0.556448 0.558405
4671 1 0.813431 0.561527 0.55723
4258 1 0.829983 0.561483 0.55866
4389 1 0.84086 0.550947 0.557859
4533 1 0.86029 0.5703 0.55715
4663 1 0.874685 0.570114 0.557483
4537 1 0.855605 0.555403 0.558272
4466 1 0.89645 0.551341 0.558167
4405 1 0.884359 0.560376 0.558774
4385 1 0.910528 0.558796 0.558337
4400 1 0.926091 0.557469 0.559488
4396 1 0.940572 0.558597 0.559363
4260 1 0.947316 0.573142 0.557297
4480 1 0.966346 0.552826 0.561897
1823 1 0.95563 0.561152 0.559844
4330 1 0.969533 0.568642 0.560574
4268 1 0.999862 0.55393 0.562977
4193 1 0.981163 0.557345 0.561727
4549 1 0.995553 0.567271 0.559125
1467 1 0.503181 0.595136 0.562862
4206 1 0.510332 0.583929 0.565224
4207 1 0.517559 0.599285 0.562132
4212 1 0.525774 0.586296 0.564048
4004 1 0.534519 0.576539 0.564754
4279 1 0.539691 0.589721 0.562043
4278 1 0.552581 0.577381 0.565054
4342 1 0.555144 0.587731 0.559604
4283 1 0.568781 0.583518 0.560924
4285 1 0.591642 0.577346 0.564318
4372 1 0.587727 0.599555 0.557194
4282 1 0.581966 0.585942 0.561502
4360 1 0.596013 0.589929 0.559848
4361 1 0.609423 0.595354 0.559132
4425 1 0.606699 0.576263 0.563518
4443 1 0.618535 0.58096 0.561527
4442 1 0.644629 0.575105 0.563726
4509 1 0.642723 0.599575 0.557979
4583 1 0.635848 0.584507 0.562482
4502 1 0.629485 0.593461 0.559056
4496 1 0.65003 0.588589 0.561527
4386 1 0.664197 0.58983 0.559964
4445 1 0.677039 0.579348 0.558691
4095 1 0.715595 0.583149 0.557264
4165 1 0.702584 0.57808 0.557802
4164 1 0.740012 0.583457 0.557356
4384 1 0.727979 0.575572 0.55786
4535 1 0.911998 0.593073 0.558097
4406 1 0.955271 0.593172 0.557689
1825 1 0.97248 0.588095 0.557591
4468 1 0.960353 0.578379 0.558366
4331 1 0.98557 0.593162 0.557298
1760 1 0.983621 0.575429 0.560062
4336 1 0.995167 0.582159 0.55833
4134 1 0.504916 0.606894 0.558054
4067 1 0.53075 0.602032 0.560122
1539 1 0.546155 0.600344 0.558037
4491 1 0.619681 0.60337 0.557461
4025 1 0.658324 0.602776 0.558064
4131 1 0.522693 0.51196 0.571968
1394 1 0.508291 0.515018 0.571436
1323 1 0.511648 0.501539 0.57341
1326 1 0.535513 0.517345 0.572103
4000 1 0.536638 0.503707 0.572499
4137 1 0.548059 0.524805 0.572158
1327 1 0.56605 0.520594 0.571768
4068 1 0.570508 0.509284 0.571717
4221 1 0.586657 0.508085 0.57153
1397 1 0.521623 0.527031 0.572884
1536 1 0.522426 0.541644 0.571745
4219 1 0.533857 0.533281 0.571956
1462 1 0.50153 0.555416 0.572444
ITEM: TIMESTEP
400000
ITEM: NUMBER OF ATOMS
5600
ITEM: BOX BOUNDS pp pp pp
-3.2235000000000007e+01 3.2235000000000007e+01
-3.1904375875418808e+01 3.1904375875418808e+01
-5.5260000000000005e+01 5.5260000000000005e+01
ITEM: ATOMS id type xs ys zs
2940 1 0.000571127 0.0212057 0.428003
2790 1 0.322555 0.0077944 0.425429
2646 1 0.340338 0.00297193 0.424043
2580 1 0.333879 0.0165018 0.426947
2574 1 0.347563 0.0207977 0.427457
57 1 0.353815 0.00445636 0.42448
64 1 0.361262 0.0154542 0.42661
273 1 0.368579 0.00352653 0.422935
485 1 0.378608 0.0138214 0.425148
405 1 0.391393 0.0210367 0.425801
131 1 0.391408 0.00867511 0.421756
202 1 0.403948 0.0200637 0.424464
196 1 0.410634 0.00604582 0.420908
2806 1 0.417866 0.0186925 0.422789
2786 1 0.426073 0.00714575 0.419719
204 1 0.438714 0.0137026 0.419969
268 1 0.445432 0.0250781 0.421279
2796 1 0.450262 0.0118965 0.419715
278 1 0.461942 0.0198672 0.419974
272 1 0.463618 0.00504231 0.417672
2791 1 0.474206 0.0145965 0.419647
2726 1 0.486683 0.0117312 0.417728
3081 1 0.492225 0.0229527 0.423575
5321 1 0.496858 0.00239135 0.417552
554 1 0.372141 0.0248095 0.428289
275 1 0.418958 0.032199 0.426064
2712 1 0.4054 0.0332556 0.426819
133 1 0.430665 0.0248517 0.422878
277 1 0.428004 0.0394799 0.425874
418 1 0.441336 0.0356902 0.423985
3157 1 0.439076 0.0486348 0.426209
207 1 0.46138 0.0321211 0.421949
2946 1 0.467173 0.0415527 0.42623
68 1 0.454324 0.0420523 0.426566
136 1 0.477738 0.0303919 0.423349
2795 1 0.48427 0.0397757 0.427483
67 1 0.498375 0.0386891 0.424605
2871 1 0.490484 0.052367 0.427899
285 1 0.00530524 0.00556314 0.428812
10 1 0.014946 0.0153672 0.431489
215 1 0.021521 0.00149447 0.432857
13 1 0.0322102 0.0110618 0.433632
154 1 0.0412098 0.0238126 0.431925
9 1 0.0270643 0.0263928 0.431074
8 1 0.0411378 -0.00017126 0.434343
2746 1 0.0480854 0.0136675 0.433242
21 1 0.0689828 0.011075 0.434947
85 1 0.0601526 0.0218477 0.433909
19 1 0.0750034 0.0238472 0.436076
2742 1 0.0834634 0.0105016 0.435837
2674 1 0.100261 0.0113902 0.434772
20 1 0.114289 0.012332 0.435603
22 1 0.127499 0.0140004 0.436512
91 1 0.145445 0.0149964 0.43562
171 1 0.168105 0.0246763 0.43716
238 1 0.161657 0.0123419 0.435404
245 1 0.176301 0.0128822 0.434001
180 1 0.166178 -0.0015995 0.435126
236 1 0.199749 0.0255767 0.435919
115 1 0.189816 0.0100569 0.436157
382 1 0.216694 0.0244923 0.436041
244 1 0.204673 0.0123494 0.434142
159 1 0.220819 0.0131597 0.433467
2686 1 0.233005 0.024485 0.433988
113 1 0.236819 0.00774735 0.432612
104 1 0.248685 0.021235 0.434137
42 1 0.26479 0.0111532 0.433321
2707 1 0.252492 0.0030525 0.431356
2771 1 0.276953 0.0250412 0.433103
2633 1 0.27865 0.011491 0.430373
2772 1 0.294254 0.0103064 0.429927
2630 1 0.291865 0.022557 0.43393
2713 1 0.309787 0.00891452 0.428292
2781 1 0.306507 0.0221984 0.43201
2715 1 0.321096 0.0239764 0.42825
223 1 0.00796493 0.0450362 0.43071
306 1 0.011618 0.0288364 0.429685
3007 1 0.0233575 0.0410866 0.431393
151 1 0.036601 0.041217 0.432016
77 1 0.0474555 0.0334187 0.432938
80 1 0.0629441 0.0349296 0.434866
152 1 0.0551746 0.04576 0.432458
375 1 0.0708621 0.0471544 0.43527
231 1 0.0922272 0.0241322 0.436212
155 1 0.0805085 0.0367981 0.436364
83 1 0.0961799 0.0430118 0.438192
14 1 0.106388 0.0257813 0.436487
89 1 0.120982 0.0284278 0.437033
15 1 0.110499 0.0384436 0.436424
239 1 0.137721 0.0267153 0.437398
17 1 0.147029 0.0410887 0.437326
302 1 0.128806 0.0412657 0.437956
303 1 0.152679 0.0264682 0.436133
93 1 0.160137 0.0383347 0.439
237 1 0.183425 0.0261955 0.435357
174 1 0.175619 0.041058 0.43997
97 1 0.193243 0.0372559 0.438821
384 1 0.183993 0.0504756 0.442255
114 1 0.22483 0.0379117 0.437987
246 1 0.206671 0.0350541 0.43864
106 1 0.212829 0.0479628 0.440198
168 1 0.239671 0.0360725 0.4375
105 1 0.231771 0.0500117 0.441937
102 1 0.245821 0.0462152 0.440568
46 1 0.261194 0.0265504 0.434848
2763 1 0.251174 0.0361871 0.438274
177 1 0.272412 0.0354066 0.438215
2705 1 0.287303 0.0355271 0.437637
103 1 0.279019 0.0466522 0.442179
2714 1 0.293656 0.0471557 0.442826
2505 1 0.300143 0.0329898 0.436495
2644 1 0.315215 0.0332166 0.434846
2778 1 0.307257 0.0458133 0.439256
2782 1 0.320319 0.0469175 0.437511
2627 1 0.330096 0.0316522 0.432173
55 1 0.332891 0.0440393 0.436935
619 1 0.346537 0.0344263 0.433177
56 1 0.346809 0.0466867 0.436307
403 1 0.358983 0.0295931 0.429824
52 1 0.359041 0.041101 0.432826
58 1 0.373041 0.038427 0.430917
2718 1 0.38885 0.0364973 0.429818
263 1 0.387719 0.0479414 0.43374
262 1 0.402067 0.0447801 0.431963
2649 1 0.415102 0.0467056 0.42935
3145 1 0.0181589 0.0548661 0.431871
3000 1 0.00705794 0.0624784 0.431046
3005 1 0.0206444 0.0690048 0.432912
222 1 0.0331786 0.0560408 0.433457
372 1 0.0463488 0.056691 0.432705
150 1 0.0347102 0.0705769 0.434044
216 1 0.050323 0.0694831 0.433279
153 1 0.0591362 0.0573193 0.434692
226 1 0.072328 0.0618554 0.435869
436 1 0.0696026 0.0750562 0.436673
12 1 0.0834197 0.0542063 0.438374
147 1 0.0844175 0.0697134 0.43823
450 1 0.0948205 0.0601828 0.440351
18 1 0.109065 0.0528021 0.438253
162 1 0.121737 0.0533389 0.43836
439 1 0.113449 0.0654148 0.44018
447 1 0.102158 0.0746099 0.439859
230 1 0.140084 0.0519941 0.438967
307 1 0.132173 0.0630138 0.440239
157 1 0.147832 0.0658369 0.441404
445 1 0.156245 0.0532872 0.441012
49 1 0.319413 0.0576832 0.441496
127 1 0.346501 0.0595935 0.440286
2710 1 0.333646 0.0573829 0.439829
43 1 0.339721 0.0710716 0.442818
484 1 0.371688 0.0526553 0.433809
129 1 0.357355 0.0561705 0.43639
54 1 0.369846 0.0651954 0.440397
128 1 0.353754 0.0709507 0.442362
137 1 0.382842 0.0633283 0.435346
335 1 0.397147 0.058944 0.436042
195 1 0.395913 0.0718036 0.441319
200 1 0.410745 0.0583724 0.433785
410 1 0.409535 0.0683075 0.439507
198 1 0.422622 0.065191 0.435723
203 1 0.425515 0.0535155 0.43008
201 1 0.438439 0.0604271 0.431754
206 1 0.434892 0.0716143 0.436153
411 1 0.446179 0.0728983 0.438595
138 1 0.474826 0.0509447 0.429417
414 1 0.452788 0.0641933 0.434545
415 1 0.455438 0.0546667 0.430064
345 1 0.469127 0.0626702 0.430914
486 1 0.461383 0.0742098 0.438945
280 1 0.481929 0.0652594 0.433647
66 1 0.496999 0.0646683 0.432382
3078 1 0.0155425 0.091437 0.434071
3073 1 0.00992541 0.0782452 0.432663
225 1 0.0279375 0.0838097 0.434584
3004 1 0.0434609 0.0836323 0.433336
299 1 0.0419501 0.0943093 0.437053
227 1 0.0279445 0.0985393 0.435848
374 1 0.0551501 0.0845801 0.436338
220 1 0.070455 0.0919528 0.438194
291 1 0.057715 0.0984394 0.439172
371 1 0.0815238 0.0839561 0.438737
377 1 0.0936844 0.0888241 0.440629
297 1 0.0845322 0.0991162 0.43958
160 1 0.114736 0.0842938 0.442147
483 1 0.380889 0.0756807 0.442559
269 1 0.43625 0.078596 0.442758
620 1 0.474755 0.0759089 0.437183
3084 1 0.490326 0.0784153 0.435972
3008 1 0.014809 0.109301 0.437064
3144 1 0.00520066 0.12187 0.43798
3215 1 0.00346619 0.105278 0.432962
219 1 0.0169255 0.12424 0.441704
156 1 0.0294734 0.114128 0.440578
294 1 0.0428427 0.107258 0.438726
293 1 0.0573059 0.113257 0.442815
228 1 0.0719085 0.108476 0.441526
290 1 0.0309609 0.127026 0.443576
243 1 0.199151 0.0506184 0.442402
47 1 0.260161 0.047086 0.441563
163 1 0.124292 0.0728102 0.441507
92 1 0.138505 0.0758055 0.445221
164 1 0.168946 0.0507518 0.44431
169 1 0.163171 0.0680768 0.443416
533 1 0.175907 0.0626654 0.445056
172 1 0.190923 0.0623064 0.445632
98 1 0.221988 0.0645174 0.444021
117 1 0.205786 0.0621597 0.444402
45 1 0.237009 0.0612804 0.4436
178 1 0.234225 0.0750988 0.445458
2775 1 0.249126 0.0724198 0.446918
2706 1 0.249562 0.0580825 0.444372
2708 1 0.271418 0.0579041 0.445481
2774 1 0.261449 0.066048 0.447116
2784 1 0.276444 0.0697116 0.448058
108 1 0.28906 0.0615147 0.44506
2502 1 0.297026 0.071967 0.447845
112 1 0.302607 0.0567144 0.444057
191 1 0.31064 0.0707302 0.445511
2780 1 0.327213 0.0703795 0.443708
516 1 0.103707 0.0996019 0.445554
520 1 0.117355 0.0978915 0.445582
232 1 0.128803 0.0859496 0.44645
378 1 0.140277 0.0902987 0.449532
379 1 0.151981 0.0782784 0.446926
452 1 0.167584 0.0786018 0.447275
234 1 0.155007 0.089918 0.448636
456 1 0.164179 0.0951137 0.451598
240 1 0.182661 0.0770632 0.448616
309 1 0.19252 0.0889573 0.449776
455 1 0.175703 0.0875031 0.450554
304 1 0.178102 0.101856 0.453069
525 1 0.195954 0.0984296 0.455599
328 1 0.198486 0.0748302 0.447809
175 1 0.216962 0.0793405 0.445451
311 1 0.209552 0.0898296 0.451101
2776 1 0.225222 0.0876632 0.44968
250 1 0.224288 0.0987025 0.454709
40 1 0.241423 0.0840192 0.449936
176 1 0.23849 0.0972088 0.453218
2699 1 0.25375 0.0848585 0.451544
2702 1 0.266575 0.0791347 0.449098
189 1 0.254546 0.0983903 0.455582
2700 1 0.266316 0.0940275 0.452416
48 1 0.284577 0.0804137 0.448715
122 1 0.297656 0.0863691 0.450685
120 1 0.280252 0.0925981 0.451893
44 1 0.311326 0.0828759 0.448754
123 1 0.321567 0.0938693 0.451676
199 1 0.307733 0.0973879 0.453964
266 1 0.325855 0.0816757 0.448467
320 1 0.338863 0.0833966 0.446432
184 1 0.335117 0.0953975 0.452052
258 1 0.350713 0.0932863 0.45166
121 1 0.354098 0.0823304 0.44597
125 1 0.367246 0.0789178 0.445023
551 1 0.364532 0.0919761 0.449356
552 1 0.374405 0.10215 0.45393
265 1 0.377056 0.0855844 0.448184
336 1 0.392119 0.0836286 0.445755
124 1 0.387962 0.0956417 0.450899
259 1 0.421645 0.0780589 0.442396
337 1 0.401923 0.09233 0.448984
416 1 0.406358 0.0805983 0.444371
65 1 0.418726 0.0883905 0.44836
338 1 0.436951 0.088361 0.44723
350 1 0.448738 0.0957769 0.451262
270 1 0.430921 0.0984166 0.452685
617 1 0.45155 0.0843964 0.444853
344 1 0.467014 0.0843872 0.443246
548 1 0.462779 0.0950948 0.449118
339 1 0.476259 0.0955618 0.449371
205 1 0.499688 0.0898735 0.4418
412 1 0.481787 0.0872488 0.442953
3364 1 0.493118 0.0939975 0.448351
441 1 0.0432263 0.121272 0.443393
376 1 0.0912136 0.108652 0.444104
518 1 0.0805113 0.118381 0.444913
301 1 0.0957621 0.119148 0.44719
241 1 0.108163 0.112331 0.44755
519 1 0.109254 0.124969 0.452447
528 1 0.125334 0.120314 0.454218
440 1 0.121318 0.109755 0.450329
381 1 0.130205 0.0996702 0.447859
517 1 0.138331 0.112886 0.453003
373 1 0.146175 0.103702 0.450453
315 1 0.158209 0.105792 0.453039
448 1 0.148722 0.120244 0.455166
387 1 0.176555 0.112957 0.457278
170 1 0.19173 0.111413 0.457386
318 1 0.210753 0.105184 0.456999
51 1 0.292246 0.0999055 0.455861
194 1 0.328235 0.104161 0.456174
332 1 0.359369 0.101844 0.453772
267 1 0.400622 0.104705 0.454371
690 1 0.412693 0.098858 0.45313
342 1 0.45588 0.105559 0.454927
629 1 0.469534 0.106315 0.454168
3224 1 0.497541 0.105567 0.453647
490 1 0.485015 0.107332 0.45461
3150 1 0.00775202 0.13718 0.443272
433 1 0.019996 0.137702 0.445978
3141 1 -0.00179843 0.147347 0.446787
145 1 0.0315477 0.145455 0.447498
366 1 0.0437058 0.137238 0.446627
218 1 0.0679771 0.126869 0.445386
295 1 0.053567 0.126662 0.44611
364 1 0.0736246 0.136351 0.450562
430 1 0.0589538 0.143616 0.449941
224 1 0.0864321 0.133014 0.448239
367 1 0.0878567 0.145186 0.453764
444 1 0.120507 0.13496 0.456143
442 1 0.101181 0.135553 0.453228
586 1 0.135715 0.128202 0.45772
288 1 0.0129162 0.149222 0.448416
300 1 0.00189722 0.161701 0.450441
3286 1 0.0170172 0.162425 0.454686
3355 1 0.00462814 0.172237 0.456172
289 1 0.0272269 0.15701 0.452248
358 1 0.0435766 0.152653 0.451304
359 1 0.0446773 0.163947 0.456769
3359 1 0.0292102 0.167528 0.457732
365 1 0.0717497 0.152093 0.453562
505 1 0.0568563 0.154856 0.455863
526 1 0.164175 0.116327 0.456269
527 1 0.18523 0.124417 0.461017
380 1 0.20535 0.118344 0.459841
310 1 0.223813 0.108269 0.461092
317 1 0.218261 0.121994 0.464631
251 1 0.237501 0.106261 0.460439
321 1 0.249853 0.110541 0.46244
185 1 0.2339 0.119087 0.46681
247 1 0.264002 0.108373 0.459348
119 1 0.257712 0.120797 0.466164
116 1 0.271648 0.117696 0.462481
183 1 0.276014 0.104033 0.459398
118 1 0.286759 0.113002 0.462121
242 1 0.282992 0.121327 0.467787
190 1 0.298656 0.120792 0.465381
193 1 0.317566 0.107465 0.4584
333 1 0.302012 0.109893 0.459279
331 1 0.312159 0.117331 0.464222
179 1 0.34573 0.104809 0.457951
261 1 0.327113 0.115246 0.461777
478 1 0.341268 0.113464 0.46249
489 1 0.336854 0.122547 0.467917
481 1 0.350918 0.12245 0.466273
182 1 0.357105 0.114279 0.459861
319 1 0.370988 0.109548 0.459467
271 1 0.367107 0.120272 0.467228
329 1 0.38665 0.10608 0.456017
487 1 0.380915 0.115878 0.463903
408 1 0.394305 0.113274 0.461972
474 1 0.391529 0.122777 0.468727
264 1 0.407589 0.112574 0.460056
693 1 0.417357 0.119086 0.465023
622 1 0.402804 0.122385 0.467508
340 1 0.421583 0.109207 0.457097
417 1 0.440385 0.107084 0.457408
621 1 0.451612 0.117684 0.461373
488 1 0.434166 0.114701 0.462688
630 1 0.4438 0.126279 0.467492
3362 1 0.429704 0.12534 0.467976
559 1 0.463994 0.114384 0.458985
697 1 0.463373 0.124351 0.466029
420 1 0.475788 0.118844 0.459869
3291 1 0.490646 0.116866 0.459825
655 1 0.113732 0.14687 0.460045
369 1 0.129407 0.142577 0.461015
582 1 0.142748 0.137788 0.459513
513 1 0.140001 0.149874 0.46434
454 1 0.156285 0.129443 0.458998
451 1 0.154568 0.142082 0.463694
514 1 0.169077 0.141623 0.466118
305 1 0.171392 0.126676 0.460459
392 1 0.193082 0.134129 0.465306
665 1 0.182638 0.141597 0.471063
314 1 0.205921 0.128672 0.46666
253 1 0.218808 0.131812 0.470785
385 1 0.23286 0.131119 0.470495
249 1 0.246934 0.127606 0.471732
313 1 0.267635 0.128756 0.469392
126 1 0.293149 0.130676 0.469509
459 1 0.322914 0.124776 0.468171
187 1 0.309387 0.128637 0.468363
413 1 0.470119 0.135037 0.470681
560 1 0.496662 0.128758 0.464798
623 1 0.481815 0.128397 0.466604
361 1 0.0578637 0.171235 0.461103
434 1 0.0694059 0.164962 0.45854
437 1 0.085207 0.159567 0.45926
370 1 0.0780189 0.170615 0.463133
506 1 0.0967729 0.166611 0.462491
292 1 0.10007 0.15253 0.457805
368 1 0.109159 0.160471 0.461827
656 1 0.117835 0.169439 0.467663
507 1 0.104778 0.176918 0.466716
511 1 0.126223 0.160108 0.463173
298 1 0.139925 0.163829 0.469503
446 1 0.164424 0.150769 0.470982
577 1 0.15238 0.155657 0.468221
3290 1 0.0170148 0.177489 0.459166
352 1 0.0217012 0.191641 0.466329
281 1 0.0054184 0.186826 0.461795
282 1 0.00575175 0.195997 0.469358
422 1 0.0442257 0.175327 0.461529
214 1 0.0356936 0.194194 0.471748
3149 1 0.0298018 0.181935 0.461983
429 1 0.0427835 0.188229 0.465887
3357 1 0.0544585 0.18282 0.465858
363 1 0.0679411 0.178119 0.466452
427 1 0.0627659 0.190078 0.470682
296 1 0.0788626 0.186305 0.470642
508 1 0.0871385 0.177314 0.466039
438 1 0.0952642 0.184774 0.472003
393 1 0.194494 0.148273 0.474512
388 1 0.204328 0.14021 0.471786
607 1 0.212 0.147885 0.475908
327 1 0.22646 0.141854 0.475221
530 1 0.231562 0.150117 0.480481
257 1 0.243402 0.14068 0.475413
316 1 0.247368 0.148479 0.481114
252 1 0.258345 0.136223 0.475177
50 1 0.269299 0.140647 0.476372
386 1 0.260433 0.146566 0.482109
192 1 0.280863 0.132499 0.472901
390 1 0.295676 0.139383 0.476377
326 1 0.281687 0.142256 0.478903
2777 1 0.290941 0.150893 0.482599
188 1 0.319955 0.134201 0.474313
389 1 0.307172 0.134695 0.474457
395 1 0.302937 0.145114 0.481999
248 1 0.314993 0.143579 0.478474
323 1 0.33368 0.134331 0.472455
255 1 0.347002 0.132781 0.474512
186 1 0.333317 0.141594 0.478474
407 1 0.326013 0.147411 0.483881
409 1 0.359525 0.126941 0.472294
480 1 0.3484 0.138675 0.480886
541 1 0.362525 0.136569 0.478215
469 1 0.37544 0.128863 0.472692
547 1 0.374697 0.137818 0.48214
546 1 0.386206 0.130623 0.476362
537 1 0.388654 0.137855 0.483894
687 1 0.41511 0.128877 0.473459
550 1 0.401193 0.130968 0.476793
406 1 0.413025 0.141551 0.479173
482 1 0.401556 0.142373 0.484139
558 1 0.440662 0.135055 0.473913
695 1 0.426557 0.137 0.475708
626 1 0.438901 0.144568 0.480031
475 1 0.42744 0.150263 0.483007
3293 1 0.455925 0.133054 0.471555
346 1 0.453541 0.142963 0.477665
3222 1 0.469501 0.142681 0.476884
3571 1 0.486801 0.140899 0.472051
696 1 0.498209 0.147112 0.478536
579 1 0.128391 0.173628 0.47197
449 1 0.154004 0.164185 0.47258
717 1 0.169095 0.162866 0.476283
584 1 0.158417 0.173996 0.477969
509 1 0.179901 0.155747 0.474054
523 1 0.180763 0.171973 0.480689
592 1 0.188634 0.160971 0.478896
601 1 0.195205 0.170527 0.483826
312 1 0.220149 0.153427 0.481959
531 1 0.203084 0.155744 0.479175
464 1 0.21191 0.164141 0.484189
308 1 0.226945 0.163171 0.486178
391 1 0.342461 0.149455 0.486382
692 1 0.444575 0.154437 0.484583
625 1 0.471656 0.151316 0.482859
624 1 0.457196 0.15285 0.482608
3223 1 0.483978 0.1509 0.478456
628 1 0.496662 0.160782 0.483804
3499 1 0.0493774 0.196386 0.471987
435 1 0.072303 0.196849 0.47495
502 1 0.0870078 0.195751 0.476706
651 1 0.113835 0.18142 0.472901
428 1 0.101153 0.195235 0.475832
716 1 0.116694 0.190937 0.478426
443 1 0.143602 0.177249 0.473822
657 1 0.130732 0.184731 0.476258
568 1 0.151194 0.184383 0.480387
580 1 0.138233 0.193047 0.481644
578 1 0.169322 0.178823 0.482661
3710 1 0.0219731 0.200753 0.472504
3077 1 0.00674328 0.222374 0.478787
3207 1 0.00776761 0.208355 0.47366
357 1 0.019464 0.216497 0.476075
3498 1 0.0329033 0.219667 0.480564
3220 1 0.0350201 0.208337 0.47529
3283 1 0.0468264 0.20965 0.479058
356 1 0.0515962 0.218876 0.482717
632 1 0.0598762 0.199942 0.475861
501 1 0.0657247 0.207567 0.480474
353 1 0.0799043 0.204635 0.481711
662 1 0.0943868 0.204038 0.482262
575 1 0.112188 0.201719 0.482931
497 1 0.126638 0.200403 0.482043
3420 1 0.0203269 0.227984 0.483163
334 1 0.27526 0.149572 0.484575
479 1 0.362885 0.147038 0.486744
468 1 0.376487 0.145952 0.488211
324 1 0.392237 0.146425 0.490509
608 1 0.414072 0.148482 0.486642
605 1 0.221448 0.172179 0.490661
604 1 0.238298 0.156745 0.486276
466 1 0.233936 0.170912 0.490996
602 1 0.247823 0.171759 0.492624
472 1 0.251644 0.157553 0.488185
458 1 0.265533 0.15658 0.489001
461 1 0.26017 0.166201 0.493758
396 1 0.270013 0.173373 0.497079
322 1 0.276676 0.161008 0.493626
686 1 0.287037 0.153732 0.491035
615 1 0.283055 0.170687 0.498755
399 1 0.295108 0.163645 0.496072
401 1 0.311114 0.151184 0.485199
256 1 0.299874 0.156518 0.488957
330 1 0.309975 0.160516 0.493795
679 1 0.313484 0.1724 0.499857
616 1 0.322036 0.158222 0.488856
674 1 0.325264 0.164828 0.496637
743 1 0.34015 0.162417 0.497263
813 1 0.334327 0.155659 0.491191
887 1 0.358605 0.163511 0.498445
749 1 0.36611 0.152005 0.494613
815 1 0.35323 0.155837 0.491825
471 1 0.372164 0.163755 0.49943
953 1 0.386554 0.165551 0.499271
325 1 0.380088 0.155371 0.493549
260 1 0.398469 0.159146 0.497214
677 1 0.413208 0.15949 0.497795
553 1 0.403252 0.152426 0.491801
404 1 0.421064 0.158843 0.490806
538 1 0.434263 0.159332 0.490346
545 1 0.437597 0.165955 0.496655
536 1 0.449798 0.161286 0.490686
467 1 0.468592 0.160053 0.489923
896 1 0.460114 0.169517 0.497409
3431 1 0.474186 0.172082 0.495189
3435 1 0.481583 0.156051 0.486654
767 1 0.488559 0.165841 0.491864
654 1 0.150012 0.197655 0.48675
590 1 0.161333 0.189341 0.486006
512 1 0.160881 0.199865 0.49191
587 1 0.172937 0.1937 0.491377
585 1 0.180663 0.181032 0.48699
653 1 0.193363 0.183212 0.490209
594 1 0.183929 0.194127 0.493618
383 1 0.198023 0.191019 0.495912
457 1 0.208451 0.17529 0.488921
453 1 0.213693 0.181326 0.495131
529 1 0.240914 0.180173 0.499423
397 1 0.22837 0.178545 0.495312
759 1 0.48867 0.178097 0.497131
3633 1 0.0463768 0.225733 0.490706
3426 1 0.0745972 0.226703 0.492419
3430 1 0.0643451 0.21825 0.486309
499 1 0.0784768 0.215791 0.487658
504 1 0.0922279 0.213981 0.488501
495 1 0.0985654 0.219922 0.494608
496 1 0.10614 0.210035 0.488625
494 1 0.114226 0.219945 0.493687
645 1 0.121698 0.211066 0.489413
583 1 0.141948 0.21518 0.49908
581 1 0.130607 0.213294 0.495744
515 1 0.137716 0.20451 0.487181
591 1 0.146063 0.20597 0.494025
663 1 0.164279 0.205463 0.498999
510 1 0.177411 0.202556 0.498135
702 1 0.00697249 0.243713 0.493478
3849 1 0.0062931 0.231925 0.486647
771 1 0.0201436 0.235998 0.489701
3567 1 0.0228761 0.244808 0.497758
3429 1 0.0356129 0.22713 0.486727
3568 1 0.0349854 0.235182 0.493371
3559 1 0.0476231 0.236249 0.497568
3352 1 0.0590974 0.229117 0.493162
3427 1 0.0659735 0.235243 0.499669
3424 1 0.083634 0.228186 0.497274
543 1 0.299601 0.175307 0.501245
745 1 0.33586 0.171187 0.503397
741 1 0.349992 0.173678 0.503312
819 1 0.364514 0.174882 0.50489
970 1 0.39382 0.171465 0.504866
822 1 0.405395 0.171038 0.500504
398 1 0.426308 0.169479 0.500457
670 1 0.211397 0.193902 0.500794
476 1 0.226321 0.189428 0.501552
477 1 0.239417 0.191671 0.504787
460 1 0.24998 0.197105 0.509346
534 1 0.255323 0.186 0.505371
473 1 0.271955 0.181441 0.503793
806 1 0.266798 0.192288 0.507886
465 1 0.254599 0.175895 0.500346
609 1 0.281787 0.192319 0.508125
540 1 0.285745 0.180909 0.505138
400 1 0.299781 0.188449 0.506593
394 1 0.295202 0.200271 0.512026
676 1 0.312438 0.184713 0.505294
959 1 0.319211 0.194812 0.50893
470 1 0.325823 0.178613 0.504516
884 1 0.341753 0.18479 0.504295
814 1 0.332577 0.190228 0.509499
746 1 0.344929 0.196548 0.511566
821 1 0.355336 0.183736 0.509382
761 1 0.37274 0.18355 0.510083
886 1 0.378497 0.172867 0.505043
756 1 0.387743 0.183479 0.508842
610 1 0.397847 0.192828 0.512625
672 1 0.384877 0.19435 0.514091
751 1 0.415497 0.177275 0.505457
402 1 0.401871 0.180979 0.507573
747 1 0.422877 0.184274 0.511089
681 1 0.411079 0.188684 0.512444
614 1 0.434175 0.178864 0.506496
556 1 0.448527 0.175486 0.502999
974 1 0.445661 0.184962 0.508846
3433 1 0.435248 0.193115 0.512079
765 1 0.460896 0.178768 0.506147
612 1 0.462355 0.190253 0.512278
763 1 0.474627 0.19205 0.510963
611 1 0.472625 0.179192 0.503329
618 1 0.484369 0.184725 0.505283
971 1 0.489474 0.194049 0.511452
830 1 0.497378 0.187293 0.503565
599 1 0.173551 0.212911 0.503634
643 1 0.156619 0.217578 0.502055
521 1 0.194685 0.216849 0.509343
589 1 0.180692 0.220294 0.510251
737 1 0.185132 0.209469 0.504119
598 1 0.195122 0.201422 0.500674
595 1 0.220001 0.202022 0.505878
812 1 0.206406 0.206311 0.506342
522 1 0.209982 0.219205 0.513137
877 1 0.222323 0.212846 0.511592
532 1 0.232739 0.202247 0.50853
597 1 0.241723 0.208221 0.513187
463 1 0.261816 0.202411 0.514115
524 1 0.275997 0.207774 0.514732
606 1 0.289222 0.212516 0.514893
673 1 0.307095 0.200374 0.509619
535 1 0.321946 0.207804 0.51305
744 1 0.334109 0.203228 0.513112
773 1 0.0354644 0.247507 0.501314
566 1 0.0667089 0.247791 0.505467
3570 1 0.0513109 0.246624 0.504808
704 1 0.0786093 0.239087 0.502056
492 1 0.0941451 0.234449 0.50232
563 1 0.0818894 0.246338 0.508742
426 1 0.0945023 0.246036 0.510476
362 1 0.123456 0.225919 0.500394
635 1 0.121593 0.244712 0.513937
432 1 0.110212 0.238692 0.507062
493 1 0.10537 0.251236 0.512882
573 1 0.107887 0.228749 0.500787
658 1 0.14947 0.229468 0.50544
498 1 0.127042 0.235717 0.507711
648 1 0.136431 0.227013 0.503482
649 1 0.144119 0.23901 0.511233
725 1 0.167006 0.225088 0.507076
784 1 0.158997 0.237303 0.51066
593 1 0.171145 0.233439 0.514974
638 1 0.0225107 0.270219 0.511339
3630 1 0.00892742 0.261622 0.507408
706 1 0.0117947 0.251443 0.501864
3636 1 0.0278389 0.25775 0.505599
701 1 0.0404653 0.25738 0.506911
633 1 0.0428043 0.26402 0.513165
705 1 0.0548773 0.255925 0.510771
503 1 0.0697527 0.256634 0.511262
889 1 0.369463 0.195761 0.515592
892 1 0.355778 0.196437 0.516371
682 1 0.422794 0.196264 0.516559
542 1 0.41005 0.198668 0.518003
902 1 0.449859 0.195081 0.515395
666 1 0.234408 0.218934 0.514348
596 1 0.249153 0.218026 0.519176
809 1 0.262342 0.216124 0.51838
600 1 0.279177 0.220839 0.519672
671 1 0.294877 0.222988 0.519767
678 1 0.304745 0.210642 0.515894
817 1 0.308919 0.223244 0.521083
1105 1 0.319372 0.215931 0.518558
885 1 0.345586 0.207752 0.51731
882 1 0.332977 0.214653 0.519476
818 1 0.345547 0.220115 0.523563
820 1 0.358049 0.213329 0.521824
750 1 0.368798 0.209733 0.518835
888 1 0.360018 0.225522 0.526874
1015 1 0.372186 0.219907 0.524546
684 1 0.395613 0.202205 0.519445
753 1 0.396742 0.213151 0.521986
1030 1 0.381463 0.205006 0.517736
960 1 0.386547 0.218376 0.525288
754 1 0.409269 0.209502 0.522277
544 1 0.421481 0.205687 0.522044
891 1 0.417817 0.219845 0.527005
968 1 0.403339 0.220696 0.527262
824 1 0.435867 0.20325 0.519775
826 1 0.431114 0.213451 0.52537
613 1 0.445994 0.21067 0.523256
1045 1 0.437552 0.225878 0.526879
825 1 0.466567 0.200884 0.516264
752 1 0.45945 0.210353 0.523126
683 1 0.469171 0.223356 0.525691
757 1 0.474168 0.213121 0.520342
680 1 0.454011 0.223852 0.526231
897 1 0.479292 0.202371 0.515643
699 1 0.487793 0.214863 0.519186
3781 1 0.500199 0.217504 0.521561
769 1 0.496514 0.205037 0.515912
571 1 0.13485 0.245755 0.51583
650 1 0.153358 0.248256 0.517516
659 1 0.167978 0.24644 0.517678
732 1 0.19258 0.226039 0.515936
731 1 0.184687 0.237668 0.51849
804 1 0.197776 0.241467 0.52354
652 1 0.177903 0.247684 0.523788
735 1 0.222946 0.223712 0.518502
729 1 0.209074 0.229643 0.520137
730 1 0.210298 0.238875 0.527603
603 1 0.223675 0.232573 0.523875
949 1 0.23276 0.239209 0.528999
740 1 0.238499 0.229029 0.522809
668 1 0.269907 0.23014 0.523462
675 1 0.255799 0.228935 0.525206
883 1 0.288327 0.231507 0.525242
742 1 0.301668 0.231108 0.525411
1040 1 0.320462 0.229888 0.524156
963 1 0.334823 0.231672 0.525046
755 1 0.48349 0.224487 0.524926
3360 1 0.0341765 0.273153 0.515725
715 1 0.0590227 0.265288 0.516521
639 1 0.0725841 0.263999 0.518649
567 1 0.0821881 0.255956 0.514066
431 1 0.0868521 0.265586 0.521324
569 1 0.0955105 0.258428 0.51635
570 1 0.11241 0.257556 0.518598
565 1 0.105114 0.266552 0.523689
574 1 0.119447 0.262589 0.524821
576 1 0.142652 0.254576 0.521855
360 1 0.130392 0.252612 0.521151
787 1 0.132355 0.262097 0.526734
647 1 0.148089 0.264862 0.528395
564 1 0.158972 0.254279 0.523289
641 1 0.191458 0.251969 0.527623
847 1 0.00776899 0.2774 0.514419
776 1 0.0227564 0.282581 0.51681
778 1 0.0111442 0.289059 0.517816
842 1 0.0254308 0.296051 0.525026
772 1 0.036177 0.283706 0.521949
711 1 0.0480872 0.272818 0.51961
3640 1 0.0403859 0.295032 0.526465
709 1 0.0641833 0.274383 0.524105
707 1 0.051477 0.282769 0.524204
642 1 0.067796 0.288809 0.527388
631 1 0.0931772 0.275883 0.526497
703 1 0.0789819 0.277038 0.524748
774 1 0.0119245 0.299645 0.524425
989 1 0.00737775 0.310071 0.52835
724 1 0.222514 0.247334 0.532228
667 1 0.246986 0.239108 0.52924
739 1 0.261089 0.240458 0.529943
811 1 0.276587 0.238728 0.52963
462 1 0.292946 0.241146 0.530179
1009 1 0.282634 0.252011 0.532277
944 1 0.308799 0.242068 0.528316
947 1 0.325099 0.243626 0.529281
893 1 0.340445 0.244072 0.531928
1029 1 0.348285 0.232742 0.529054
823 1 0.367004 0.232733 0.531744
1031 1 0.372383 0.24395 0.535936
1026 1 0.356961 0.244218 0.535132
962 1 0.380575 0.228872 0.530334
1236 1 0.393395 0.230857 0.532585
961 1 0.386309 0.242499 0.537051
969 1 0.401918 0.24225 0.536931
1103 1 0.411089 0.232957 0.533468
748 1 0.418514 0.242587 0.53685
967 1 0.425654 0.231966 0.530926
762 1 0.433304 0.240297 0.534326
973 1 0.446745 0.234126 0.532645
831 1 0.443055 0.24889 0.539696
976 1 0.457435 0.244372 0.537213
1039 1 0.462799 0.235321 0.531929
688 1 0.471895 0.246276 0.537423
904 1 0.477436 0.234166 0.532349
691 1 0.492548 0.233882 0.530213
978 1 0.485016 0.244932 0.535629
900 1 0.501628 0.240738 0.535795
562 1 0.115338 0.274252 0.529528
637 1 0.128142 0.272328 0.531821
788 1 0.145535 0.275222 0.5331
852 1 0.167516 0.258411 0.529627
636 1 0.160723 0.272417 0.534235
862 1 0.182843 0.258872 0.530043
727 1 0.197558 0.260799 0.533287
720 1 0.188318 0.271635 0.536187
863 1 0.174169 0.269991 0.53509
728 1 0.20687 0.251307 0.53044
733 1 0.21403 0.25876 0.536836
943 1 0.218807 0.271204 0.541872
646 1 0.202865 0.270795 0.53885
669 1 0.237969 0.251557 0.532449
940 1 0.228087 0.261059 0.537359
808 1 0.242605 0.263058 0.537585
816 1 0.269086 0.250477 0.53443
738 1 0.252591 0.250135 0.533912
872 1 0.259428 0.2628 0.537743
874 1 0.260167 0.274742 0.542498
588 1 0.275192 0.272935 0.542895
791 1 0.274717 0.263376 0.537357
948 1 0.291063 0.262731 0.537253
1017 1 0.289959 0.272293 0.54213
1087 1 0.299163 0.252705 0.53412
958 1 0.31641 0.251854 0.535232
880 1 0.307831 0.260988 0.537994
1089 1 0.321678 0.267458 0.539567
955 1 0.331754 0.257051 0.534929
1093 1 0.34767 0.252682 0.537811
957 1 0.338649 0.262724 0.540972
1092 1 0.36523 0.256007 0.539363
1167 1 0.355675 0.26164 0.543882
1305 1 0.379294 0.256113 0.54091
1243 1 0.394965 0.252864 0.54132
972 1 0.412691 0.254696 0.541523
980 1 0.428067 0.25263 0.540162
694 1 0.46372 0.255477 0.542957
1111 1 0.4512 0.256889 0.541958
832 1 0.498131 0.249756 0.541927
1117 1 0.480412 0.252933 0.542319
712 1 0.0540054 0.293963 0.52874
644 1 0.0861641 0.289271 0.529612
848 1 0.0924015 0.297162 0.535847
782 1 0.0747842 0.297525 0.534293
722 1 0.103111 0.282572 0.531017
783 1 0.104722 0.291951 0.536761
850 1 0.119499 0.285926 0.535703
861 1 0.114465 0.29992 0.540503
853 1 0.129993 0.293881 0.540329
640 1 0.1351 0.28167 0.537162
718 1 0.142091 0.28945 0.541341
916 1 0.155249 0.282981 0.538171
572 1 0.170708 0.282892 0.53911
719 1 0.183588 0.283851 0.541507
912 1 0.0204046 0.309389 0.528801
992 1 0.0126184 0.320818 0.532996
845 1 0.0346487 0.307679 0.530319
779 1 0.0265961 0.321503 0.533317
986 1 0.041739 0.320252 0.534951
987 1 0.0484674 0.306777 0.53219
919 1 0.0638698 0.302194 0.534144
714 1 0.0529898 0.316236 0.538614
925 1 0.0667604 0.314342 0.541215
1147 1 0.0821395 0.309071 0.539375
1001 1 0.0894187 0.318931 0.54395
1068 1 0.102296 0.308222 0.541581
990 1 0.00455848 0.334661 0.535007
710 1 0.0121874 0.343914 0.539336
851 1 0.0186288 0.331523 0.536617
917 1 0.0328577 0.330321 0.537304
634 1 0.0258131 0.343951 0.540155
786 1 0.0473424 0.328169 0.53943
1138 1 0.0383479 0.342565 0.540991
1062 1 0.0624665 0.327755 0.542218
995 1 0.0018723 0.35771 0.542508
721 1 0.247035 0.2728 0.544587
939 1 0.304594 0.270961 0.543401
1013 1 0.348179 0.274645 0.545795
1012 1 0.369761 0.266876 0.544018
1101 1 0.387218 0.265435 0.543553
890 1 0.402005 0.264391 0.545445
1044 1 0.423455 0.264192 0.544635
1043 1 0.414845 0.271935 0.546706
834 1 0.438966 0.26328 0.543912
898 1 0.445832 0.27607 0.546198
895 1 0.458818 0.267564 0.544965
906 1 0.492294 0.261019 0.545951
975 1 0.475679 0.262226 0.548075
1116 1 0.489155 0.27069 0.551095
855 1 0.155014 0.296304 0.543934
859 1 0.168195 0.298103 0.544289
500 1 0.196564 0.284518 0.543665
713 1 0.181443 0.297949 0.545312
792 1 0.192909 0.295462 0.548367
660 1 0.21218 0.282422 0.545906
801 1 0.223085 0.287438 0.549426
723 1 0.207218 0.292308 0.550782
805 1 0.231457 0.27473 0.543566
867 1 0.240918 0.285646 0.548315
873 1 0.248615 0.29774 0.552754
789 1 0.23303 0.299025 0.551939
661 1 0.255472 0.285555 0.547793
664 1 0.271074 0.283576 0.545913
938 1 0.26618 0.294694 0.550516
800 1 0.279486 0.292393 0.55006
875 1 0.286544 0.28429 0.545127
803 1 0.292619 0.29703 0.551458
881 1 0.299618 0.284857 0.546831
878 1 0.318626 0.276107 0.546004
950 1 0.308495 0.290502 0.551637
807 1 0.324017 0.289993 0.549024
1016 1 0.333061 0.278974 0.547061
810 1 0.346485 0.287005 0.550456
946 1 0.336431 0.297782 0.551898
941 1 0.361881 0.27562 0.548122
1237 1 0.365892 0.291344 0.550168
1098 1 0.376022 0.280163 0.54778
934 1 0.38925 0.276166 0.548186
932 1 0.381253 0.29262 0.550479
1025 1 0.399134 0.292024 0.549622
954 1 0.402149 0.279167 0.54814
1183 1 0.412132 0.288162 0.550918
1047 1 0.43216 0.277212 0.548172
1038 1 0.424605 0.288082 0.549008
1181 1 0.440442 0.288353 0.548104
901 1 0.451223 0.299779 0.550626
1110 1 0.472001 0.277067 0.548857
1036 1 0.456584 0.281141 0.550262
894 1 0.467636 0.29018 0.552901
1042 1 0.484757 0.285437 0.552238
3855 1 0.481287 0.299534 0.55562
838 1 0.499576 0.29521 0.553952
3641 1 0.501044 0.280286 0.552283
1289 1 0.117099 0.311168 0.54515
1202 1 0.106121 0.320128 0.546499
858 1 0.12984 0.306394 0.545286
930 1 0.142847 0.303005 0.546154
1277 1 0.125069 0.32167 0.549659
921 1 0.137905 0.316773 0.54966
793 1 0.154065 0.311272 0.549724
866 1 0.153561 0.321931 0.55554
796 1 0.166994 0.317949 0.552286
857 1 0.172849 0.309727 0.547662
865 1 0.185582 0.31199 0.551838
780 1 0.180337 0.324937 0.555095
876 1 0.195521 0.32263 0.556563
794 1 0.2019 0.308331 0.552996
734 1 0.220613 0.301806 0.552752
868 1 0.216313 0.31205 0.557624
931 1 0.231746 0.312532 0.557445
871 1 0.245533 0.307894 0.557258
1023 1 0.263001 0.306437 0.55571
942 1 0.279508 0.30359 0.554057
736 1 0.290318 0.310611 0.557226
945 1 0.303987 0.305342 0.555623
956 1 0.320756 0.302426 0.555318
1099 1 0.355392 0.300624 0.552889
1084 1 0.365852 0.313927 0.555161
1024 1 0.371065 0.302889 0.554252
1097 1 0.389632 0.303316 0.551602
1171 1 0.382298 0.312732 0.555402
1028 1 0.398207 0.311777 0.555444
1034 1 0.408945 0.303719 0.552156
1037 1 0.421923 0.302118 0.553876
764 1 0.436137 0.300968 0.551366
1179 1 0.432066 0.313248 0.555398
1172 1 0.447129 0.313174 0.555382
965 1 0.461731 0.304039 0.556162
907 1 0.474134 0.312434 0.557269
785 1 0.0528323 0.339766 0.546255
1340 1 0.0669481 0.339812 0.545416
996 1 0.0755147 0.326689 0.545023
790 1 0.0898878 0.329538 0.547723
1272 1 0.0790614 0.341255 0.549912
1275 1 0.0990034 0.340915 0.551044
998 1 0.110769 0.329837 0.55041
1349 1 0.112249 0.345083 0.554088
1209 1 0.142569 0.329646 0.553201
937 1 0.12579 0.335701 0.553242
1133 1 0.134442 0.346116 0.555028
918 1 0.0202028 0.35507 0.543728
923 1 0.0122129 0.365606 0.544948
988 1 0.0335597 0.354702 0.546273
1066 1 0.0433625 0.365264 0.549401
1067 1 0.0285083 0.367787 0.548645
1054 1 0.0480825 0.352882 0.547185
1063 1 0.0483311 0.375587 0.55424
1070 1 0.0570207 0.360915 0.552852
991 1 0.0684746 0.350716 0.551671
1267 1 0.0730831 0.362678 0.555455
1061 1 0.0858301 0.35033 0.553299
999 1 0.103193 0.355863 0.557035
922 1 0.00366256 0.376986 0.547758
985 1 0.0219131 0.377723 0.550531
3984 1 0.0135552 0.389287 0.552073
1065 1 0.000282431 0.394384 0.553213
1126 1 0.0349398 0.379702 0.551792
982 1 0.0268602 0.391286 0.553977
1064 1 0.0389831 0.395405 0.553893
1265 1 0.0626843 0.375553 0.556137
924 1 0.0527453 0.390572 0.554707
3990 1 0.0017511 0.406297 0.556205
1055 1 0.0179569 0.403172 0.55531
920 1 0.0326152 0.405927 0.557978
1060 1 0.027676 0.417721 0.55863
797 1 0.243432 0.323121 0.558704
860 1 0.226851 0.325645 0.56016
799 1 0.258461 0.318031 0.559763
879 1 0.272924 0.318491 0.558857
802 1 0.28627 0.323112 0.562168
951 1 0.301636 0.320317 0.560557
1091 1 0.312954 0.316315 0.557042
1018 1 0.347508 0.312591 0.556029
798 1 0.330933 0.315541 0.556906
1166 1 0.357744 0.324152 0.55678
1100 1 0.3757 0.321882 0.558441
1033 1 0.39122 0.322857 0.558121
1041 1 0.419162 0.314454 0.55541
1096 1 0.408177 0.323161 0.558299
1178 1 0.458667 0.321126 0.557812
3644 1 0.492944 0.309184 0.55828
3576 1 0.494779 0.325147 0.561218
1135 1 0.149367 0.340088 0.558148
856 1 0.161438 0.334528 0.558831
927 1 0.164436 0.346846 0.563834
929 1 0.176911 0.337574 0.561232
726 1 0.190717 0.335727 0.560445
1208 1 0.188888 0.347989 0.565227
795 1 0.20903 0.324649 0.558667
935 1 0.203478 0.341042 0.562006
1140 1 0.220424 0.336899 0.562368
854 1 0.232978 0.349373 0.565907
933 1 0.238859 0.336105 0.562406
1006 1 0.249849 0.348401 0.565633
1005 1 0.254995 0.33334 0.56253
1019 1 0.270419 0.327803 0.564162
1021 1 0.263385 0.341152 0.56566
1002 1 0.278768 0.338869 0.564229
1149 1 0.294506 0.335109 0.56231
1073 1 0.291587 0.349077 0.566868
952 1 0.321558 0.325971 0.560565
1083 1 0.304812 0.343437 0.565595
1168 1 0.310679 0.332062 0.562129
1150 1 0.318853 0.34444 0.564237
1077 1 0.337137 0.325677 0.559434
1069 1 0.330438 0.336428 0.563623
1090 1 0.343671 0.343264 0.565147
1148 1 0.350761 0.331453 0.56312
1239 1 0.368446 0.333546 0.559365
1080 1 0.360237 0.343053 0.563504
1074 1 0.375255 0.342911 0.563744
1027 1 0.383169 0.332683 0.561727
1102 1 0.392038 0.344888 0.562855
1108 1 0.399724 0.333823 0.558686
966 1 0.40421 0.352651 0.562945
1035 1 0.414607 0.339246 0.560336
977 1 0.423359 0.3267 0.558395
1107 1 0.443368 0.328988 0.558243
1184 1 0.43161 0.341229 0.561494
3642 1 0.445299 0.341637 0.564115
1048 1 0.45593 0.333898 0.561048
1050 1 0.46224 0.345576 0.562986
3784 1 0.469502 0.331225 0.560733
1113 1 0.480451 0.324958 0.562895
1049 1 0.490968 0.337819 0.564034
1118 1 0.477815 0.340928 0.562927
1201 1 0.0893103 0.367148 0.557578
997 1 0.125005 0.353694 0.557813
1134 1 0.104999 0.372912 0.559801
1273 1 0.116743 0.366079 0.559133
928 1 0.146539 0.352192 0.560052
1141 1 0.133459 0.361551 0.561449
1076 1 0.14458 0.367682 0.565401
1206 1 0.127209 0.373491 0.5642
870 1 0.175438 0.353164 0.5656
1000 1 0.157456 0.360057 0.565538
1003 1 0.157404 0.374477 0.568436
1287 1 0.170777 0.365611 0.567357
1224 1 0.186601 0.361457 0.568219
1004 1 0.19891 0.36946 0.570791
1219 1 0.216037 0.351937 0.565694
869 1 0.200063 0.357185 0.566751
1082 1 0.211902 0.366037 0.567588
1008 1 0.227449 0.362595 0.56888
864 1 0.240137 0.358995 0.567903
1234 1 0.275096 0.351545 0.567976
1007 1 0.261889 0.355208 0.568072
936 1 0.266652 0.372154 0.570859
1146 1 0.25375 0.366507 0.568121
1086 1 0.282455 0.364158 0.570537
1159 1 0.313502 0.3558 0.567596
1227 1 0.300664 0.358052 0.568179
1303 1 0.311827 0.370691 0.57128
1304 1 0.331827 0.351611 0.568333
1240 1 0.339793 0.360673 0.569379
1020 1 0.35415 0.355104 0.567755
1312 1 0.367406 0.354707 0.566448
1241 1 0.362604 0.367026 0.568306
1441 1 0.349483 0.368889 0.571764
1170 1 0.394114 0.359007 0.567327
1176 1 0.381605 0.352893 0.566057
1032 1 0.378043 0.36593 0.569589
1249 1 0.397787 0.373354 0.570948
1014 1 0.409857 0.3674 0.566704
964 1 0.421211 0.352481 0.564813
1112 1 0.42536 0.3671 0.566396
1095 1 0.439025 0.354056 0.565575
1115 1 0.438317 0.36822 0.567237
1189 1 0.453959 0.356748 0.565027
3856 1 0.451096 0.371817 0.56601
3711 1 0.472105 0.354743 0.56353
1114 1 0.4642 0.368236 0.566381
3860 1 0.494441 0.370757 0.56838
909 1 0.487884 0.355335 0.565307
3994 1 0.481505 0.372017 0.566289
1199 1 0.0660063 0.389426 0.558208
1338 1 0.0775248 0.377519 0.557111
1278 1 0.0934698 0.380408 0.558766
1334 1 0.0786707 0.391189 0.559228
1196 1 0.0920579 0.392959 0.560823
1216 1 0.106931 0.39077 0.561787
1335 1 0.115013 0.398142 0.566898
1210 1 0.115738 0.381488 0.563454
1264 1 0.127452 0.388249 0.567105
1193 1 0.142642 0.381981 0.567972
1215 1 0.141688 0.394845 0.570183
1266 1 0.170976 0.379071 0.571446
1155 1 0.22519 0.376729 0.571609
1145 1 0.252184 0.379201 0.571959
1246 1 0.414454 0.377709 0.569294
1106 1 0.445661 0.384981 0.568491
1185 1 0.428153 0.382103 0.569287
1177 1 0.435525 0.395279 0.571287
1120 1 0.449274 0.397575 0.571484
1187 1 0.458956 0.383994 0.568549
1316 1 0.464899 0.396884 0.570511
3851 1 0.472529 0.381707 0.568003
1330 1 0.489392 0.386729 0.569368
3921 1 0.478949 0.395019 0.570079
1056 1 0.0118468 0.415333 0.557927
1204 1 0.0430301 0.417207 0.56113
3850 1 0.0495699 0.404819 0.558069
1271 1 0.0678425 0.406187 0.560555
1269 1 0.0586475 0.415623 0.562183
1268 1 0.0758078 0.417954 0.562468
1198 1 0.0812598 0.404173 0.561862
1274 1 0.0922506 0.415287 0.564631
1342 1 0.100151 0.404505 0.563966
1331 1 0.105968 0.418357 0.565152
1406 1 0.116166 0.410822 0.567008
1475 1 0.127373 0.404426 0.570099
1276 1 0.127317 0.419241 0.572003
1130 1 0.0130807 0.440663 0.560065
1203 1 0.0202997 0.429906 0.560491
1131 1 0.00423513 0.428398 0.557561
4055 1 0.0025099 0.4469 0.560468
3918 1 0.0259806 0.445971 0.561256
1128 1 0.0350662 0.429185 0.561272
1261 1 0.0429278 0.442527 0.560461
1403 1 0.0508583 0.427214 0.562946
1407 1 0.0686017 0.429485 0.562118
1332 1 0.0587015 0.437655 0.562185
1191 1 0.0672299 0.44986 0.56273
1404 1 0.0988556 0.428404 0.566515
4199 1 0.0829705 0.432306 0.564444
1543 1 0.0827615 0.446172 0.562832
1401 1 0.0962119 0.447588 0.566835
1472 1 0.121476 0.442347 0.569921
1144 1 0.107972 0.439128 0.569454
1408 1 0.115546 0.426823 0.568855
1405 1 0.132385 0.431643 0.571483
3907 1 0.0138538 0.456773 0.562365
1197 1 0.00747403 0.470175 0.563701
1122 1 0.0219832 0.467451 0.562703
1194 1 0.0362291 0.458647 0.560539
1754 1 0.0468162 0.469768 0.564031
1471 1 0.0514712 0.453223 0.56221
4264 1 0.0628953 0.464657 0.563637
1542 1 0.078612 0.46346 0.563625
1402 1 0.0922934 0.461373 0.565758
1411 1 0.110435 0.454429 0.568071
1409 1 0.105923 0.467329 0.567151
4269 1 0.118244 0.470444 0.570089
1615 1 0.125328 0.457785 0.569376
1410 1 0.134659 0.46756 0.572446
4126 1 0.0200744 0.498327 0.565818
3988 1 0.015358 0.481228 0.564797
4053 1 0.00802158 0.497138 0.566865
3981 1 0.00255229 0.484854 0.567459
4339 1 0.0344324 0.476168 0.563209
1613 1 0.0304573 0.487725 0.567243
4408 1 0.0446451 0.484814 0.565441
4409 1 0.0581345 0.478957 0.565366
1684 1 0.0711192 0.491248 0.567165
4128 1 0.0566611 0.493505 0.566264
1333 1 0.0911902 0.474932 0.566941
4410 1 0.0734764 0.476619 0.566725
1616 1 0.0867544 0.487744 0.566479
1412 1 0.0973959 0.495732 0.566055
1687 1 0.121201 0.499747 0.568064
4340 1 0.101692 0.481856 0.568093
1544 1 0.110774 0.490852 0.567012
1617 1 0.122831 0.484472 0.568796
1481 1 0.134681 0.493938 0.570211
1486 1 0.137398 0.479245 0.570942
1075 1 0.211346 0.375199 0.573663
1022 1 0.241392 0.370342 0.570921
1233 1 0.295038 0.371757 0.571157
1373 1 0.324795 0.36421 0.572446
1164 1 0.333857 0.374186 0.573331
1286 1 0.155643 0.386949 0.571312
1213 1 0.167906 0.392264 0.573555
1136 1 0.18513 0.373396 0.571096
1139 1 0.198044 0.383614 0.573208
1291 1 0.182494 0.386505 0.574919
1143 1 0.19778 0.394507 0.576312
1169 1 0.21225 0.387719 0.575317
1079 1 0.224791 0.391446 0.573836
1152 1 0.239845 0.384083 0.57421
1156 1 0.238064 0.397602 0.575913
1218 1 0.253577 0.392715 0.574342
1142 1 0.268715 0.388281 0.573284
1217 1 0.278259 0.378906 0.572296
1297 1 0.277834 0.399573 0.575307
1154 1 0.290018 0.387061 0.574633
1306 1 0.301825 0.395301 0.577541
1223 1 0.304346 0.379975 0.575223
1081 1 0.316241 0.392083 0.576147
1235 1 0.321136 0.381108 0.573128
1242 1 0.331069 0.391181 0.575068
1088 1 0.344902 0.381227 0.573863
1369 1 0.373733 0.376544 0.573292
1160 1 0.359529 0.380138 0.574535
1238 1 0.358571 0.393237 0.574378
1380 1 0.37464 0.390993 0.576861
1250 1 0.387388 0.383682 0.575909
1175 1 0.395692 0.396781 0.574709
1104 1 0.420532 0.3932 0.571598
1302 1 0.406358 0.385022 0.572283
1416 1 0.140598 0.411737 0.572231
1137 1 0.152485 0.403019 0.57255
1205 1 0.158042 0.416889 0.576236
1071 1 0.168581 0.407297 0.575806
1491 1 0.170616 0.423282 0.578086
1011 1 0.182977 0.402648 0.576793
1284 1 0.196771 0.410731 0.577678
1214 1 0.182604 0.415913 0.579972
1353 1 0.196176 0.423089 0.580657
1295 1 0.208188 0.401283 0.577931
1493 1 0.211883 0.416441 0.57868
1221 1 0.22259 0.405028 0.578138
1293 1 0.227167 0.423159 0.581039
1211 1 0.234938 0.411407 0.578922
1010 1 0.250783 0.406444 0.576248
1352 1 0.265001 0.404468 0.57704
1085 1 0.258343 0.419562 0.579054
1228 1 0.273741 0.415819 0.580048
1162 1 0.290653 0.406284 0.577968
1220 1 0.288987 0.421126 0.577885
1153 1 0.302189 0.414055 0.578603
1151 1 0.316097 0.408414 0.578925
1375 1 0.316834 0.422837 0.578995
1174 1 0.344469 0.400269 0.575386
1307 1 0.331818 0.420214 0.578731
1229 1 0.331422 0.40519 0.577442
1231 1 0.345408 0.417439 0.578144
1354 1 0.356163 0.411506 0.576441
1355 1 0.369419 0.406333 0.575899
1376 1 0.373047 0.420146 0.57851
1436 1 0.383409 0.408446 0.578719
1308 1 0.399171 0.41131 0.579178
1377 1 0.387657 0.424415 0.579583
1186 1 0.407441 0.400737 0.574875
1182 1 0.412335 0.416407 0.576192
1449 1 0.424326 0.40812 0.573569
1109 1 0.438821 0.410938 0.572767
1247 1 0.427084 0.42359 0.576464
1257 1 0.45179 0.414653 0.573269
1329 1 0.463875 0.410312 0.575064
1253 1 0.471126 0.422655 0.574537
3991 1 0.477957 0.406473 0.574154
3925 1 0.491198 0.4081 0.572837
4062 1 0.485733 0.421035 0.574816
1341 1 0.14535 0.425761 0.574037
1336 1 0.145305 0.443142 0.575777
1422 1 0.156164 0.434193 0.577431
1343 1 0.173637 0.43976 0.578642
1474 1 0.160048 0.448406 0.577267
1417 1 0.185578 0.433832 0.579683
1495 1 0.200759 0.442051 0.579804
1413 1 0.187316 0.449534 0.580302
1207 1 0.211689 0.428188 0.581966
1485 1 0.215332 0.441641 0.583083
1285 1 0.242331 0.427294 0.580457
1347 1 0.228351 0.436693 0.581057
1425 1 0.243941 0.444812 0.582081
1282 1 0.262191 0.433483 0.581078
1499 1 0.260818 0.447201 0.581521
1078 1 0.278831 0.427523 0.581266
1292 1 0.276086 0.440648 0.582162
1300 1 0.288605 0.435175 0.580776
1281 1 0.286554 0.448926 0.581983
1357 1 0.302385 0.428107 0.580802
1270 1 0.302449 0.441988 0.580754
1158 1 0.315346 0.438147 0.580908
1222 1 0.324329 0.44808 0.57914
1225 1 0.327018 0.433246 0.578515
1161 1 0.341574 0.431566 0.577676
1094 1 0.339025 0.443628 0.579342
1226 1 0.359384 0.426839 0.577059
1163 1 0.354516 0.4412 0.579194
1288 1 0.36717 0.436649 0.581148
1365 1 0.373829 0.448597 0.581704
1489 1 0.379668 0.437002 0.580637
1381 1 0.394354 0.438703 0.581417
1157 1 0.404348 0.426491 0.579625
1245 1 0.417307 0.432166 0.577885
1320 1 0.409312 0.442339 0.580111
1322 1 0.422746 0.444961 0.57802
1317 1 0.444646 0.427972 0.575275
1325 1 0.434504 0.436252 0.577149
1385 1 0.439192 0.448964 0.578728
1251 1 0.45868 0.429119 0.574881
1188 1 0.452555 0.442484 0.576992
1173 1 0.466289 0.44281 0.574779
1180 1 0.479262 0.435461 0.573581
3930 1 0.496479 0.434937 0.576095
1248 1 0.481367 0.450537 0.575139
1345 1 0.135993 0.451769 0.571672
1426 1 0.147971 0.458529 0.57389
1419 1 0.148666 0.472858 0.574221
1421 1 0.160652 0.465891 0.576877
1473 1 0.173856 0.456988 0.578927
1418 1 0.1867 0.46678 0.578392
1484 1 0.199978 0.464547 0.581061
1500 1 0.208424 0.454451 0.582166
1351 1 0.220647 0.464716 0.581295
1483 1 0.225756 0.450344 0.583391
1420 1 0.235264 0.460276 0.580916
1434 1 0.249537 0.45648 0.580664
1346 1 0.235049 0.473055 0.580144
1283 1 0.27368 0.457466 0.579637
1279 1 0.258668 0.466735 0.578712
1569 1 0.27297 0.470696 0.57967
1294 1 0.289152 0.462489 0.580736
1339 1 0.302861 0.456907 0.58192
1280 1 0.300776 0.471672 0.58115
1427 1 0.315576 0.458751 0.581758
1363 1 0.322114 0.47146 0.581087
1428 1 0.3328 0.458513 0.582668
1358 1 0.346591 0.452399 0.580979
1575 1 0.339037 0.46955 0.584267
1230 1 0.35486 0.465758 0.58336
1384 1 0.361365 0.450811 0.581696
1350 1 0.369267 0.465896 0.582327
1506 1 0.400361 0.453814 0.5824
1356 1 0.38577 0.455401 0.582086
1374 1 0.386036 0.469692 0.58226
1309 1 0.400901 0.467349 0.582279
1437 1 0.411831 0.45705 0.581538
1315 1 0.41641 0.471151 0.58228
1165 1 0.425037 0.458537 0.58003
1190 1 0.438407 0.461705 0.579064
1318 1 0.448728 0.473318 0.578805
1388 1 0.45357 0.45759 0.577699
4061 1 0.467912 0.456602 0.57643
1256 1 0.461975 0.471402 0.577175
4063 1 0.493293 0.462718 0.575677
1465 1 0.479536 0.46601 0.575416
1395 1 0.495832 0.448988 0.574896
1551 1 0.148827 0.489741 0.572695
1545 1 0.174213 0.47275 0.57728
1550 1 0.161364 0.48332 0.575185
1414 1 0.173402 0.492195 0.576178
1641 1 0.184093 0.502155 0.576497
1415 1 0.184641 0.483259 0.577509
1431 1 0.19627 0.493352 0.578623
1492 1 0.197357 0.479567 0.579807
1362 1 0.212078 0.476966 0.580562
1496 1 0.210341 0.494216 0.579591
1578 1 0.225057 0.483879 0.579169
1574 1 0.225836 0.4989 0.578897
1348 1 0.238084 0.489776 0.579319
1424 1 0.246768 0.478754 0.57896
1711 1 0.251554 0.492499 0.577952
1512 1 0.272956 0.498691 0.57725
1435 1 0.265374 0.483958 0.579368
1440 1 0.288456 0.498152 0.578181
1429 1 0.286029 0.475029 0.578852
1508 1 0.280548 0.48768 0.579085
1290 1 0.297468 0.484915 0.578614
1432 1 0.309216 0.496734 0.579858
1212 1 0.322412 0.493485 0.581071
1647 1 0.311762 0.481626 0.58184
1498 1 0.331948 0.484416 0.583287
1423 1 0.348932 0.477919 0.583654
1504 1 0.344863 0.488992 0.58414
1299 1 0.361746 0.479522 0.583643
1503 1 0.361969 0.49143 0.583909
1372 1 0.375185 0.480534 0.58408
1460 1 0.378537 0.493681 0.583676
1524 1 0.392981 0.48174 0.584733
1296 1 0.392475 0.495949 0.582175
1452 1 0.41938 0.485102 0.58245
1445 1 0.419359 0.498684 0.580549
1389 1 0.406255 0.480183 0.58354
1232 1 0.4069 0.495732 0.582676
1464 1 0.445017 0.485419 0.580368
1311 1 0.431427 0.475882 0.581
1319 1 0.433685 0.491856 0.579933
1456 1 0.472413 0.481283 0.576243
4074 1 0.471949 0.493893 0.576164
3923 1 0.459597 0.484869 0.577859
1387 1 0.489392 0.475624 0.576599
1455 1 0.486066 0.488427 0.575866
2296 1 0.309669 0.897685 0.428355
2292 1 0.321473 0.89589 0.428072
2303 1 0.336032 0.894909 0.426724
2442 1 0.353133 0.900085 0.426707
2514 1 0.365412 0.898317 0.425834
2375 1 0.379161 0.891512 0.427442
2222 1 0.392811 0.898437 0.426337
2447 1 0.39086 0.880611 0.428568
2443 1 0.4026 0.889679 0.428529
2232 1 0.417248 0.898803 0.427169
2299 1 0.433675 0.891753 0.428002
2444 1 0.284259 0.922186 0.425654
2430 1 0.296953 0.903994 0.429073
2436 1 0.296821 0.918227 0.426968
2367 1 0.311501 0.912674 0.426085
2435 1 0.326771 0.910244 0.425559
2577 1 0.343644 0.907076 0.42376
2500 1 0.338664 0.923484 0.422259
2434 1 0.360345 0.910835 0.422619
2511 1 0.371114 0.918671 0.422489
2576 1 0.35542 0.92176 0.420087
2366 1 0.377556 0.905053 0.423737
2302 1 0.390455 0.909249 0.421998
2441 1 0.385661 0.92197 0.422436
2223 1 0.406005 0.906452 0.425072
2374 1 0.403079 0.918343 0.422142
2373 1 0.419153 0.913083 0.424282
2518 1 0.431329 0.903671 0.425394
5259 1 0.43586 0.918618 0.423653
2516 1 0.447732 0.908127 0.424321
5251 1 0.451498 0.922561 0.423789
2310 1 0.461029 0.910598 0.427653
5260 1 0.477276 0.911772 0.427132
5182 1 0.492516 0.913545 0.426754
2635 1 0.27156 0.926326 0.426351
2501 1 0.266696 0.93819 0.425583
2634 1 0.253264 0.934019 0.428383
2489 1 0.257818 0.948846 0.425709
2620 1 0.275283 0.949238 0.424329
2697 1 0.295535 0.932946 0.422194
2569 1 0.280508 0.935701 0.423009
2431 1 0.290446 0.945641 0.42213
2372 1 0.323484 0.924382 0.42401
2371 1 0.308319 0.929392 0.423856
2651 1 0.304103 0.943455 0.421286
2510 1 0.318623 0.941668 0.420872
2364 1 0.33287 0.935731 0.421302
2438 1 0.346943 0.935295 0.418835
2785 1 0.364482 0.933573 0.419722
2437 1 0.358095 0.946942 0.418707
2645 1 0.371713 0.946457 0.419894
2446 1 0.395505 0.929247 0.420978
2520 1 0.377809 0.933908 0.419654
2787 1 0.388402 0.942171 0.419831
2517 1 0.414435 0.929103 0.422189
2583 1 0.405434 0.938861 0.419277
2647 1 0.421063 0.944614 0.42055
2582 1 0.427202 0.930094 0.423025
5111 1 0.434095 0.945906 0.420215
2378 1 0.441944 0.933477 0.421853
5113 1 0.449005 0.949535 0.419078
2448 1 0.465403 0.925863 0.423472
5333 1 0.455659 0.937742 0.421012
5188 1 0.465073 0.949879 0.418559
5256 1 0.472599 0.937954 0.420677
5050 1 0.482818 0.926996 0.425026
5186 1 0.499495 0.926271 0.424064
2727 1 0.491651 0.938957 0.421715
110 1 0.244961 0.947361 0.427234
2486 1 0.239923 0.966027 0.429339
2566 1 0.25256 0.96147 0.426533
2711 1 0.266819 0.963416 0.42428
2570 1 0.29667 0.971895 0.422602
2507 1 0.284247 0.961733 0.422383
2575 1 0.278784 0.974527 0.423548
2581 1 0.299458 0.956142 0.421254
2439 1 0.31503 0.957604 0.420385
2504 1 0.310086 0.969128 0.421654
2638 1 0.328619 0.956112 0.419629
2655 1 0.322577 0.96841 0.418811
2578 1 0.339183 0.964889 0.419209
2509 1 0.343329 0.951588 0.418836
2789 1 0.355819 0.962631 0.417831
62 1 0.370846 0.960544 0.417598
2723 1 0.365453 0.973077 0.419489
2579 1 0.347833 0.975917 0.419826
2783 1 0.385837 0.959513 0.419946
63 1 0.379027 0.973714 0.419428
2648 1 0.399946 0.951774 0.419571
2584 1 0.398318 0.96744 0.419237
2640 1 0.411712 0.954883 0.417908
2508 1 0.412472 0.968089 0.417126
5114 1 0.426141 0.959165 0.419965
2587 1 0.43967 0.958368 0.419291
2512 1 0.433152 0.971779 0.418566
2585 1 0.447733 0.971438 0.415684
2586 1 0.45578 0.959164 0.415567
2656 1 0.469681 0.962848 0.417168
5257 1 0.481231 0.949187 0.417564
2652 1 0.4974 0.950575 0.41861
2519 1 0.484579 0.963226 0.418038
2450 1 0.496205 0.974445 0.416779
2558 1 0.246921 0.979195 0.429493
2701 1 0.260199 0.976261 0.427292
2642 1 0.273013 0.984444 0.42705
2709 1 0.284001 0.998652 0.427708
2571 1 0.289235 0.987157 0.425692
60 1 0.298952 0.997683 0.427047
2368 1 0.317699 0.981051 0.421632
2636 1 0.303623 0.983602 0.423642
2643 1 0.314814 0.994754 0.424429
2779 1 0.333077 0.977456 0.420327
2503 1 0.330821 0.991816 0.422182
2432 1 0.345184 0.987308 0.421406
197 1 0.359514 0.989235 0.420503
53 1 0.373498 0.986813 0.420818
2657 1 0.390298 0.983151 0.420291
2717 1 0.383818 0.997273 0.421716
59 1 0.400888 0.995405 0.421108
2653 1 0.422335 0.980198 0.417857
61 1 0.405619 0.981265 0.418291
130 1 0.417559 0.994411 0.419231
2716 1 0.436994 0.983094 0.415891
134 1 0.4347 0.995487 0.418536
135 1 0.465263 0.977508 0.416676
5325 1 0.452092 0.983754 0.417147
2725 1 0.450204 0.998214 0.415847
2794 1 0.46767 0.989575 0.415507
2792 1 0.480435 0.976799 0.416427
2721 1 0.487163 0.989944 0.416818
2788 1 0.477473 1.00108 0.415632
2567 1 0.348348 0.846677 0.440202
2492 1 0.334761 0.847036 0.443184
2143 1 0.362671 0.843971 0.438704
2427 1 0.368669 0.834677 0.441853
2288 1 0.355772 0.834436 0.442798
2300 1 0.396109 0.836737 0.440153
2307 1 0.381266 0.843136 0.438666
2229 1 0.41941 0.847258 0.43947
2238 1 0.406323 0.849483 0.439854
5118 1 0.409653 0.83529 0.442764
2363 1 0.433739 0.846694 0.44113
4911 1 0.450467 0.846586 0.439954
5184 1 0.468712 0.845002 0.439865
4979 1 0.497173 0.849137 0.440684
2308 1 0.485152 0.846792 0.441318
2483 1 0.247563 0.872194 0.440859
2625 1 0.261457 0.864695 0.44151
2559 1 0.274252 0.871524 0.436791
2142 1 0.29056 0.852158 0.442774
2490 1 0.274714 0.85847 0.442326
2362 1 0.287046 0.864795 0.438875
2359 1 0.299416 0.872123 0.435578
2360 1 0.323671 0.855821 0.438804
2496 1 0.307032 0.858851 0.440044
2356 1 0.316825 0.86892 0.437001
2428 1 0.329797 0.870493 0.433845
2289 1 0.337562 0.856693 0.438215
2285 1 0.34442 0.869624 0.434537
2283 1 0.35518 0.858651 0.437858
2354 1 0.366783 0.864541 0.433454
2429 1 0.372927 0.85261 0.436205
2295 1 0.39541 0.852469 0.436066
2498 1 0.39782 0.866112 0.430713
2358 1 0.383741 0.860296 0.433824
2513 1 0.4116 0.859523 0.435317
2377 1 0.42271 0.867841 0.432242
2298 1 0.409394 0.875104 0.430282
5255 1 0.427052 0.85915 0.437685
5115 1 0.441978 0.854967 0.437816
4972 1 0.440648 0.867319 0.435035
2650 1 0.453639 0.86318 0.435698
2376 1 0.463763 0.854238 0.435538
5043 1 0.471216 0.87036 0.434126
5126 1 0.477732 0.85826 0.435422
5123 1 0.492224 0.860339 0.436785
5045 1 0.483442 0.87305 0.435549
2694 1 0.235139 0.884289 0.443543
2693 1 0.231056 0.897291 0.440512
34 1 0.24624 0.899889 0.436915
2572 1 0.248037 0.88537 0.437542
2440 1 0.261829 0.878027 0.437904
2565 1 0.260298 0.891972 0.435431
2433 1 0.273966 0.885968 0.434951
2769 1 0.286392 0.879443 0.434766
2703 1 0.287375 0.8923 0.431877
2506 1 0.299788 0.88705 0.431178
2370 1 0.312259 0.88089 0.431442
2353 1 0.338898 0.881316 0.430724
2361 1 0.325697 0.882409 0.429294
2369 1 0.367237 0.885294 0.428401
2365 1 0.357558 0.876851 0.431247
2515 1 0.351207 0.887847 0.428663
2449 1 0.37542 0.873634 0.430356
2445 1 0.419105 0.885576 0.429756
5112 1 0.43107 0.880153 0.432718
2304 1 0.447328 0.892214 0.428959
5042 1 0.444125 0.878227 0.432313
2379 1 0.46018 0.893358 0.429407
2231 1 0.45618 0.87723 0.432825
5194 1 0.474274 0.900176 0.430155
5048 1 0.46877 0.8849 0.431988
5185 1 0.48859 0.898586 0.428841
5127 1 0.481267 0.884943 0.432734
2305 1 0.498009 0.88645 0.431516
2934 1 0.0125199 0.922166 0.439322
2866 1 0.00440747 0.906019 0.441325
2737 1 0.01908 0.906758 0.441461
2662 1 0.0273922 0.918571 0.441569
2766 1 0.214927 0.907712 0.443621
35 1 0.210527 0.920323 0.441148
33 1 0.225429 0.914876 0.437835
2624 1 0.238126 0.912221 0.437177
2695 1 0.247858 0.921905 0.433419
2698 1 0.272185 0.912721 0.429903
111 1 0.262333 0.922072 0.430706
2560 1 0.272685 0.899272 0.433796
2683 1 0.2585 0.907448 0.433949
2564 1 0.283916 0.907805 0.430242
71 1 0.00682235 0.935596 0.437597
142 1 0.019164 0.934231 0.439359
5525 1 0.0114153 0.948793 0.435432
5597 1 0.0262431 0.946512 0.436693
2667 1 0.0411134 0.947607 0.440659
2 1 0.0330195 0.933755 0.441145
2668 1 0.0555304 0.947869 0.441609
2536 1 0.0719521 0.945644 0.439823
2609 1 0.0882589 0.946998 0.440607
2745 1 0.0964618 0.932805 0.441756
2741 1 0.103222 0.944951 0.441428
2534 1 0.112674 0.929749 0.443276
2759 1 0.134814 0.947366 0.441383
90 1 0.149157 0.944275 0.439878
2607 1 0.172449 0.9288 0.443066
2756 1 0.165982 0.943116 0.440685
30 1 0.155827 0.93131 0.442777
2747 1 0.18728 0.931664 0.440449
26 1 0.179655 0.944166 0.440331
2752 1 0.197961 0.943045 0.438107
101 1 0.218424 0.927784 0.438018
109 1 0.201649 0.928471 0.438903
38 1 0.211097 0.943147 0.435092
2562 1 0.230737 0.927837 0.434139
2762 1 0.224524 0.941319 0.432632
2557 1 0.24049 0.936721 0.430367
149 1 0.00182198 0.960814 0.431594
217 1 0.0167858 0.960492 0.43354
2938 1 0.0324124 0.962209 0.437087
2939 1 0.0238677 0.977008 0.436128
2673 1 0.0467805 0.963036 0.439838
79 1 0.0633508 0.958462 0.437986
2732 1 0.0563236 0.97443 0.437073
2739 1 0.070786 0.971487 0.437031
2758 1 0.0810041 0.960174 0.439243
2743 1 0.0961227 0.958896 0.438656
2672 1 0.0912309 0.971763 0.437019
2755 1 0.111907 0.957209 0.438859
2539 1 0.107638 0.97222 0.437335
94 1 0.122457 0.970957 0.436308
2750 1 0.125764 0.957826 0.441258
100 1 0.143276 0.960518 0.439284
173 1 0.136135 0.969233 0.436291
166 1 0.152816 0.970999 0.436973
2676 1 0.158533 0.956324 0.438846
2744 1 0.165807 0.972395 0.438827
24 1 0.171886 0.956828 0.438591
37 1 0.188856 0.955256 0.438707
32 1 0.18083 0.968927 0.436935
158 1 0.194063 0.970087 0.437258
39 1 0.203504 0.956799 0.436357
2773 1 0.220228 0.9566 0.432951
41 1 0.212394 0.967573 0.43323
2768 1 0.232083 0.950681 0.430003
2765 1 0.227581 0.969282 0.432093
75 1 0.0118306 0.974348 0.43167
2935 1 0.00488299 0.990537 0.429509
73 1 0.0185323 0.987561 0.433173
1 1 0.0410257 0.974381 0.43609
81 1 0.0333254 0.987522 0.434182
143 1 0.0465803 0.987496 0.435022
2740 1 0.0551541 0.999819 0.435155
2736 1 0.0643064 0.985359 0.436094
74 1 0.0712737 0.996685 0.435251
84 1 0.0803657 0.984885 0.436393
16 1 0.0956773 0.984295 0.435573
6 1 0.0886628 0.995599 0.434264
95 1 0.105465 0.997706 0.433315
2738 1 0.1151 0.98369 0.435213
88 1 0.120503 0.998124 0.43523
165 1 0.130331 0.984655 0.435416
99 1 0.145651 0.984931 0.435797
86 1 0.135445 0.999537 0.435631
233 1 0.160623 0.984263 0.436338
25 1 0.174108 0.985212 0.435853
87 1 0.149329 0.999071 0.434437
107 1 0.189073 0.981747 0.435325
2748 1 0.181977 0.99692 0.435095
161 1 0.199622 0.993684 0.433439
235 1 0.202507 0.978422 0.433552
181 1 0.218198 0.982963 0.433344
96 1 0.212902 0.998147 0.43232
36 1 0.232443 0.981451 0.431442
28 1 0.226884 0.993596 0.433561
254 1 0.240445 0.99317 0.431176
2632 1 0.256929 0.989581 0.430652
2704 1 0.269321 0.996528 0.430059
2696 1 0.241304 0.824332 0.45625
2641 1 0.264705 0.822916 0.454255
2485 1 0.274241 0.814105 0.454516
2421 1 0.285313 0.824502 0.456586
2352 1 0.287615 0.806571 0.457436
2286 1 0.302846 0.819104 0.456197
2357 1 0.31628 0.821612 0.451935
2216 1 0.327636 0.814728 0.454914
2140 1 0.342157 0.810476 0.453735
2155 1 0.337053 0.8242 0.450564
2290 1 0.351125 0.821852 0.4477
2218 1 0.363798 0.813732 0.451974
2291 1 0.367213 0.824428 0.446816
2221 1 0.374706 0.815382 0.453048
2235 1 0.38249 0.82184 0.449013
2293 1 0.395436 0.817175 0.451274
2497 1 0.387006 0.811486 0.455325
2228 1 0.413495 0.815585 0.45292
2166 1 0.402514 0.81021 0.457738
4971 1 0.419607 0.823977 0.447764
2234 1 0.405532 0.825346 0.447409
2237 1 0.444324 0.812408 0.454622
2168 1 0.428742 0.814185 0.452997
4973 1 0.436782 0.823994 0.448953
5187 1 0.451585 0.82297 0.449376
4841 1 0.461059 0.815469 0.453233
5055 1 0.499917 0.822763 0.450175
5116 1 0.475914 0.815452 0.453915
2240 1 0.492981 0.811631 0.454963
2628 1 0.194617 0.845367 0.455485
2475 1 0.207411 0.844311 0.454356
2417 1 0.216829 0.832225 0.454709
2488 1 0.225447 0.847197 0.453036
2552 1 0.241408 0.839254 0.453599
2422 1 0.229306 0.833456 0.454872
2629 1 0.25191 0.83091 0.452415
2767 1 0.264708 0.839113 0.450315
2553 1 0.251516 0.846374 0.44842
2556 1 0.27686 0.832861 0.451409
2573 1 0.279134 0.84733 0.447954
2077 1 0.298693 0.829364 0.45124
2426 1 0.291204 0.839481 0.448534
2487 1 0.317231 0.845695 0.443973
2637 1 0.303872 0.8435 0.444718
2278 1 0.313569 0.834396 0.448437
2355 1 0.327447 0.834693 0.446325
2160 1 0.340512 0.833467 0.444695
2424 1 0.380389 0.832319 0.443797
5044 1 0.393158 0.829568 0.446508
2099 1 0.426416 0.835572 0.442429
4904 1 0.442347 0.834523 0.444087
2306 1 0.468534 0.827534 0.449425
2239 1 0.460301 0.836204 0.444958
4914 1 0.482246 0.829319 0.449915
4844 1 0.475541 0.836481 0.44426
5121 1 0.493741 0.83594 0.444609
5450 1 0.0118178 0.868693 0.455248
2403 1 0.133323 0.867779 0.45668
2680 1 0.154128 0.866972 0.45497
2757 1 0.169933 0.872542 0.453776
2616 1 0.167067 0.85557 0.455909
2761 1 0.181136 0.866577 0.454299
2685 1 0.19815 0.860077 0.454424
2610 1 0.183892 0.852605 0.455176
2484 1 0.223853 0.862903 0.448621
2473 1 0.208809 0.872115 0.450336
2692 1 0.211286 0.85688 0.452119
2555 1 0.234649 0.868734 0.44435
2690 1 0.237472 0.853516 0.449273
2639 1 0.247533 0.858017 0.444185
2631 1 0.264177 0.853206 0.446469
5451 1 0.00762545 0.880457 0.45003
5524 1 0.0159471 0.891761 0.444786
5526 1 0.0237114 0.88326 0.450145
5 1 0.0298114 0.895805 0.446564
2671 1 0.037738 0.888752 0.450387
2596 1 0.0451055 0.897439 0.447654
5459 1 0.0344025 0.875282 0.454236
5528 1 0.0485026 0.880607 0.455617
2598 1 0.064923 0.878824 0.455458
2601 1 0.057976 0.889611 0.449676
2604 1 0.0719012 0.895051 0.452802
2529 1 0.0784432 0.883964 0.455777
2753 1 0.0869481 0.896049 0.451617
2460 1 0.0960137 0.886535 0.454755
2544 1 0.111537 0.879211 0.455399
2320 1 0.105352 0.894108 0.452735
2535 1 0.119576 0.893889 0.452184
2472 1 0.14341 0.878505 0.453968
2464 1 0.124702 0.881083 0.455152
2751 1 0.135784 0.890591 0.451531
27 1 0.151192 0.889863 0.450159
2679 1 0.159597 0.880506 0.452589
167 1 0.167342 0.890776 0.450383
2548 1 0.192425 0.890639 0.449986
2611 1 0.19315 0.8761 0.452249
2605 1 0.178839 0.882027 0.452706
2613 1 0.178825 0.894913 0.44845
2691 1 0.21938 0.891737 0.444155
2689 1 0.221181 0.877356 0.447168
2551 1 0.206988 0.887431 0.446756
7 1 0.0427965 0.922121 0.444186
2663 1 0.0354731 0.908334 0.443981
5600 1 0.0495432 0.910184 0.445503
2670 1 0.05887 0.921175 0.444481
2606 1 0.0640001 0.905567 0.449386
2537 1 0.0732054 0.918868 0.446175
2675 1 0.0806772 0.908643 0.449975
2608 1 0.0899212 0.920959 0.446727
2612 1 0.0979506 0.905983 0.450586
2540 1 0.111064 0.904198 0.448971
2684 1 0.103285 0.916833 0.447117
2754 1 0.118394 0.916193 0.447324
2542 1 0.128024 0.90389 0.449089
2760 1 0.140628 0.904748 0.44841
2681 1 0.134489 0.917126 0.446695
2466 1 0.148321 0.918026 0.445203
2749 1 0.162824 0.917287 0.444411
29 1 0.17189 0.908518 0.445272
11 1 0.157162 0.902437 0.448847
2688 1 0.194409 0.916173 0.44274
23 1 0.187603 0.903694 0.445078
2764 1 0.181215 0.918327 0.443549
31 1 0.2022 0.901206 0.444493
2669 1 0.0483014 0.934092 0.443779
2731 1 0.0663163 0.934032 0.443514
2678 1 0.0799498 0.93163 0.443437
2614 1 0.118715 0.943206 0.442524
2677 1 0.140117 0.933276 0.443979
2538 1 0.12722 0.930566 0.44545
2423 1 0.246568 0.773756 0.470935
2617 1 0.199769 0.799966 0.468843
2480 1 0.181306 0.796082 0.470713
2554 1 0.223054 0.791166 0.466401
2342 1 0.202802 0.786232 0.47001
2687 1 0.212363 0.798946 0.464729
2621 1 0.215765 0.778774 0.470935
2622 1 0.233181 0.796174 0.46342
2418 1 0.232101 0.779619 0.468974
2413 1 0.246064 0.785235 0.466349
2561 1 0.247221 0.800318 0.462688
2568 1 0.261683 0.79104 0.463018
2491 1 0.263014 0.778194 0.468302
2350 1 0.277521 0.773636 0.469883
2212 1 0.289764 0.789702 0.461911
2425 1 0.274701 0.785444 0.464517
2138 1 0.290442 0.778697 0.468232
2420 1 0.27637 0.796362 0.459077
2063 1 0.317046 0.784613 0.466629
2206 1 0.302401 0.785895 0.466395
2351 1 0.314434 0.795096 0.461524
2076 1 0.333145 0.779097 0.469613
2215 1 0.340985 0.799091 0.460124
2284 1 0.34589 0.785184 0.466178
2068 1 0.331261 0.789442 0.462713
2156 1 0.352894 0.794201 0.46241
2170 1 0.369595 0.792392 0.462309
2159 1 0.362404 0.785191 0.467134
2220 1 0.353472 0.777405 0.472419
2301 1 0.38207 0.793922 0.464068
2236 1 0.397205 0.789926 0.46706
1960 1 0.379243 0.783004 0.470185
4977 1 0.40608 0.799378 0.46294
4833 1 0.414467 0.789398 0.467325
2153 1 0.426955 0.795098 0.463686
4621 1 0.429135 0.788906 0.470638
5053 1 0.442322 0.795399 0.467091
4554 1 0.450244 0.787148 0.470166
4974 1 0.463423 0.782377 0.469366
2163 1 0.460525 0.795463 0.465967
4763 1 0.47488 0.793621 0.462884
4982 1 0.488841 0.779995 0.469294
4836 1 0.476457 0.785089 0.468941
4850 1 0.48927 0.792176 0.463185
2321 1 0.124874 0.822631 0.466767
2397 1 0.134436 0.815097 0.469588
2401 1 0.148953 0.815718 0.467502
2479 1 0.162598 0.816339 0.466318
2547 1 0.173687 0.806292 0.468264
2546 1 0.152005 0.824629 0.461978
2481 1 0.181201 0.818893 0.46205
2471 1 0.187456 0.80682 0.466719
2474 1 0.195109 0.818583 0.461246
2619 1 0.206713 0.812028 0.463676
2615 1 0.211042 0.82081 0.459516
2618 1 0.222454 0.808041 0.461512
2623 1 0.225687 0.820448 0.457482
2563 1 0.236456 0.810699 0.459217
2770 1 0.250328 0.815426 0.458648
2626 1 0.26233 0.806315 0.458694
2144 1 0.313724 0.810065 0.45715
2282 1 0.301302 0.800754 0.460035
2005 1 0.326497 0.801608 0.458884
2499 1 0.363816 0.803543 0.457906
2297 1 0.351626 0.80514 0.457218
2224 1 0.391005 0.801302 0.460807
2287 1 0.376147 0.804676 0.458648
2230 1 0.416565 0.806169 0.458364
4919 1 0.43483 0.803598 0.459505
4909 1 0.451488 0.80365 0.461038
4903 1 0.464621 0.805066 0.458793
4840 1 0.484129 0.80329 0.459407
5250 1 0.0184027 0.833602 0.469835
5457 1 0.0117534 0.846422 0.464268
2451 1 0.00326306 0.834957 0.467773
5456 1 0.033098 0.834634 0.470253
5599 1 0.043049 0.846034 0.465811
2523 1 0.0269567 0.845195 0.466061
5313 1 0.0483281 0.835445 0.471255
2454 1 0.0575472 0.84728 0.466597
2666 1 0.0728143 0.843093 0.467237
2462 1 0.0892062 0.840087 0.467813
2392 1 0.0977816 0.850905 0.464519
2457 1 0.0944174 0.827528 0.470566
2532 1 0.11045 0.827641 0.467851
2385 1 0.109342 0.839815 0.464911
2398 1 0.121338 0.836535 0.462979
2463 1 0.124106 0.849117 0.45927
2394 1 0.13576 0.840103 0.460635
2266 1 0.137081 0.825574 0.463039
2541 1 0.171104 0.842413 0.45838
2543 1 0.167677 0.827916 0.461587
2468 1 0.152963 0.839244 0.459385
2465 1 0.183953 0.834026 0.457654
2493 1 0.199773 0.831161 0.459332
2592 1 0.00640107 0.857906 0.458646
5447 1 0.0211799 0.85494 0.460716
3 1 0.0444151 0.869176 0.459343
2734 1 0.0269063 0.86703 0.458563
2661 1 0.0364255 0.854897 0.461962
2533 1 0.0494877 0.857728 0.462288
2531 1 0.0594636 0.867605 0.459293
2664 1 0.0680715 0.859674 0.462362
2528 1 0.0882165 0.876247 0.457633
2733 1 0.0755989 0.869794 0.459075
2393 1 0.0817203 0.851858 0.464536
2603 1 0.0915122 0.862198 0.460885
2399 1 0.118811 0.865561 0.458145
2602 1 0.101092 0.871329 0.458066
2395 1 0.109698 0.855576 0.460138
2599 1 0.139865 0.854665 0.457656
2682 1 0.15345 0.854142 0.457766
2348 1 0.213487 0.74373 0.485228
2271 1 0.228002 0.74631 0.483106
2339 1 0.242016 0.747941 0.482495
2343 1 0.250256 0.740397 0.486027
2205 1 0.29253 0.748329 0.483753
2139 1 0.306953 0.748971 0.482888
2026 1 0.349722 0.748539 0.485541
2058 1 0.171407 0.769102 0.482844
2545 1 0.183644 0.756166 0.484334
2419 1 0.187149 0.767859 0.478931
2411 1 0.197701 0.750676 0.483629
2202 1 0.201457 0.762527 0.478488
2341 1 0.213429 0.755649 0.479347
2346 1 0.216659 0.766459 0.472587
2340 1 0.202409 0.773886 0.473953
2550 1 0.231168 0.767272 0.472696
2347 1 0.228651 0.75694 0.477999
2416 1 0.241079 0.760414 0.476908
2494 1 0.257029 0.767087 0.47399
2412 1 0.255773 0.754879 0.479783
2495 1 0.26831 0.755254 0.480725
2344 1 0.271015 0.767456 0.475804
2074 1 0.288486 0.767093 0.475339
2280 1 0.299776 0.760497 0.477524
2211 1 0.282081 0.758437 0.480606
2073 1 0.302485 0.77316 0.472833
2080 1 0.317764 0.771462 0.47151
2214 1 0.313153 0.762399 0.478559
1931 1 0.323478 0.755501 0.481216
2281 1 0.335619 0.751281 0.483458
2217 1 0.329966 0.763368 0.476753
2075 1 0.34406 0.761484 0.479166
2088 1 0.342982 0.771151 0.47384
2294 1 0.361252 0.767296 0.475306
4902 1 0.372008 0.76469 0.479249
2083 1 0.357813 0.75773 0.481756
2081 1 0.379796 0.756469 0.484257
2225 1 0.384508 0.771127 0.478414
4908 1 0.391586 0.762352 0.482598
2169 1 0.401884 0.769131 0.478985
1884 1 0.414449 0.772026 0.479494
2084 1 0.405599 0.759533 0.484811
4835 1 0.422582 0.759874 0.483383
2165 1 0.430699 0.769973 0.479585
4912 1 0.445108 0.766254 0.478327
4691 1 0.441397 0.758776 0.484446
4704 1 0.465298 0.765848 0.478016
4975 1 0.455938 0.773699 0.474521
4764 1 0.475251 0.756285 0.483657
4622 1 0.45758 0.759553 0.483451
4907 1 0.493544 0.771769 0.473801
4910 1 0.476658 0.77343 0.473658
4917 1 0.489844 0.751226 0.485001
2096 1 0.483031 0.762957 0.478933
4906 1 0.49998 0.763789 0.478828
2459 1 0.0546412 0.799554 0.482603
2404 1 0.0881482 0.797662 0.482889
2332 1 0.114782 0.786249 0.485116
2335 1 0.104968 0.795764 0.480481
2326 1 0.12398 0.794673 0.481061
2477 1 0.137592 0.796909 0.478093
2414 1 0.143447 0.785338 0.48323
2407 1 0.153359 0.796908 0.479029
2410 1 0.167014 0.79196 0.475482
2270 1 0.161463 0.780843 0.481616
2549 1 0.17524 0.779311 0.476648
2405 1 0.189891 0.780953 0.474139
2167 1 0.370782 0.77651 0.475116
2082 1 0.392679 0.779273 0.473927
2233 1 0.408038 0.781527 0.472905
4832 1 0.421151 0.780608 0.474679
4980 1 0.438897 0.780166 0.473348
2387 1 0.0219942 0.804175 0.483077
2458 1 0.0144799 0.811321 0.4784
2524 1 0.00570998 0.802273 0.48332
5390 1 0.00892257 0.824714 0.473238
2525 1 0.0228811 0.823363 0.475355
2317 1 0.0400246 0.801479 0.483154
2600 1 0.0385066 0.825327 0.474191
5249 1 0.0315524 0.812125 0.478726
2526 1 0.0457468 0.810955 0.479533
2324 1 0.0725494 0.800009 0.481687
2246 1 0.0540848 0.819943 0.475269
2390 1 0.0634032 0.808798 0.480395
2389 1 0.0698285 0.819939 0.475629
2530 1 0.0887975 0.820209 0.476423
2386 1 0.0814999 0.80852 0.478643
2402 1 0.117641 0.814112 0.472826
2259 1 0.0991777 0.809388 0.478206
2319 1 0.104964 0.81888 0.47299
2260 1 0.114324 0.802329 0.477653
2467 1 0.144626 0.806465 0.474292
2331 1 0.128397 0.80622 0.47593
2408 1 0.158638 0.805547 0.471024
2388 1 0.062934 0.832672 0.472166
2527 1 0.0798496 0.830932 0.472988
2128 1 0.19173 0.725054 0.499482
2201 1 0.219787 0.717476 0.497358
2277 1 0.232181 0.714131 0.500388
1992 1 0.233348 0.72615 0.495622
2208 1 0.248372 0.72075 0.497671
2132 1 0.267567 0.722262 0.495957
1910 1 0.124801 0.745648 0.497748
2268 1 0.147811 0.741259 0.497164
2123 1 0.163914 0.735877 0.497049
2197 1 0.158837 0.748678 0.493829
2130 1 0.176863 0.729296 0.498423
2269 1 0.175814 0.740782 0.492227
2336 1 0.192423 0.733711 0.493352
2131 1 0.189257 0.744449 0.488567
2062 1 0.205253 0.724957 0.496439
2275 1 0.202819 0.736975 0.489167
2409 1 0.214645 0.732625 0.491748
2204 1 0.24276 0.73148 0.490545
2415 1 0.230964 0.737619 0.489336
2349 1 0.26592 0.742422 0.485358
2279 1 0.257205 0.730221 0.491489
2209 1 0.27801 0.743811 0.485385
2003 1 0.284551 0.724229 0.49643
2141 1 0.27507 0.730873 0.491046
2135 1 0.288598 0.736223 0.48959
2065 1 0.298011 0.72899 0.495466
2147 1 0.310886 0.726143 0.499339
2213 1 0.313048 0.737369 0.493263
2064 1 0.3205 0.746804 0.486291
2070 1 0.302216 0.742113 0.489589
2162 1 0.342332 0.730029 0.49927
2079 1 0.328002 0.727735 0.498663
2134 1 0.328316 0.738868 0.491488
2161 1 0.344198 0.739953 0.490449
2219 1 0.360036 0.739241 0.491839
2227 1 0.357539 0.729935 0.498865
4976 1 0.375552 0.739339 0.496077
2154 1 0.368565 0.748225 0.487962
4552 1 0.398258 0.729324 0.49949
2157 1 0.38325 0.745901 0.489895
2087 1 0.391934 0.739974 0.494765
2094 1 0.412831 0.732258 0.497206
1956 1 0.405436 0.742817 0.493762
2097 1 0.424714 0.740473 0.494856
2158 1 0.417726 0.749786 0.489381
2027 1 0.440896 0.739918 0.494452
2098 1 0.432463 0.749227 0.488957
2086 1 0.430551 0.729429 0.498313
1959 1 0.464399 0.728976 0.499132
4762 1 0.4498 0.747118 0.488097
2030 1 0.457618 0.738335 0.495338
1818 1 0.464978 0.746793 0.490032
4692 1 0.47475 0.737708 0.493845
4630 1 0.499936 0.725877 0.498916
4839 1 0.49904 0.740505 0.489085
4697 1 0.489424 0.735231 0.494291
4996 1 0.479967 0.745982 0.488278
5245 1 0.0207294 0.773776 0.49638
2313 1 0.00761735 0.77075 0.497737
2322 1 0.0334459 0.773014 0.495971
2400 1 0.0471308 0.773931 0.495847
2325 1 0.0548811 0.760843 0.500153
2256 1 0.0625805 0.770995 0.495983
2329 1 0.0704278 0.758632 0.499181
2406 1 0.0814787 0.769917 0.493319
2254 1 0.0841131 0.756358 0.497891
2469 1 0.0970853 0.766947 0.495268
2195 1 0.0980169 0.754293 0.498739
2262 1 0.121189 0.77317 0.491086
2054 1 0.110493 0.763114 0.49313
2127 1 0.114824 0.755223 0.498304
2267 1 0.147941 0.77532 0.48624
2196 1 0.1284 0.761779 0.495234
2476 1 0.135916 0.77004 0.491144
2119 1 0.136874 0.751879 0.496272
2265 1 0.147846 0.759121 0.493252
2478 1 0.160957 0.763125 0.48839
2334 1 0.172251 0.753616 0.488854
2100 1 0.395696 0.75216 0.488055
2252 1 0.0039202 0.783309 0.492251
2248 1 0.0197991 0.78393 0.491168
2453 1 0.0147111 0.795586 0.486582
2330 1 0.0457619 0.791947 0.487647
2391 1 0.0290972 0.794087 0.486936
2184 1 0.0377381 0.785071 0.491896
2257 1 0.0551935 0.78102 0.490075
2250 1 0.0710409 0.779331 0.491529
2396 1 0.0615033 0.793328 0.48768
2338 1 0.0977967 0.789517 0.48569
2461 1 0.0885567 0.778588 0.489103
2333 1 0.0757843 0.79048 0.486925
2337 1 0.105869 0.776419 0.491023
2482 1 0.130137 0.785102 0.486681
2056 1 0.144532 0.694763 0.514311
1914 1 0.166604 0.695809 0.511054
1998 1 0.179128 0.689133 0.511341
2059 1 0.190399 0.697513 0.509338
1990 1 0.202627 0.693117 0.511
2207 1 0.216789 0.696655 0.510109
1768 1 0.229017 0.692323 0.512338
2053 1 0.242209 0.698158 0.510437
1941 1 0.268925 0.687627 0.51408
2133 1 0.257612 0.69951 0.510342
2137 1 0.281901 0.692193 0.510601
2007 1 0.29747 0.690335 0.511963
2188 1 0.0982218 0.723601 0.511058
2199 1 0.112098 0.718403 0.51009
2046 1 0.12731 0.712282 0.509326
1980 1 0.139652 0.70836 0.509422
1920 1 0.136641 0.724028 0.504458
2047 1 0.150089 0.71649 0.505216
2048 1 0.129556 0.70055 0.513078
2120 1 0.155421 0.703723 0.509272
1922 1 0.168047 0.709904 0.506179
2203 1 0.161964 0.72198 0.50244
2050 1 0.176108 0.716899 0.502533
2200 1 0.189009 0.712571 0.505444
1986 1 0.179142 0.703629 0.508503
1982 1 0.202679 0.705064 0.507155
2272 1 0.217614 0.706431 0.502946
2061 1 0.20131 0.71466 0.501913
2273 1 0.230478 0.704692 0.505433
1991 1 0.244947 0.708818 0.503854
2274 1 0.262153 0.713665 0.503646
2345 1 0.271652 0.700769 0.508216
2067 1 0.288488 0.701474 0.507412
2002 1 0.278527 0.714342 0.502303
2276 1 0.29281 0.713396 0.501796
1919 1 0.302007 0.703648 0.507769
1864 1 0.315498 0.709254 0.511225
2210 1 0.305562 0.715124 0.503835
2090 1 0.319335 0.716522 0.502731
2089 1 0.330357 0.710919 0.509658
2092 1 0.335439 0.718379 0.504844
2150 1 0.348443 0.711154 0.50992
2093 1 0.353745 0.720734 0.506025
2012 1 0.362805 0.713067 0.511488
2164 1 0.368081 0.72392 0.5054
1945 1 0.38998 0.70644 0.513819
2078 1 0.381625 0.716475 0.508708
4761 1 0.393978 0.723599 0.50648
1958 1 0.407834 0.724111 0.504574
2025 1 0.403033 0.714355 0.510481
2023 1 0.419313 0.712934 0.51003
2017 1 0.421323 0.723303 0.502507
4765 1 0.439021 0.720397 0.505496
2022 1 0.437645 0.711271 0.511997
4484 1 0.460608 0.719167 0.505518
1888 1 0.466092 0.712111 0.512816
1885 1 0.452082 0.713309 0.509588
4625 1 0.474277 0.720171 0.505014
1886 1 0.482054 0.713942 0.511876
4767 1 0.4915 0.720619 0.505224
4415 1 0.497628 0.711301 0.512534
2181 1 0.0203432 0.745814 0.508869
2112 1 0.0114972 0.73601 0.51455
2253 1 0.0263534 0.734357 0.514107
2185 1 0.0346729 0.747816 0.507614
2194 1 0.0403019 0.738032 0.511548
2190 1 0.0503239 0.746858 0.507126
2129 1 0.060187 0.737507 0.509697
2258 1 0.0626168 0.749043 0.504247
2255 1 0.0506108 0.731671 0.513529
2114 1 0.0669079 0.727903 0.513341
1907 1 0.0813118 0.725873 0.512069
1973 1 0.0758174 0.737076 0.507027
2263 1 0.0782109 0.746187 0.502143
2327 1 0.0913826 0.730465 0.506679
2264 1 0.092442 0.742075 0.502187
2470 1 0.107503 0.730534 0.505741
2055 1 0.11769 0.737683 0.501754
2060 1 0.106057 0.745181 0.502167
2191 1 0.122414 0.724225 0.505647
2193 1 0.133381 0.736069 0.501823
2049 1 0.150674 0.729275 0.500476
1952 1 0.3842 0.731423 0.500817
4623 1 0.448434 0.728437 0.501514
4848 1 0.48203 0.7294 0.500318
2182 1 -0.00108254 0.761388 0.502281
5248 1 0.00467269 0.749127 0.509231
2109 1 0.0131365 0.759473 0.503126
2180 1 0.0283557 0.759501 0.503427
2125 1 0.0421159 0.760989 0.502077
2051 1 0.150659 0.667933 0.527682
1988 1 0.165374 0.663171 0.52638
1556 1 0.175876 0.669397 0.521884
1994 1 0.179678 0.65738 0.526476
1932 1 0.189091 0.672894 0.520776
1837 1 0.193264 0.66164 0.525279
1989 1 0.20939 0.65901 0.524756
1995 1 0.219449 0.673214 0.521442
1997 1 0.226554 0.663094 0.524976
1926 1 0.204672 0.671184 0.520609
1929 1 0.240486 0.663502 0.525256
2072 1 0.250205 0.675396 0.520149
1930 1 0.258226 0.664377 0.525013
1860 1 0.273717 0.669992 0.522933
1940 1 0.28508 0.658768 0.529436
2004 1 0.290041 0.673829 0.522631
2001 1 0.296509 0.66427 0.527315
1938 1 0.321764 0.672308 0.526609
2071 1 0.307009 0.67408 0.522092
1868 1 0.310788 0.66344 0.527833
1979 1 0.0509732 0.697083 0.525145
1903 1 0.0631471 0.69098 0.526454
1911 1 0.0943636 0.687896 0.527521
1978 1 0.0797938 0.688508 0.528861
2118 1 0.107483 0.687935 0.524827
2042 1 0.118498 0.694427 0.517742
2117 1 0.121819 0.684385 0.523617
2189 1 0.102322 0.697982 0.520184
1834 1 0.109581 0.673293 0.527959
2121 1 0.137204 0.677675 0.524232
2111 1 0.133754 0.691761 0.519429
1839 1 0.146541 0.681601 0.52038
1628 1 0.160123 0.675709 0.522554
2113 1 0.158005 0.68946 0.51595
1934 1 0.168775 0.683688 0.517384
2057 1 0.196874 0.681843 0.513155
1766 1 0.182968 0.678969 0.515245
2000 1 0.223571 0.68489 0.51677
2198 1 0.209541 0.683852 0.51604
2136 1 0.240095 0.68587 0.516039
1850 1 0.23552 0.674574 0.520454
1925 1 0.253482 0.686026 0.515103
1784 1 0.262667 0.676263 0.519512
1935 1 0.282258 0.681377 0.516697
1950 1 0.299562 0.682339 0.518116
2145 1 0.311175 0.694956 0.514621
2006 1 0.316915 0.686457 0.520481
1936 1 0.332403 0.695075 0.520879
1858 1 0.332177 0.683907 0.525415
1874 1 0.345027 0.693717 0.522607
2019 1 0.360034 0.690351 0.525917
2148 1 0.369599 0.695518 0.520904
1948 1 0.381107 0.688846 0.523942
2028 1 0.385149 0.697074 0.519006
4831 1 0.398214 0.689469 0.523376
2095 1 0.415321 0.691763 0.523992
2021 1 0.403876 0.698118 0.517341
4901 1 0.428195 0.695473 0.522226
1955 1 0.443908 0.694367 0.523104
1794 1 0.434236 0.686083 0.528642
1749 1 0.458058 0.691284 0.526093
4481 1 0.472006 0.690791 0.523387
1680 1 0.484005 0.688661 0.52254
1662 1 0.494061 0.684423 0.527363
1816 1 0.478506 0.681037 0.528729
1887 1 0.49879 0.691328 0.520153
2038 1 0.0241546 0.70069 0.527082
2105 1 0.00331181 0.719674 0.522386
2177 1 0.0157167 0.712703 0.52322
2178 1 0.0168803 0.724086 0.5184
2187 1 0.0475651 0.710327 0.520685
2044 1 0.0294341 0.714608 0.52019
1977 1 0.0375125 0.704116 0.523738
2122 1 0.0750469 0.699974 0.523946
2175 1 0.0572791 0.71743 0.516983
2037 1 0.0623986 0.703862 0.520255
2186 1 0.0710188 0.714924 0.517739
2124 1 0.0899069 0.698058 0.523393
1912 1 0.0814277 0.706793 0.519232
2115 1 0.0888325 0.71619 0.515733
2192 1 0.10198 0.712976 0.516207
2261 1 0.11553 0.706586 0.5144
2152 1 0.323557 0.699485 0.514784
2085 1 0.3405 0.704477 0.515466
2008 1 0.35596 0.703563 0.517009
2226 1 0.374007 0.705144 0.515397
1877 1 0.418014 0.702635 0.517838
4905 1 0.436768 0.70392 0.518754
4834 1 0.450982 0.704067 0.516841
1820 1 0.464058 0.702084 0.519863
1819 1 0.478024 0.70502 0.519261
1815 1 0.490593 0.699347 0.515859
5180 1 -7.09481e-05 0.728679 0.516817
2328 1 0.0389095 0.724384 0.516964
1845 1 0.16267 0.623895 0.539233
1924 1 0.177027 0.618496 0.540915
1909 1 0.200859 0.618274 0.542349
1697 1 0.111968 0.637833 0.544298
1700 1 0.123736 0.642481 0.539295
1698 1 0.139225 0.641042 0.535619
1786 1 0.133005 0.63054 0.54197
1916 1 0.151256 0.633309 0.539091
1843 1 0.167529 0.638275 0.535245
1974 1 0.153817 0.645134 0.534425
1928 1 0.177364 0.645223 0.532091
1769 1 0.181053 0.633457 0.537065
2069 1 0.192818 0.638125 0.534099
2066 1 0.19053 0.62475 0.538728
1996 1 0.191055 0.648121 0.529612
1921 1 0.205172 0.633455 0.536066
1993 1 0.216721 0.640377 0.534399
1855 1 0.21448 0.625219 0.539125
1927 1 0.204352 0.648761 0.530785
1787 1 0.229183 0.64244 0.535038
1719 1 0.228523 0.632175 0.541202
1944 1 0.241046 0.635765 0.539108
1918 1 0.243005 0.644581 0.53325
1872 1 0.253971 0.636062 0.539568
2013 1 0.269684 0.643355 0.535791
1852 1 0.258176 0.64696 0.53424
1943 1 0.280413 0.635023 0.540005
1792 1 0.293677 0.643684 0.538078
1804 1 0.281717 0.647426 0.5335
1714 1 0.306699 0.641064 0.537656
1796 1 0.320824 0.635315 0.541756
1999 1 0.321219 0.646252 0.5367
1732 1 0.335864 0.645295 0.5395
1908 1 0.0132471 0.663117 0.540048
1762 1 0.0214716 0.674914 0.537884
4822 1 0.00270954 0.652537 0.541754
1898 1 0.038701 0.672657 0.539378
1905 1 0.0638743 0.664824 0.538717
1841 1 0.0518454 0.671192 0.537564
1985 1 0.0845111 0.657702 0.538664
1976 1 0.0740075 0.671189 0.536703
1981 1 0.0947162 0.664976 0.53614
1913 1 0.0972702 0.649652 0.539695
1983 1 0.114123 0.653156 0.539627
1626 1 0.110922 0.661885 0.534822
1557 1 0.122169 0.661999 0.53123
1840 1 0.122786 0.674281 0.528
1846 1 0.147169 0.654983 0.531397
1835 1 0.132241 0.65127 0.533902
1844 1 0.136793 0.665358 0.529376
1842 1 0.164528 0.652732 0.531723
1861 1 0.220566 0.655083 0.528817
1788 1 0.233379 0.654654 0.530432
1862 1 0.251847 0.656394 0.529416
1856 1 0.267889 0.656017 0.529948
2149 1 0.295966 0.652634 0.532743
1863 1 0.310157 0.651831 0.532718
1937 1 0.324091 0.657273 0.53079
2015 1 0.336522 0.671368 0.53154
1791 1 0.335205 0.657413 0.535866
1867 1 0.349388 0.669987 0.535374
1878 1 0.349128 0.648309 0.540939
1724 1 0.359198 0.658285 0.540526
1949 1 0.371291 0.655365 0.541969
2151 1 0.369286 0.66804 0.535666
2018 1 0.383991 0.661702 0.539763
2009 1 0.397921 0.670851 0.535641
1947 1 0.394032 0.653791 0.542176
2010 1 0.381476 0.673893 0.535362
1817 1 0.404038 0.661829 0.539716
1806 1 0.41353 0.671914 0.535122
1661 1 0.416901 0.654001 0.54181
1666 1 0.438471 0.665203 0.538055
1722 1 0.425256 0.664033 0.538169
1812 1 0.436931 0.676696 0.53405
1798 1 0.454521 0.67089 0.533724
1953 1 0.452873 0.663465 0.539848
1799 1 0.466898 0.657499 0.541275
1810 1 0.471034 0.668285 0.534168
2024 1 0.484538 0.663728 0.538517
2029 1 0.492003 0.654241 0.542076
1740 1 0.486996 0.672521 0.531678
4755 1 0.00846435 0.679247 0.536644
1966 1 0.025428 0.688899 0.532125
2110 1 0.0125184 0.692476 0.532243
1975 1 0.0386236 0.681398 0.5336
2045 1 0.037382 0.694265 0.528919
1969 1 0.0503093 0.685225 0.531925
1763 1 0.0651349 0.682024 0.532534
1831 1 0.0861067 0.677125 0.533132
2052 1 0.09951 0.676867 0.531558
2146 1 0.346954 0.682707 0.528653
1946 1 0.359078 0.677316 0.532918
1933 1 0.373145 0.683395 0.529829
1879 1 0.391028 0.680578 0.529086
2020 1 0.408521 0.682184 0.528939
1880 1 0.423274 0.679834 0.530918
1882 1 0.44786 0.684504 0.52921
1954 1 0.465204 0.679763 0.52825
2039 1 0.00982606 0.704865 0.527835
1552 1 0.159832 0.572387 0.557017
4550 1 0.00399885 0.591971 0.556823
4547 1 0.0167575 0.584773 0.556738
4620 1 0.0273751 0.594887 0.553951
1688 1 0.044497 0.591985 0.556306
4200 1 0.0336449 0.582103 0.556299
4687 1 0.0579592 0.599717 0.554538
1836 1 0.0720042 0.590362 0.555466
1770 1 0.0894676 0.596525 0.553296
1692 1 0.0847476 0.584531 0.556055
1625 1 0.0982664 0.582799 0.556007
1558 1 0.121643 0.592866 0.5533
1633 1 0.104677 0.594794 0.55389
1701 1 0.135811 0.588078 0.552582
1565 1 0.126059 0.579677 0.556752
1699 1 0.142357 0.598893 0.549148
1622 1 0.145899 0.5757 0.557023
1634 1 0.152733 0.589673 0.551586
1497 1 0.164994 0.583869 0.554578
1703 1 0.161642 0.597486 0.548928
1771 1 0.174426 0.594001 0.552208
1915 1 0.187058 0.584562 0.553587
1854 1 0.217743 0.590131 0.555184
1707 1 0.200114 0.596517 0.551753
1706 1 0.201924 0.581725 0.555044
1709 1 0.230951 0.594604 0.553941
1777 1 0.231661 0.582614 0.556857
1857 1 0.257149 0.596359 0.555201
1752 1 0.0128163 0.613603 0.551606
1897 1 0.0136174 0.600515 0.555257
4759 1 0.0248802 0.623581 0.548977
1694 1 0.0261557 0.608973 0.550711
1822 1 0.0379514 0.61828 0.549797
1893 1 0.0384622 0.603256 0.552575
1627 1 0.0771656 0.604711 0.55314
1824 1 0.0519838 0.61403 0.551897
1891 1 0.0668389 0.612607 0.549848
4618 1 0.0706489 0.624825 0.550531
1632 1 0.0833938 0.617978 0.550081
1630 1 0.0961107 0.62224 0.547494
1765 1 0.0956236 0.607827 0.55066
1838 1 0.112998 0.607426 0.551594
1764 1 0.108699 0.618263 0.549118
1917 1 0.147307 0.621505 0.543477
1564 1 0.130577 0.60451 0.551347
1621 1 0.133314 0.615119 0.544628
1987 1 0.152551 0.606303 0.545108
1779 1 0.164718 0.612339 0.543429
1923 1 0.173788 0.603882 0.547414
1848 1 0.186821 0.600816 0.550156
1984 1 0.186636 0.611605 0.544613
1853 1 0.215677 0.602603 0.54931
1648 1 0.212211 0.615607 0.546096
1782 1 0.199906 0.607137 0.546902
1866 1 0.241236 0.625132 0.544173
1781 1 0.229045 0.605858 0.549112
1712 1 0.245643 0.600816 0.551061
1778 1 0.241535 0.612127 0.546678
1723 1 0.224946 0.618713 0.544082
1642 1 0.255141 0.608869 0.548933
2016 1 0.270875 0.616427 0.547765
1720 1 0.267501 0.605982 0.552955
1859 1 0.255274 0.622213 0.544912
1651 1 0.282319 0.60169 0.554888
1865 1 0.283044 0.612124 0.550117
1718 1 0.296095 0.609339 0.552939
1793 1 0.295664 0.621117 0.548086
1514 1 0.324623 0.611887 0.552647
1730 1 0.309733 0.615654 0.55035
1644 1 0.310546 0.603496 0.557578
2014 1 0.321486 0.621727 0.547278
1656 1 0.337821 0.611625 0.55584
1801 1 0.333662 0.624466 0.550303
1733 1 0.345569 0.62356 0.553933
1795 1 0.359771 0.61933 0.555595
1588 1 0.38159 0.621138 0.554622
1444 1 0.416073 0.620786 0.557267
1729 1 0.403899 0.615386 0.554787
1881 1 0.46254 0.623317 0.556785
1538 1 0.47796 0.619322 0.557465
4688 1 0.0211763 0.639092 0.547455
4754 1 0.00918162 0.626247 0.549409
1696 1 0.00715122 0.639279 0.545943
4686 1 0.0375321 0.634907 0.548467
4615 1 0.0499907 0.642143 0.546025
1892 1 0.0534965 0.627831 0.550022
1689 1 0.0672179 0.637735 0.546621
1833 1 0.0852714 0.628969 0.545895
1618 1 0.0808207 0.642556 0.543439
1832 1 0.0969351 0.637488 0.544818
1629 1 0.119341 0.624568 0.54443
2011 1 0.268383 0.630031 0.542802
1942 1 0.296413 0.632566 0.541995
1939 1 0.283698 0.625938 0.546128
1875 1 0.309223 0.629202 0.545188
1870 1 0.334066 0.635559 0.54527
1876 1 0.347297 0.636761 0.545873
1871 1 0.356845 0.628765 0.549347
1659 1 0.37115 0.626163 0.551598
1800 1 0.366114 0.640977 0.546249
1790 1 0.381971 0.633805 0.550241
1675 1 0.396761 0.626876 0.552068
1663 1 0.394748 0.638223 0.546876
1668 1 0.380237 0.645908 0.544217
1602 1 0.409804 0.633453 0.548844
1883 1 0.423128 0.630373 0.551239
1802 1 0.419535 0.643294 0.547343
1805 1 0.405267 0.647032 0.544293
1660 1 0.437736 0.62904 0.553788
1738 1 0.434933 0.641583 0.54935
1873 1 0.447323 0.641175 0.550188
1814 1 0.458702 0.635606 0.552741
1607 1 0.472239 0.628341 0.553011
1678 1 0.469799 0.641208 0.548757
1736 1 0.458099 0.648877 0.546168
1735 1 0.488199 0.627956 0.553742
1803 1 0.49756 0.643463 0.545518
1677 1 0.500974 0.629815 0.549775
1746 1 0.484725 0.640721 0.548166
1963 1 0.0160694 0.651336 0.54434
4760 1 0.0278609 0.66038 0.542016
1828 1 0.0324809 0.648366 0.546678
1767 1 0.046328 0.659841 0.544192
1830 1 0.0721517 0.655564 0.54258
1827 1 0.060105 0.651955 0.543948
1951 1 0.44228 0.651124 0.543903
1748 1 0.429568 0.654017 0.542646
1813 1 0.477785 0.652032 0.54514
983 1 0.0129383 0.512097 0.566492
4060 1 0.0061002 0.522471 0.565786
4130 1 0.0286591 0.513557 0.56528
1121 1 0.0386377 0.501747 0.566501
4127 1 0.0439004 0.5166 0.565127
1478 1 0.0553308 0.50626 0.56687
1681 1 0.0690159 0.505801 0.566151
4058 1 0.0678714 0.52064 0.566483
4129 1 0.0560177 0.523921 0.563672
1541 1 0.0826652 0.503471 0.566661
4270 1 0.0809663 0.518663 0.566941
1476 1 0.0945064 0.511469 0.565952
4196 1 0.10581 0.518842 0.565013
1755 1 0.109163 0.505658 0.565198
1619 1 0.119287 0.514844 0.565621
1611 1 0.134091 0.508574 0.568176
1479 1 0.148237 0.506409 0.570132
1547 1 0.142843 0.521203 0.568515
1559 1 0.170864 0.522102 0.570338
1482 1 0.158697 0.516506 0.569174
4197 1 0.00596463 0.535548 0.565228
4124 1 0.0181127 0.527523 0.563288
4195 1 0.0164473 0.545886 0.562082
3989 1 0.0298971 0.542672 0.56253
1686 1 0.0339392 0.52806 0.56287
1052 1 0.0460822 0.534846 0.562397
4338 1 0.063004 0.536685 0.562868
1263 1 0.0537949 0.54654 0.561194
1192 1 0.0919724 0.527856 0.56517
1826 1 0.0799305 0.53677 0.565322
1549 1 0.0944201 0.543498 0.561785
1477 1 0.0779908 0.548442 0.562894
1682 1 0.106043 0.534145 0.564234
1756 1 0.117813 0.527496 0.564282
1685 1 0.116244 0.542335 0.5619
1344 1 0.131181 0.526303 0.565675
1759 1 0.129996 0.541412 0.562701
1548 1 0.142474 0.534236 0.564553
1567 1 0.153884 0.544749 0.562758
1546 1 0.154762 0.530242 0.566618
1563 1 0.168352 0.537727 0.567796
1639 1 0.18174 0.533496 0.569908
1561 1 0.191429 0.545451 0.568446
1490 1 0.179015 0.547782 0.56776
1775 1 0.195518 0.532019 0.571116
1776 1 0.204836 0.542275 0.568014
1704 1 0.226751 0.542554 0.569452
1581 1 0.257355 0.544922 0.570436
1515 1 0.280189 0.544676 0.571942
4548 1 0.0141102 0.559276 0.55995
4121 1 0.023785 0.571615 0.557376
4253 1 0.0072842 0.572059 0.558547
1758 1 0.02781 0.555648 0.560618
4479 1 0.0402982 0.551215 0.561098
1480 1 0.0497546 0.561779 0.56044
1262 1 0.036137 0.567378 0.557908
1693 1 0.0655736 0.554054 0.561836
1620 1 0.0605595 0.569668 0.559972
1488 1 0.0768479 0.563445 0.560258
1623 1 0.092119 0.557907 0.55975
1761 1 0.0890693 0.5723 0.558958
1562 1 0.105712 0.569287 0.558642
1555 1 0.122738 0.555652 0.561143
1487 1 0.105997 0.553568 0.559667
1560 1 0.120098 0.568607 0.559569
1554 1 0.137842 0.551865 0.562583
1566 1 0.135552 0.565155 0.558554
1757 1 0.163922 0.562922 0.561622
1635 1 0.151572 0.55746 0.559023
1494 1 0.166342 0.551186 0.564048
1568 1 0.176367 0.563792 0.560995
1773 1 0.188298 0.55806 0.563455
1774 1 0.191879 0.572617 0.557798
1783 1 0.205207 0.569349 0.56011
1637 1 0.215991 0.54971 0.565843
1847 1 0.203782 0.557025 0.563871
1780 1 0.220088 0.563193 0.562779
1510 1 0.244628 0.549833 0.568609
1772 1 0.229537 0.555274 0.567017
1649 1 0.240515 0.563638 0.563853
1583 1 0.229898 0.571845 0.561838
1851 1 0.245449 0.575716 0.561205
1646 1 0.255675 0.561482 0.566782
1716 1 0.257232 0.573271 0.563862
1650 1 0.271861 0.56773 0.565609
1713 1 0.26967 0.554526 0.568568
1653 1 0.28307 0.558991 0.56855
1382 1 0.297407 0.564533 0.570821
1585 1 0.285136 0.575055 0.56649
1808 1 0.312844 0.572088 0.570474
1731 1 0.340985 0.571058 0.570167
4203 1 0.462853 0.572835 0.571511
1454 1 0.489968 0.564619 0.570246
1690 1 0.0465095 0.577446 0.557835
1695 1 0.0584458 0.584005 0.557023
1691 1 0.0731279 0.575899 0.556099
1631 1 0.111274 0.582173 0.556587
1502 1 0.175094 0.576472 0.55798
1636 1 0.215423 0.577709 0.558781
1849 1 0.2472 0.587886 0.55714
1785 1 0.259967 0.58389 0.559677
1789 1 0.274247 0.582753 0.563239
1721 1 0.269798 0.595129 0.558361
1725 1 0.28807 0.589069 0.561745
1717 1 0.298935 0.57818 0.567459
1657 1 0.296762 0.59843 0.559199
1516 1 0.31601 0.583069 0.566818
1586 1 0.30701 0.590905 0.562317
1505 1 0.323141 0.591457 0.562509
1654 1 0.327098 0.577618 0.567657
1726 1 0.338535 0.586491 0.564818
1658 1 0.339835 0.599394 0.560598
1533 1 0.353624 0.582941 0.568894
1590 1 0.354133 0.597165 0.564168
1526 1 0.366108 0.58802 0.56763
1370 1 0.386478 0.580974 0.571367
1367 1 0.377945 0.591905 0.568535
1597 1 0.393956 0.595288 0.566333
1595 1 0.40072 0.584622 0.569292
1531 1 0.410468 0.595716 0.566343
1593 1 0.423619 0.592801 0.566489
4201 1 0.440308 0.592088 0.56978
1670 1 0.455867 0.587436 0.568971
1466 1 0.471815 0.58469 0.569143
1679 1 0.465794 0.599317 0.56426
1468 1 0.480032 0.574715 0.569319
1605 1 0.49469 0.583966 0.565277
1672 1 0.482596 0.591386 0.565061
1797 1 0.324515 0.604301 0.559313
1869 1 0.351267 0.608334 0.559036
1664 1 0.366023 0.601752 0.562807
1807 1 0.370993 0.613584 0.5596
1734 1 0.381558 0.604911 0.562866
1517 1 0.391948 0.611965 0.559839
1674 1 0.407477 0.605796 0.561434
1667 1 0.424929 0.609679 0.563197
1811 1 0.447983 0.625663 0.557864
1739 1 0.431104 0.620415 0.559244
1665 1 0.434046 0.602828 0.567388
1743 1 0.442452 0.612821 0.563675
1737 1 0.450868 0.601851 0.563843
1669 1 0.461532 0.610738 0.560506
1608 1 0.490371 0.611345 0.557994
1606 1 0.477902 0.60498 0.562361
1604 1 0.491054 0.5994 0.561282
1553 1 0.164251 0.50366 0.572688
1501 1 0.175526 0.509079 0.574215
1702 1 0.185502 0.519621 0.573684
1705 1 0.195312 0.507202 0.577336
1638 1 0.204455 0.522745 0.574608
1577 1 0.219961 0.520813 0.573969
1571 1 0.21114 0.507028 0.576861
1572 1 0.227674 0.511179 0.576797
1509 1 0.23848 0.520692 0.576009
1573 1 0.242747 0.504061 0.578891
1511 1 0.251394 0.515801 0.576693
1645 1 0.260896 0.506051 0.579295
1580 1 0.273367 0.51472 0.576668
1715 1 0.286116 0.511902 0.575843
1710 1 0.297497 0.521678 0.575294
1359 1 0.302524 0.508126 0.576982
1640 1 0.317806 0.510322 0.57904
1584 1 0.313166 0.523452 0.576038
1518 1 0.334687 0.500334 0.580135
1364 1 0.329322 0.519047 0.577389
1438 1 0.344084 0.514585 0.580127
1507 1 0.352418 0.500359 0.583078
1361 1 0.36921 0.505793 0.584563
1433 1 0.358284 0.514904 0.581159
1386 1 0.375592 0.520308 0.582261
1383 1 0.387511 0.509981 0.583681
1453 1 0.40168 0.507237 0.582672
1244 1 0.415873 0.512558 0.579706
1530 1 0.401773 0.522379 0.580799
1390 1 0.44579 0.498953 0.580308
1391 1 0.429499 0.507314 0.581009
1310 1 0.439558 0.515791 0.580038
1252 1 0.4279 0.523742 0.579241
1392 1 0.461234 0.500413 0.579159
1521 1 0.474084 0.508614 0.576569
1451 1 0.456273 0.51474 0.578447
1393 1 0.472546 0.524094 0.575794
4071 1 0.497845 0.507069 0.57202
1314 1 0.485124 0.501687 0.574701
3999 1 0.487329 0.516758 0.574001
1570 1 0.213442 0.532436 0.571756
1430 1 0.22968 0.530052 0.574314
1643 1 0.242992 0.538205 0.573654
1360 1 0.252462 0.529727 0.574512
1582 1 0.268547 0.537097 0.571779
1579 1 0.265978 0.525287 0.575658
1708 1 0.279044 0.526145 0.573606
1442 1 0.291621 0.532204 0.574328
1366 1 0.306779 0.540067 0.574576
1513 1 0.320075 0.534789 0.577317
1576 1 0.335855 0.530037 0.577252
1439 1 0.347789 0.54203 0.577231
1655 1 0.331724 0.543402 0.574998
1371 1 0.350147 0.530038 0.57992
1301 1 0.362101 0.541885 0.579024
1527 1 0.363286 0.528314 0.580606
1458 1 0.388718 0.527497 0.581476
1298 1 0.386762 0.539976 0.579349
1673 1 0.372758 0.53652 0.579675
1379 1 0.403021 0.537743 0.579954
1603 1 0.415199 0.529109 0.579985
1528 1 0.41608 0.546442 0.581759
1594 1 0.428356 0.535753 0.579248
1254 1 0.439924 0.544462 0.577954
1313 1 0.444672 0.528273 0.577555
1459 1 0.460102 0.53219 0.577088
1522 1 0.451841 0.5443 0.576328
1534 1 0.466826 0.545588 0.57427
1400 1 0.493062 0.543198 0.573536
1601 1 0.480066 0.54878 0.574311
1599 1 0.49665 0.525908 0.571392
1525 1 0.48258 0.532113 0.574121
1728 1 0.293531 0.548527 0.572232
1587 1 0.326333 0.563542 0.57256
1519 1 0.309411 0.557964 0.573883
1591 1 0.320415 0.551721 0.574263
1652 1 0.34211 0.557921 0.573901
1443 1 0.373513 0.551067 0.578238
1446 1 0.353407 0.554037 0.575541
1727 1 0.354759 0.569671 0.571011
1447 1 0.363537 0.562682 0.576148
1589 1 0.37611 0.567712 0.576582
1368 1 0.387673 0.556165 0.577548
1523 1 0.389942 0.569991 0.575878
1448 1 0.400548 0.549708 0.578177
1450 1 0.402853 0.562821 0.577375
1529 1 0.406562 0.573174 0.574436
1378 1 0.415831 0.557309 0.576964
1398 1 0.421249 0.568655 0.576528
1469 1 0.446306 0.574195 0.572226
1600 1 0.435066 0.564369 0.572878
1532 1 0.429604 0.554062 0.578911
1671 1 0.445707 0.556595 0.57478
1535 1 0.4746 0.56247 0.572968
4133 1 0.458581 0.558352 0.574461
1520 1 0.369103 0.578121 0.572771
1598 1 0.415572 0.580313 0.570928
1592 1 0.432498 0.580191 0.57028
3035 1 0.708742 0.0118536 0.413718
2818 1 0.723431 0.0183223 0.411876
2814 1 0.720549 0.000427353 0.413069
5550 1 0.740823 0.021245 0.41123
2891 1 0.734981 0.00598868 0.410872
5349 1 0.752533 0.00829558 0.411628
5548 1 0.75616 0.0236266 0.411495
2823 1 0.765723 0.011995 0.411673
2970 1 0.778619 0.0162081 0.411526
2828 1 0.794757 0.0107735 0.413438
2831 1 0.786955 -0.00120289 0.412926
2846 1 0.809331 0.0106082 0.413103
2913 1 0.824697 0.016162 0.414808
2904 1 0.802216 0.0247355 0.411473
2911 1 0.852962 0.0187052 0.414754
2909 1 0.89801 0.0154919 0.414818
2815 1 0.712311 0.0311408 0.411682
2892 1 0.722753 0.0438293 0.412748
2820 1 0.710493 0.0476206 0.414385
5554 1 0.741286 0.0384417 0.411731
2883 1 0.728218 0.0300147 0.411178
5488 1 0.771331 0.0294451 0.409522
2893 1 0.755135 0.0364225 0.410078
2903 1 0.767565 0.0453125 0.409222
5494 1 0.787592 0.0282479 0.410188
5496 1 0.783266 0.0411891 0.407927
5491 1 0.79918 0.0393923 0.409227
2838 1 0.816019 0.0272095 0.412454
2840 1 0.820068 0.0412281 0.412276
5495 1 0.830772 0.0307789 0.414257
5563 1 0.833572 0.0458007 0.412358
2979 1 0.848637 0.0489417 0.411982
2929 1 0.870205 0.0267012 0.412581
5562 1 0.859028 0.037724 0.412204
2918 1 0.888076 0.0299582 0.413638
2865 1 0.877007 0.0397691 0.412384
2927 1 0.889772 0.0476448 0.414545
2819 1 0.737653 0.0521662 0.413168
2894 1 0.755282 0.0509936 0.411897
3041 1 0.766975 0.0629557 0.411594
3038 1 0.762161 0.0742797 0.415231
2830 1 0.774611 0.0762587 0.410882
2981 1 0.792951 0.0538069 0.408531
2898 1 0.778539 0.0547304 0.408999
5422 1 0.786036 0.0684833 0.408511
2968 1 0.807641 0.0514565 0.410755
2961 1 0.799403 0.0645945 0.409527
3109 1 0.813514 0.0648703 0.411077
2905 1 0.824042 0.0572179 0.410809
2899 1 0.828556 0.072691 0.411119
2977 1 0.841648 0.0616693 0.411956
3175 1 0.846073 0.0757341 0.412925
3044 1 0.855842 0.0604867 0.412941
3048 1 0.867959 0.0657379 0.414864
2833 1 0.78934 0.0820064 0.411585
2965 1 0.777395 0.0890716 0.414425
2902 1 0.803767 0.0776847 0.411104
3108 1 0.803561 0.091014 0.413504
3112 1 0.817942 0.0805398 0.410986
2901 1 0.82115 0.0926492 0.414217
2972 1 0.833755 0.0866411 0.413476
2719 1 0.518388 0.0128208 0.420955
2724 1 0.503939 0.0150721 0.419505
2797 1 0.527908 0.00390393 0.418652
5462 1 0.542643 0.00640737 0.419519
2793 1 0.53165 0.0181471 0.420853
2590 1 0.545567 0.0204491 0.418978
5461 1 0.55751 0.0079105 0.418488
5465 1 0.559504 0.0237027 0.419221
5392 1 0.572589 0.0121938 0.421456
2660 1 0.585416 0.0155911 0.4245
5538 1 0.593721 0.00389349 0.424823
5393 1 0.578904 -0.00142188 0.422548
5481 1 0.600115 0.0159439 0.427151
5472 1 0.618853 0.0111027 0.426169
5328 1 0.608724 0.00189492 0.426158
5400 1 0.625301 -0.000486831 0.424847
5345 1 0.637459 0.00763302 0.423067
5342 1 0.631269 0.0243222 0.425692
2824 1 0.642897 0.0196308 0.42229
5483 1 0.659461 0.0180861 0.41979
5411 1 0.674444 0.0147443 0.419171
5341 1 0.663237 0.00341934 0.418423
5412 1 0.697319 0.0207763 0.416584
5415 1 0.68202 0.0265829 0.418837
5556 1 0.689378 0.00842757 0.416179
2829 1 0.820339 0.000224514 0.413912
5580 1 0.839358 0.0172856 0.416543
5423 1 0.836922 0.00188355 0.416362
5576 1 0.849664 0.00452072 0.417107
2841 1 0.864892 0.0128094 0.415043
5509 1 0.873744 0.0021028 0.414979
2836 1 0.879082 0.0183256 0.414348
2839 1 0.887054 0.00312366 0.415592
2910 1 0.913229 0.00994149 0.415932
5591 1 0.908722 0.0235 0.415918
2993 1 0.922493 0.021021 0.419147
5581 1 0.92724 0.00514694 0.4186
2980 1 0.93819 0.0162303 0.419851
2858 1 0.943902 0.000823836 0.42106
2999 1 0.953622 0.0158147 0.422985
2928 1 0.966289 0.0242198 0.422135
2861 1 0.967821 0.00948727 0.424627
5523 1 0.957154 -0.000705625 0.423426
211 1 0.980379 0.0189715 0.42361
229 1 0.989213 0.0112471 0.427027
221 1 0.97839 0.00140261 0.425274
132 1 0.50881 0.0279768 0.42298
2798 1 0.525006 0.0304643 0.422238
2799 1 0.513485 0.0422551 0.425876
3011 1 0.528772 0.0446098 0.425153
2873 1 0.538474 0.0343314 0.421313
70 1 0.545198 0.049148 0.42529
2877 1 0.551596 0.0375854 0.420775
5531 1 0.566502 0.0365591 0.423808
5536 1 0.572323 0.0241032 0.423164
5468 1 0.573242 0.0472534 0.425442
2882 1 0.596418 0.0293037 0.425791
5467 1 0.581323 0.0328956 0.424798
5555 1 0.590151 0.0417895 0.426519
5540 1 0.614831 0.0259612 0.427213
5413 1 0.607253 0.0399677 0.427275
5475 1 0.625469 0.037414 0.427581
2813 1 0.64132 0.0397589 0.425488
5478 1 0.668294 0.0309165 0.420884
5549 1 0.654358 0.0337701 0.422412
2963 1 0.673143 0.0434213 0.42163
2817 1 0.66199 0.0483193 0.42307
5547 1 0.698826 0.0369792 0.415594
2886 1 0.686271 0.0390983 0.418263
2908 1 0.84602 0.0306214 0.41355
5582 1 0.868227 0.0501368 0.413358
2906 1 0.903094 0.0358691 0.414992
2859 1 0.917374 0.0367147 0.417468
2924 1 0.934981 0.0325756 0.419035
2931 1 0.929469 0.0453014 0.418291
2914 1 0.945137 0.0421258 0.419987
3069 1 0.948883 0.0295103 0.419055
3137 1 0.963666 0.0384222 0.421425
144 1 0.990523 0.0279072 0.424273
3068 1 0.976779 0.0325657 0.42216
3009 1 0.985048 0.0438324 0.425423
3138 1 0.996931 0.0368639 0.428108
210 1 0.52243 0.0573503 0.427579
347 1 0.537168 0.0594589 0.425146
2874 1 0.558791 0.0495807 0.423827
2941 1 0.55488 0.0615217 0.427238
2884 1 0.647497 0.0503775 0.427098
2967 1 0.657402 0.0596696 0.426594
5542 1 0.671058 0.0595693 0.424668
2966 1 0.694664 0.0528101 0.41692
2885 1 0.683539 0.0699945 0.424314
3027 1 0.682693 0.0568116 0.421489
3018 1 0.693639 0.0664072 0.420206
3026 1 0.722012 0.0566242 0.414437
2896 1 0.705575 0.0601626 0.415423
3025 1 0.719932 0.0719156 0.416869
2959 1 0.707414 0.0746667 0.420826
2826 1 0.750275 0.0634877 0.414471
3036 1 0.734209 0.0668725 0.416029
5575 1 0.879273 0.0587009 0.414262
2916 1 0.883757 0.0722213 0.416052
2989 1 0.896371 0.0632868 0.416159
3064 1 0.917638 0.0526627 0.417414
2842 1 0.903049 0.0504427 0.416262
5568 1 0.911764 0.0639448 0.417591
2921 1 0.929779 0.0596094 0.417988
3133 1 0.943759 0.0577419 0.419488
2857 1 0.94105 0.0737465 0.418865
3213 1 0.974094 0.0492097 0.42299
2933 1 0.958056 0.0522408 0.421323
2860 1 0.956446 0.0681441 0.420541
2930 1 0.970049 0.0628533 0.423952
2926 1 0.984667 0.0602668 0.426188
2862 1 0.981022 0.0753168 0.427389
3031 1 0.694225 0.0776712 0.424492
3315 1 0.704485 0.0882144 0.425026
2957 1 0.716567 0.0860466 0.421355
2825 1 0.714064 0.0961315 0.426456
2897 1 0.746952 0.0783571 0.416982
3097 1 0.729671 0.092128 0.42393
2890 1 0.732016 0.0808903 0.418708
3039 1 0.743128 0.0946221 0.421781
2962 1 0.754914 0.0893298 0.418693
3042 1 0.765346 0.0858852 0.414513
3391 1 0.766127 0.0998891 0.419257
3102 1 0.79024 0.0988763 0.416706
2900 1 0.778187 0.0995199 0.420241
2974 1 0.845578 0.0941237 0.41807
3121 1 0.871712 0.083256 0.417071
2895 1 0.857744 0.0795819 0.415248
2969 1 0.862544 0.0940353 0.420713
2907 1 0.896014 0.07775 0.416905
2985 1 0.88611 0.0890709 0.417531
2919 1 0.927832 0.0752528 0.41743
2856 1 0.901454 0.0933401 0.417837
2851 1 0.910638 0.078123 0.417638
3136 1 0.913573 0.0996221 0.421878
2984 1 0.921396 0.0891796 0.419078
2855 1 0.936055 0.0877936 0.420937
3059 1 0.952832 0.0842388 0.422011
3139 1 0.966697 0.0776271 0.424303
2844 1 0.954335 0.0984145 0.424003
2992 1 0.969712 0.0896074 0.425916
2997 1 0.983125 0.08931 0.427901
3034 1 0.725515 0.102718 0.427639
3173 1 0.70412 0.10407 0.428608
3106 1 0.73939 0.104457 0.426058
3107 1 0.754403 0.106026 0.424508
2960 1 0.768762 0.112188 0.423924
3040 1 0.757622 0.118591 0.427168
3177 1 0.784851 0.112216 0.421502
2976 1 0.780783 0.122707 0.424594
3116 1 0.797116 0.120576 0.422909
3195 1 0.813631 0.102611 0.416241
2973 1 0.800577 0.108751 0.418761
3184 1 0.810419 0.116752 0.422535
2848 1 0.822209 0.112062 0.419945
2975 1 0.834623 0.101352 0.419069
2982 1 0.836406 0.113984 0.422867
5559 1 0.848899 0.107986 0.420159
5489 1 0.851079 0.119147 0.424981
3057 1 0.864703 0.107846 0.421819
3045 1 0.864536 0.121521 0.425285
2995 1 0.877406 0.0983691 0.420058
2987 1 0.891634 0.100735 0.421315
3065 1 0.880594 0.111919 0.424269
3063 1 0.890422 0.119042 0.426739
3129 1 0.900288 0.108089 0.423968
3206 1 0.915412 0.110956 0.425045
2852 1 0.905635 0.121849 0.427596
3273 1 0.941813 0.102946 0.423315
3131 1 0.928082 0.100211 0.422796
3199 1 0.930306 0.113568 0.426153
2915 1 0.944753 0.11481 0.426593
3276 1 0.958273 0.109225 0.427669
3140 1 0.972289 0.10285 0.427621
3249 1 0.768998 0.125535 0.426922
3114 1 0.788584 0.1339 0.427605
2986 1 0.818792 0.126451 0.425743
2978 1 0.802365 0.130448 0.427581
3047 1 0.833226 0.126481 0.425042
3060 1 0.863895 0.136872 0.429095
2854 1 0.877511 0.126808 0.426884
2812 1 0.617014 0.0523103 0.428346
209 1 0.50464 0.0537122 0.42893
349 1 0.511733 0.069499 0.432767
2804 1 0.529816 0.0676984 0.429917
5535 1 0.543294 0.0706362 0.430125
5464 1 0.570565 0.059589 0.42892
2802 1 0.560561 0.072496 0.430583
2803 1 0.576142 0.0698069 0.432572
5539 1 0.584245 0.0570135 0.429585
2816 1 0.593612 0.064402 0.432699
2876 1 0.601961 0.0508946 0.429864
2809 1 0.6136 0.0627099 0.432478
2952 1 0.605463 0.0732794 0.43624
5482 1 0.632314 0.0512851 0.430034
2821 1 0.629898 0.0649273 0.432123
2879 1 0.641974 0.0637228 0.429201
3019 1 0.671506 0.0709548 0.429208
2888 1 0.655942 0.0738129 0.430954
3006 1 0.996234 0.0523937 0.428389
3070 1 0.995801 0.0714459 0.430314
348 1 0.522174 0.08064 0.435809
140 1 0.50366 0.0801019 0.43711
419 1 0.514309 0.0917589 0.441444
2949 1 0.537628 0.0815014 0.434898
276 1 0.544848 0.092974 0.438241
3086 1 0.52961 0.0896338 0.441347
69 1 0.552271 0.0846654 0.4337
2887 1 0.567185 0.0815685 0.435384
2881 1 0.561273 0.0943643 0.438254
3083 1 0.578822 0.0892403 0.439604
2945 1 0.587417 0.0760779 0.435863
3023 1 0.59597 0.084828 0.439988
3029 1 0.622703 0.0757502 0.435505
2822 1 0.612732 0.083407 0.43906
3095 1 0.621649 0.0921208 0.438975
2944 1 0.606111 0.0956763 0.441157
5544 1 0.64162 0.0782329 0.432665
2808 1 0.633827 0.0849774 0.437194
2951 1 0.64073 0.0968001 0.438119
2889 1 0.651423 0.0886685 0.435217
2878 1 0.66444 0.0854798 0.432768
2807 1 0.665697 0.100104 0.435606
2954 1 0.692251 0.0941449 0.428693
2956 1 0.680626 0.0857343 0.430093
3022 1 0.679028 0.0987141 0.432816
3146 1 0.997575 0.08891 0.431011
139 1 0.590138 0.100473 0.442712
2872 1 0.616999 0.105841 0.443041
2943 1 0.62948 0.108078 0.441365
2955 1 0.651737 0.104225 0.43922
2801 1 0.667375 0.11179 0.439425
2875 1 0.677027 0.124567 0.44194
2953 1 0.680349 0.111081 0.436368
3105 1 0.692388 0.11016 0.432196
3014 1 0.690317 0.122404 0.43694
3104 1 0.715022 0.110831 0.430355
3239 1 0.705735 0.119259 0.433707
3032 1 0.742585 0.11483 0.430829
3094 1 0.728319 0.113669 0.431616
2923 1 0.921656 0.123225 0.428863
3135 1 0.966621 0.121041 0.430532
76 1 0.990105 0.10245 0.430531
3067 1 0.979014 0.113173 0.431869
3080 1 0.992855 0.118022 0.434884
3174 1 0.697908 0.134216 0.438907
3183 1 0.721511 0.123427 0.434942
3089 1 0.711894 0.132188 0.438867
3179 1 0.725454 0.137827 0.437772
3261 1 0.736306 0.126532 0.433713
3243 1 0.739958 0.140267 0.436564
3182 1 0.731508 0.150018 0.440959
3119 1 0.749095 0.128415 0.431155
2971 1 0.76218 0.134563 0.431339
3186 1 0.752393 0.139374 0.436707
3113 1 0.763487 0.147716 0.437341
3117 1 0.774372 0.136243 0.430574
3124 1 0.796623 0.1416 0.432615
3258 1 0.779908 0.147435 0.435209
3049 1 0.812666 0.13739 0.430586
3110 1 0.820547 0.149311 0.435477
3058 1 0.807049 0.150647 0.435664
2991 1 0.828782 0.138429 0.431642
3115 1 0.837475 0.146416 0.434617
3050 1 0.848555 0.132316 0.429028
2920 1 0.852336 0.147201 0.434098
2922 1 0.865782 0.149134 0.436375
3193 1 0.879356 0.138964 0.430651
3043 1 0.896385 0.135994 0.42928
3349 1 0.890039 0.14458 0.433956
3066 1 0.913258 0.133786 0.432714
3072 1 0.905385 0.14637 0.436253
3287 1 0.921883 0.144232 0.43717
2925 1 0.937931 0.123725 0.42938
3272 1 0.948298 0.136753 0.433611
3209 1 0.931766 0.135918 0.432726
3142 1 0.938264 0.142652 0.438477
3277 1 0.953691 0.125137 0.430516
3074 1 0.961609 0.134597 0.434836
3076 1 0.958469 0.144582 0.440019
3147 1 0.970728 0.138307 0.440997
3219 1 0.976442 0.128472 0.435336
351 1 0.992445 0.133013 0.439991
3037 1 0.746198 0.150016 0.440182
3326 1 0.756878 0.160502 0.441302
3388 1 0.770431 0.158599 0.439695
3122 1 0.79164 0.153873 0.438013
3187 1 0.783173 0.161914 0.440208
3255 1 0.801182 0.161524 0.440604
3196 1 0.81685 0.161167 0.440551
3330 1 0.830532 0.159263 0.439163
3118 1 0.843995 0.157996 0.438665
3046 1 0.857332 0.160109 0.441384
2994 1 0.870283 0.159947 0.441196
2990 1 0.879697 0.151239 0.436728
2847 1 0.898462 0.157091 0.438713
3054 1 0.885446 0.160761 0.441021
3205 1 0.91598 0.156815 0.441321
341 1 0.506845 0.0982895 0.44818
3017 1 0.519972 0.100013 0.446522
3152 1 0.511155 0.109352 0.452334
3153 1 0.526163 0.113491 0.449523
555 1 0.516975 0.118419 0.456669
627 1 0.533354 0.10409 0.444223
3158 1 0.546707 0.103637 0.444662
549 1 0.540778 0.114533 0.449072
3165 1 0.547113 0.123901 0.457097
3082 1 0.53379 0.120643 0.455883
279 1 0.560585 0.107286 0.442506
3091 1 0.555781 0.114654 0.449555
2805 1 0.572098 0.114876 0.448627
3090 1 0.561693 0.123259 0.456284
3015 1 0.576842 0.104533 0.443245
3092 1 0.58679 0.116296 0.448857
274 1 0.601818 0.111116 0.445543
2810 1 0.60975 0.121407 0.447968
3093 1 0.623992 0.118881 0.448311
2950 1 0.640402 0.12106 0.446317
2947 1 0.652387 0.115799 0.4434
3189 1 0.665958 0.123794 0.446052
208 1 0.597296 0.124962 0.45015
3013 1 0.581002 0.128445 0.453965
3016 1 0.592157 0.137151 0.456333
3101 1 0.621413 0.130597 0.452716
2942 1 0.60647 0.135176 0.45376
3021 1 0.634383 0.130192 0.450505
3087 1 0.643712 0.138804 0.454261
3096 1 0.653848 0.129974 0.450213
3030 1 0.65911 0.142211 0.454292
3245 1 0.672185 0.135115 0.448551
2948 1 0.68601 0.13558 0.443593
3247 1 0.680243 0.14676 0.449399
3319 1 0.714887 0.146438 0.441943
3103 1 0.701677 0.144859 0.443215
286 1 0.984596 0.142331 0.442921
3387 1 0.671869 0.152038 0.453928
2964 1 0.693997 0.152392 0.448988
3188 1 0.687459 0.16124 0.453859
3181 1 0.701036 0.170223 0.454197
3250 1 0.707173 0.156108 0.447253
3185 1 0.723819 0.158507 0.444691
3390 1 0.715103 0.164668 0.449626
3399 1 0.725454 0.173062 0.450828
3393 1 0.740526 0.163126 0.44415
3257 1 0.750895 0.171891 0.445267
3325 1 0.764652 0.171636 0.445514
3111 1 0.777804 0.171041 0.444767
3263 1 0.793022 0.169418 0.444005
2850 1 0.807015 0.171586 0.445163
3053 1 0.825251 0.171707 0.445657
3194 1 0.841434 0.168765 0.445271
3190 1 0.855875 0.171877 0.446319
3191 1 0.874388 0.17287 0.445928
3192 1 0.892418 0.171504 0.445639
3204 1 0.906106 0.170161 0.444524
3275 1 0.920735 0.16714 0.446784
3346 1 0.931131 0.155778 0.443868
3216 1 0.936929 0.166008 0.447404
3071 1 0.945894 0.154792 0.443923
355 1 0.971178 0.15099 0.445279
3148 1 0.959526 0.158597 0.447248
425 1 0.950847 0.168345 0.44988
3212 1 0.974263 0.162385 0.45053
287 1 0.985445 0.155741 0.448842
3285 1 0.990299 0.1673 0.453387
3246 1 0.711377 0.179876 0.455451
3251 1 0.726242 0.186597 0.455686
3332 1 0.738491 0.175727 0.449146
3327 1 0.742451 0.187703 0.455074
3253 1 0.756307 0.181367 0.450332
3061 1 0.770039 0.183201 0.450355
3398 1 0.756408 0.193908 0.455015
2988 1 0.771442 0.192794 0.454953
3262 1 0.786589 0.182196 0.449145
3126 1 0.78781 0.191509 0.454012
3051 1 0.800276 0.181872 0.44953
3334 1 0.805914 0.190302 0.45421
3259 1 0.815413 0.182084 0.44975
3407 1 0.821983 0.192539 0.456542
3403 1 0.832207 0.179693 0.450499
3329 1 0.847491 0.17818 0.451387
3340 1 0.836669 0.189785 0.456435
3055 1 0.862983 0.181323 0.451821
3202 1 0.854319 0.190618 0.456467
3616 1 0.869033 0.193064 0.456245
3052 1 0.880429 0.184328 0.453074
3056 1 0.89734 0.186811 0.454663
3348 1 0.90696 0.175287 0.452116
3211 1 0.92217 0.178822 0.451664
3125 1 0.93852 0.177553 0.451254
3339 1 0.935715 0.186758 0.457249
3279 1 0.964522 0.174767 0.451845
3217 1 0.951478 0.182514 0.453556
3344 1 0.97964 0.176943 0.455357
835 1 0.503001 0.116702 0.457799
3221 1 0.511005 0.127933 0.462207
3292 1 0.5034 0.135578 0.470337
557 1 0.51726 0.138959 0.468577
3161 1 0.527268 0.129647 0.461373
3295 1 0.543061 0.132436 0.462637
3088 1 0.533576 0.139555 0.468848
3231 1 0.556567 0.132917 0.46383
3228 1 0.551359 0.141127 0.468951
3151 1 0.566625 0.143062 0.465824
343 1 0.570046 0.131293 0.460685
3024 1 0.579376 0.138926 0.46164
3237 1 0.592316 0.149618 0.464178
3309 1 0.617673 0.139649 0.459747
3171 1 0.60394 0.145219 0.460659
3169 1 0.632119 0.142405 0.457438
3028 1 0.648016 0.149522 0.460101
3298 1 0.578618 0.152796 0.468207
3459 1 0.592908 0.160617 0.470357
3244 1 0.617561 0.15296 0.463727
3241 1 0.605222 0.155664 0.465658
3156 1 0.617177 0.164565 0.469015
3099 1 0.63114 0.164262 0.466834
3230 1 0.635066 0.155852 0.462634
3168 1 0.643194 0.169919 0.470369
3163 1 0.648589 0.16333 0.465229
2958 1 0.661446 0.157096 0.460022
3178 1 0.677998 0.162444 0.459902
3033 1 0.66445 0.169057 0.466385
3176 1 0.688733 0.171951 0.459829
3170 1 0.655451 0.17543 0.470867
3318 1 0.664418 0.18393 0.471088
3012 1 0.676944 0.176859 0.464729
3100 1 0.689929 0.187685 0.466115
3316 1 0.677139 0.188344 0.469754
3260 1 0.698512 0.181381 0.462421
3320 1 0.712558 0.189721 0.460872
3456 1 0.705954 0.195462 0.468389
3458 1 0.720679 0.198485 0.464353
3460 1 0.733594 0.197685 0.459614
3127 1 0.887365 0.195256 0.458385
3201 1 0.902847 0.194145 0.462055
3282 1 0.913517 0.184712 0.456965
3203 1 0.923588 0.191773 0.458611
3132 1 0.93898 0.198293 0.463763
3208 1 0.949187 0.192901 0.459894
3210 1 0.966159 0.185104 0.45776
3345 1 0.961183 0.196686 0.463744
3143 1 0.994255 0.18069 0.458657
3351 1 0.982599 0.188662 0.460366
3289 1 0.992206 0.194851 0.464285
3454 1 0.714079 0.205768 0.469719
3545 1 0.74825 0.199539 0.461604
3465 1 0.744734 0.208679 0.467311
3539 1 0.731456 0.207604 0.46847
3541 1 0.763402 0.201818 0.461658
3324 1 0.759821 0.209037 0.467257
3396 1 0.774581 0.206748 0.466266
3265 1 0.797208 0.199347 0.459136
3331 1 0.785113 0.213145 0.470445
3120 1 0.781476 0.201592 0.459351
3473 1 0.790582 0.212139 0.463714
3268 1 0.801348 0.226124 0.470205
3123 1 0.812561 0.202698 0.459644
3397 1 0.805088 0.213857 0.465327
3404 1 0.820162 0.211132 0.465899
3758 1 0.814279 0.221441 0.469771
3410 1 0.827338 0.202485 0.460923
3337 1 0.835716 0.21042 0.466026
3128 1 0.843859 0.200869 0.460842
3405 1 0.851291 0.206948 0.466767
3480 1 0.867714 0.210297 0.468784
3335 1 0.859434 0.201214 0.46196
3269 1 0.876426 0.199988 0.462329
3479 1 0.884425 0.209728 0.467314
3062 1 0.89551 0.204703 0.464738
3418 1 0.89664 0.214188 0.471067
3343 1 0.915907 0.201438 0.463479
3354 1 0.910783 0.21153 0.469578
3130 1 0.928368 0.203499 0.465845
283 1 0.951304 0.203391 0.467619
3350 1 0.96793 0.207863 0.469577
212 1 0.97853 0.200099 0.466537
768 1 0.511129 0.148193 0.476469
3155 1 0.526 0.146533 0.475755
3226 1 0.541438 0.14715 0.473745
3154 1 0.562575 0.150807 0.472946
685 1 0.509746 0.157604 0.482789
766 1 0.522621 0.158643 0.483398
3437 1 0.535585 0.155943 0.480848
3085 1 0.551329 0.157765 0.478211
3299 1 0.57296 0.159552 0.475716
3236 1 0.561024 0.165257 0.481397
3438 1 0.573766 0.173534 0.482096
3159 1 0.583888 0.166945 0.475426
3453 1 0.590181 0.176586 0.479351
3233 1 0.602153 0.168507 0.473058
3162 1 0.628984 0.172643 0.472454
3377 1 0.595753 0.18612 0.485299
3225 1 0.605778 0.182655 0.478928
3164 1 0.617685 0.174328 0.475842
3386 1 0.61976 0.190379 0.482883
3242 1 0.641848 0.181699 0.475453
3308 1 0.629369 0.183226 0.47924
3392 1 0.645485 0.192974 0.481545
3238 1 0.633238 0.196469 0.484525
3166 1 0.654322 0.188149 0.477755
3307 1 0.670039 0.193245 0.476543
3389 1 0.693964 0.199339 0.472138
3310 1 0.659779 0.200897 0.484153
3240 1 0.67267 0.203849 0.483039
3314 1 0.681397 0.200417 0.476911
3172 1 0.692322 0.209396 0.479947
3254 1 0.697223 0.219485 0.485443
3380 1 0.704055 0.208847 0.47523
3394 1 0.709958 0.219918 0.480769
3322 1 0.720162 0.213024 0.476428
3471 1 0.748754 0.216726 0.473595
3256 1 0.73426 0.216393 0.475414
3468 1 0.724197 0.221219 0.481195
3266 1 0.768519 0.21583 0.47184
3546 1 0.761818 0.222721 0.47815
3338 1 0.777523 0.224648 0.475524
3475 1 0.827575 0.219203 0.472533
3618 1 0.844138 0.219606 0.472839
3267 1 0.857245 0.214749 0.47282
3476 1 0.87085 0.223431 0.477261
3270 1 0.882515 0.2182 0.474521
3488 1 0.895211 0.224202 0.478286
3406 1 0.913035 0.219008 0.475369
3421 1 0.925159 0.21252 0.47221
3284 1 0.921798 0.227723 0.480933
3341 1 0.938243 0.20907 0.471022
3342 1 0.933972 0.22173 0.477611
3497 1 0.951535 0.214987 0.472664
3280 1 0.963501 0.219257 0.476629
3569 1 0.992635 0.207183 0.470722
284 1 0.978813 0.212377 0.473537
3412 1 0.993205 0.217495 0.477465
3134 1 0.979616 0.221413 0.481217
3543 1 0.739244 0.224949 0.481794
3264 1 0.752288 0.229272 0.484266
3336 1 0.767894 0.230844 0.483267
3333 1 0.791713 0.225521 0.475496
3467 1 0.794288 0.235886 0.480574
3750 1 0.781976 0.233463 0.482244
3553 1 0.807109 0.231908 0.477821
3549 1 0.820079 0.227509 0.477437
3611 1 0.811253 0.238651 0.484381
3542 1 0.834359 0.22939 0.480226
3613 1 0.824614 0.235333 0.484772
3409 1 0.84841 0.227799 0.48067
3557 1 0.862009 0.227006 0.481739
3198 1 0.869927 0.235335 0.485561
3490 1 0.883767 0.229956 0.481391
3271 1 0.906692 0.22852 0.482147
3416 1 0.948089 0.223057 0.480908
3218 1 0.935345 0.234471 0.484954
3417 1 0.965678 0.229134 0.482738
3288 1 0.992326 0.228216 0.484989
3229 1 0.50198 0.167653 0.490372
3296 1 0.515215 0.16788 0.487661
3020 1 0.547989 0.166188 0.485584
3367 1 0.532666 0.169266 0.487161
689 1 0.502506 0.176975 0.496769
827 1 0.517911 0.176874 0.495318
3501 1 0.531034 0.180368 0.492531
3363 1 0.545172 0.179214 0.489623
3503 1 0.540344 0.189478 0.496607
3432 1 0.524365 0.190417 0.498993
3297 1 0.560587 0.177013 0.487189
3098 1 0.566655 0.187646 0.491614
3439 1 0.552893 0.189281 0.494634
3361 1 0.563445 0.198398 0.500045
3505 1 0.57952 0.184331 0.486727
3302 1 0.580648 0.194944 0.494594
3657 1 0.59017 0.19411 0.490315
3527 1 0.607249 0.194392 0.485698
3372 1 0.590676 0.205053 0.498491
3312 1 0.619855 0.200947 0.489294
3450 1 0.602877 0.20387 0.493576
3300 1 0.618485 0.207876 0.495852
3376 1 0.630793 0.218319 0.498511
3381 1 0.64784 0.204711 0.487973
3466 1 0.632538 0.204692 0.491498
3378 1 0.641636 0.21338 0.494816
3529 1 0.650237 0.226665 0.498595
3457 1 0.666273 0.213326 0.489008
3534 1 0.655365 0.216092 0.493195
3180 1 0.678893 0.217951 0.491105
3321 1 0.684213 0.214896 0.485107
3197 1 0.715255 0.226779 0.486948
3401 1 0.66413 0.226887 0.498998
3470 1 0.692931 0.225235 0.49239
3402 1 0.677965 0.228906 0.496958
3400 1 0.692401 0.237344 0.498694
3252 1 0.70478 0.233262 0.491196
3751 1 0.707892 0.243843 0.498327
3461 1 0.723452 0.2403 0.493904
3328 1 0.726904 0.231496 0.487756
3615 1 0.740035 0.237739 0.489378
3619 1 0.735278 0.247587 0.497619
3477 1 0.753769 0.241206 0.492066
3472 1 0.7681 0.239803 0.489752
3896 1 0.786688 0.240866 0.488234
3831 1 0.778849 0.247585 0.494759
3624 1 0.800497 0.24215 0.488092
3547 1 0.810552 0.248829 0.491787
3408 1 0.841357 0.235176 0.486775
3827 1 0.825753 0.243389 0.490446
3558 1 0.839044 0.245157 0.492041
3481 1 0.853627 0.237405 0.488935
3563 1 0.866042 0.243305 0.492231
3413 1 0.854821 0.247607 0.495068
3425 1 0.895297 0.232157 0.487621
3200 1 0.882984 0.239377 0.490505
3281 1 0.898866 0.242605 0.495028
3491 1 0.885939 0.249825 0.497139
3493 1 0.910501 0.240925 0.489324
3358 1 0.923294 0.236567 0.487392
3414 1 0.927753 0.247298 0.492034
3415 1 0.941298 0.240343 0.490827
3214 1 0.953502 0.233842 0.487315
3278 1 0.952343 0.246459 0.494651
491 1 0.966085 0.241565 0.491007
423 1 0.977708 0.235193 0.488742
3780 1 0.996079 0.248702 0.499067
421 1 0.992082 0.238097 0.491102
354 1 0.981873 0.245118 0.495623
3687 1 0.750522 0.250083 0.4973
3614 1 0.764487 0.250838 0.496689
3552 1 0.792547 0.250378 0.493581
3620 1 0.800867 0.258425 0.49886
3762 1 0.814965 0.257962 0.499203
3608 1 0.825254 0.252431 0.49638
3691 1 0.840287 0.254118 0.499383
3422 1 0.89798 0.254155 0.500275
3489 1 0.87247 0.250152 0.497418
3347 1 0.911284 0.247986 0.495533
3428 1 0.936254 0.251439 0.498427
3356 1 0.966 0.253463 0.497246
700 1 0.510358 0.18865 0.501378
760 1 0.503572 0.197348 0.508858
840 1 0.517561 0.197615 0.50734
837 1 0.548236 0.196254 0.502062
3366 1 0.534624 0.199442 0.504731
839 1 0.541963 0.207881 0.511035
3434 1 0.526129 0.207156 0.511341
3510 1 0.557026 0.204815 0.50689
979 1 0.572197 0.212017 0.506104
539 1 0.558825 0.213776 0.512526
3232 1 0.591838 0.213295 0.505487
3294 1 0.5941 0.223793 0.51506
3370 1 0.581637 0.218569 0.511568
3506 1 0.577608 0.20383 0.501452
3365 1 0.603535 0.210824 0.500389
3301 1 0.605051 0.219507 0.508883
3395 1 0.619443 0.216037 0.503137
3659 1 0.620809 0.225432 0.508105
3385 1 0.634415 0.227606 0.503782
3317 1 0.637195 0.237923 0.509202
3375 1 0.648797 0.231875 0.505324
3383 1 0.623658 0.238816 0.511205
3323 1 0.65933 0.236565 0.504835
3463 1 0.652607 0.24599 0.509131
3469 1 0.671327 0.246098 0.508544
3609 1 0.673968 0.235627 0.503145
3531 1 0.687155 0.244167 0.503977
3610 1 0.666658 0.255767 0.513374
3538 1 0.682054 0.254302 0.510433
3607 1 0.697 0.25606 0.509952
3685 1 0.702144 0.248639 0.504332
3530 1 0.708856 0.269799 0.514947
3682 1 0.713606 0.259429 0.509267
3681 1 0.721603 0.250185 0.500762
3462 1 0.725467 0.270181 0.511484
3674 1 0.730227 0.258144 0.506028
3536 1 0.743864 0.268462 0.50946
3747 1 0.744531 0.258582 0.504006
3537 1 0.758555 0.258604 0.503221
3617 1 0.759578 0.269414 0.50775
3745 1 0.77358 0.260867 0.502442
3686 1 0.775991 0.269832 0.509737
3676 1 0.789913 0.266924 0.507373
3474 1 0.785764 0.257555 0.501234
3757 1 0.803516 0.264778 0.505203
3753 1 0.816033 0.264976 0.5063
3550 1 0.808021 0.273703 0.511622
3482 1 0.826243 0.273816 0.510649
3483 1 0.830567 0.261168 0.503567
3756 1 0.848337 0.26115 0.505688
3548 1 0.837888 0.270651 0.508301
3627 1 0.86411 0.264356 0.507755
3492 1 0.85004 0.274847 0.511591
3634 1 0.873099 0.258962 0.502089
3622 1 0.865957 0.273945 0.514099
3551 1 0.8604 0.254738 0.501441
3485 1 0.885949 0.260404 0.504571
3561 1 0.898514 0.262996 0.50616
3486 1 0.878866 0.268329 0.510738
3702 1 0.89594 0.270351 0.513735
3495 1 0.911052 0.257697 0.503512
3562 1 0.92218 0.263989 0.506964
3419 1 0.908853 0.270793 0.509778
3631 1 0.9234 0.255305 0.499931
913 1 0.93739 0.263594 0.504485
3845 1 0.933909 0.273858 0.510195
561 1 0.952532 0.266673 0.507491
424 1 0.96543 0.261536 0.505331
3500 1 0.9721 0.272664 0.510763
3555 1 0.950654 0.257434 0.501063
3708 1 0.997176 0.271187 0.510411
3778 1 0.98334 0.265159 0.507873
775 1 0.994509 0.258542 0.503968
3353 1 0.979628 0.255772 0.503213
3606 1 0.755062 0.278074 0.514897
3638 1 0.919772 0.275933 0.513343
3844 1 0.94438 0.279297 0.513453
3637 1 0.959108 0.27608 0.512125
3639 1 0.984916 0.278553 0.513802
899 1 0.510897 0.208669 0.515672
3508 1 0.514806 0.219326 0.521224
698 1 0.528632 0.214221 0.517825
770 1 0.544847 0.215768 0.518368
3436 1 0.529818 0.223147 0.524917
3577 1 0.5434 0.224372 0.525212
903 1 0.571604 0.221482 0.517353
3504 1 0.556778 0.220447 0.521456
758 1 0.504471 0.227034 0.526888
3572 1 0.521999 0.229534 0.528361
3234 1 0.566188 0.229605 0.523338
3369 1 0.55544 0.231581 0.527583
3451 1 0.577267 0.237709 0.527212
3441 1 0.582898 0.228265 0.520802
3306 1 0.591555 0.240183 0.525855
3452 1 0.610861 0.232905 0.514199
3227 1 0.598948 0.234453 0.52028
3160 1 0.616027 0.240022 0.520106
3235 1 0.608642 0.243673 0.526051
3520 1 0.642512 0.247428 0.515476
3515 1 0.631023 0.245728 0.520427
3535 1 0.62184 0.25263 0.527133
3455 1 0.636799 0.257043 0.522854
3667 1 0.628774 0.264103 0.529813
3384 1 0.640075 0.271553 0.528539
3523 1 0.652936 0.258306 0.518029
3464 1 0.666109 0.270397 0.518501
3605 1 0.650205 0.267375 0.523953
3683 1 0.693705 0.266113 0.516116
3382 1 0.678123 0.264307 0.514943
3540 1 0.67377 0.279336 0.524126
3736 1 0.656807 0.277307 0.528642
3665 1 0.684584 0.273508 0.519082
3677 1 0.693577 0.280245 0.522417
3544 1 0.687853 0.290718 0.526949
3678 1 0.722157 0.278791 0.51672
3522 1 0.706816 0.277505 0.520471
3744 1 0.703625 0.290698 0.526299
3742 1 0.715169 0.287202 0.523209
3746 1 0.723052 0.296443 0.527883
3532 1 0.737973 0.280472 0.515563
3738 1 0.733671 0.288278 0.523365
3597 1 0.747585 0.287762 0.519498
3673 1 0.762892 0.288079 0.522054
3743 1 0.764456 0.298896 0.526174
3694 1 0.768659 0.27913 0.51501
3599 1 0.751537 0.292877 0.526818
3692 1 0.786135 0.277888 0.514543
3478 1 0.778519 0.287898 0.521996
3621 1 0.794659 0.288628 0.523299
3612 1 0.815452 0.283781 0.515456
3496 1 0.802318 0.281553 0.517325
3623 1 0.811112 0.292974 0.522666
3749 1 0.801754 0.300575 0.526519
3693 1 0.835806 0.281334 0.515616
3411 1 0.826137 0.288428 0.519269
3554 1 0.848188 0.29121 0.523791
3560 1 0.832243 0.297492 0.524351
3556 1 0.852409 0.280407 0.519321
3494 1 0.869175 0.282677 0.521303
3900 1 0.862823 0.293714 0.526075
3766 1 0.883063 0.277915 0.518451
3423 1 0.897383 0.281389 0.521581
3564 1 0.883382 0.284961 0.525074
3840 1 0.895156 0.295065 0.526452
3701 1 0.907507 0.279777 0.517009
3913 1 0.921067 0.289054 0.51953
3635 1 0.908118 0.291293 0.522464
3629 1 0.930591 0.281968 0.516068
3705 1 0.941666 0.291247 0.516756
3777 1 0.931337 0.296445 0.522209
843 1 0.971479 0.284316 0.517113
777 1 0.956059 0.287558 0.5171
841 1 0.965869 0.296778 0.52154
3565 1 0.99528 0.285837 0.51765
3776 1 0.982797 0.290686 0.519541
846 1 0.999792 0.295694 0.520842
3688 1 0.783947 0.299236 0.52801
3764 1 0.819312 0.301745 0.527269
3771 1 0.916457 0.29908 0.525738
3626 1 0.903518 0.303403 0.529527
3704 1 0.940072 0.309016 0.527364
3912 1 0.926202 0.310226 0.527482
3566 1 0.948822 0.300712 0.52145
3910 1 0.972194 0.307348 0.525667
3774 1 0.957104 0.308463 0.526443
1057 1 0.984306 0.301596 0.5238
1129 1 0.996123 0.309289 0.525066
915 1 0.98412 0.314824 0.52864
829 1 0.511934 0.23547 0.532456
910 1 0.512679 0.247383 0.53877
3579 1 0.524203 0.241947 0.533181
3502 1 0.536601 0.234536 0.529547
3371 1 0.546696 0.239917 0.53207
3373 1 0.568915 0.243622 0.532421
3575 1 0.557952 0.249796 0.535564
3248 1 0.583059 0.250665 0.531352
908 1 0.52242 0.255937 0.540592
3440 1 0.537902 0.250663 0.536462
833 1 0.537028 0.261397 0.542442
3442 1 0.550048 0.258234 0.539911
3368 1 0.569183 0.257389 0.537752
3303 1 0.598697 0.253289 0.531245
3448 1 0.578796 0.266909 0.541863
3313 1 0.588669 0.261095 0.536735
3586 1 0.589681 0.274017 0.543311
3305 1 0.603427 0.266653 0.535869
3311 1 0.611704 0.258225 0.530733
3655 1 0.61821 0.268538 0.532749
3584 1 0.604661 0.277359 0.540832
3588 1 0.618201 0.278577 0.539125
3447 1 0.631657 0.277457 0.534592
3590 1 0.628934 0.289422 0.540463
3528 1 0.646215 0.284342 0.534126
3653 1 0.644745 0.296882 0.541348
3524 1 0.668452 0.288559 0.529702
3525 1 0.656243 0.293426 0.535574
3669 1 0.669471 0.300609 0.534738
3709 1 0.878056 0.298089 0.529498
3679 1 0.674565 0.310002 0.539238
3806 1 0.659123 0.306721 0.541066
3737 1 0.69915 0.301355 0.531517
3533 1 0.683049 0.303822 0.534362
3591 1 0.699095 0.311222 0.536646
3598 1 0.686761 0.319854 0.540054
3734 1 0.702791 0.321658 0.540251
3882 1 0.711949 0.302153 0.530468
3596 1 0.712154 0.312892 0.535354
3804 1 0.717287 0.323585 0.538729
3733 1 0.724238 0.309298 0.53421
3891 1 0.738329 0.300502 0.531018
3603 1 0.741926 0.314493 0.536167
3526 1 0.730151 0.31933 0.538393
3604 1 0.772335 0.307291 0.531488
3823 1 0.75457 0.309414 0.532618
3961 1 0.770505 0.319535 0.536915
3880 1 0.75357 0.322409 0.539055
3973 1 0.793247 0.310013 0.532401
3897 1 0.782923 0.312175 0.535757
3752 1 0.791921 0.321878 0.539881
3487 1 0.809401 0.309349 0.530809
3755 1 0.822749 0.312322 0.532817
3967 1 0.804431 0.31725 0.537821
3898 1 0.821318 0.322362 0.539362
3625 1 0.848597 0.302773 0.527881
3761 1 0.836257 0.305246 0.529213
3484 1 0.835884 0.316366 0.535361
3765 1 0.8518 0.313095 0.533762
3825 1 0.86496 0.304622 0.532079
3905 1 0.863707 0.319027 0.537585
3899 1 0.873776 0.313143 0.534707
3843 1 0.889652 0.307132 0.530871
3769 1 0.884833 0.318683 0.534799
3707 1 0.900423 0.31655 0.531822
3779 1 0.915784 0.315368 0.530881
981 1 0.941236 0.320548 0.531428
3632 1 0.928487 0.323717 0.533121
3848 1 0.967079 0.319713 0.530615
849 1 0.953961 0.319266 0.532694
994 1 0.99619 0.323647 0.5316
3810 1 0.74018 0.328142 0.541627
3811 1 0.7271 0.333545 0.541815
3828 1 0.764702 0.332338 0.540528
3593 1 0.779799 0.327774 0.542
3684 1 0.836591 0.328399 0.541796
3763 1 0.850349 0.324764 0.538644
3969 1 0.846135 0.338213 0.543815
4112 1 0.860108 0.335103 0.541088
3829 1 0.873775 0.328798 0.538455
3697 1 0.888613 0.335295 0.5382
3698 1 0.898402 0.325823 0.536659
3748 1 0.874003 0.343228 0.541605
3833 1 0.896419 0.346003 0.540991
3628 1 0.915283 0.329279 0.534887
3767 1 0.907149 0.337562 0.538815
3835 1 0.927991 0.336742 0.537712
911 1 0.944229 0.333615 0.534563
3917 1 0.933515 0.349546 0.542582
3775 1 0.948136 0.343605 0.539173
914 1 0.958835 0.334093 0.534916
3915 1 0.975277 0.332427 0.536321
3847 1 0.965794 0.346008 0.539474
926 1 0.982991 0.326484 0.531895
3914 1 0.980456 0.34397 0.53892
993 1 0.990782 0.337162 0.535614
781 1 0.998488 0.345713 0.538871
3696 1 0.914219 0.349139 0.542845
3699 1 0.97183 0.358316 0.541365
844 1 0.986874 0.356374 0.541852
905 1 0.507984 0.255773 0.545572
3574 1 0.524287 0.266523 0.547309
836 1 0.50648 0.269124 0.549171
3573 1 0.544197 0.270644 0.546502
3713 1 0.560867 0.266264 0.543624
3715 1 0.515207 0.280421 0.550283
1119 1 0.513108 0.293194 0.554585
828 1 0.530736 0.279291 0.550162
3712 1 0.52728 0.28972 0.554122
3578 1 0.541124 0.295942 0.556075
3581 1 0.542538 0.282699 0.551876
3443 1 0.553866 0.29062 0.553309
3167 1 0.558304 0.277676 0.549016
3507 1 0.567816 0.289847 0.551023
3509 1 0.576055 0.277363 0.547664
3449 1 0.585007 0.287267 0.547034
3589 1 0.58147 0.296439 0.553121
3516 1 0.614552 0.294248 0.544933
3514 1 0.598333 0.288467 0.544678
3374 1 0.566336 0.301042 0.555027
3379 1 0.593421 0.301368 0.54844
3444 1 0.577381 0.309428 0.555175
3871 1 0.590262 0.312259 0.552845
3445 1 0.579404 0.322295 0.557641
3446 1 0.606984 0.303834 0.548117
3799 1 0.602747 0.319284 0.553279
3807 1 0.620309 0.309684 0.548865
3656 1 0.615524 0.321262 0.553139
3512 1 0.631156 0.304396 0.545124
3672 1 0.643126 0.312265 0.544739
3651 1 0.631097 0.320717 0.549422
3666 1 0.655226 0.3191 0.545037
3739 1 0.668969 0.322225 0.542478
3658 1 0.59068 0.329815 0.556099
3731 1 0.622336 0.335593 0.55362
3664 1 0.607596 0.332225 0.555012
3594 1 0.645611 0.32793 0.54717
3662 1 0.636628 0.334727 0.553005
3735 1 0.640285 0.3474 0.556383
3732 1 0.649611 0.340737 0.551857
3595 1 0.664169 0.3341 0.548639
3803 1 0.664899 0.345167 0.554201
4013 1 0.676535 0.345398 0.550713
3881 1 0.679155 0.332184 0.547376
3946 1 0.690757 0.341977 0.5497
4016 1 0.69436 0.329472 0.54566
3873 1 0.709186 0.331273 0.544149
4021 1 0.718437 0.34093 0.546891
4019 1 0.705076 0.343174 0.548156
4020 1 0.739239 0.339993 0.546064
3945 1 0.751941 0.333434 0.544391
3741 1 0.762881 0.343077 0.547586
3963 1 0.750405 0.349737 0.549196
3819 1 0.79293 0.335847 0.54695
3689 1 0.77949 0.34271 0.547819
4042 1 0.804869 0.329863 0.543445
4041 1 0.820316 0.333586 0.543957
3971 1 0.808378 0.343692 0.548875
3690 1 0.831516 0.34098 0.547259
3725 1 0.670071 0.359661 0.555623
3808 1 0.653535 0.354789 0.556339
3592 1 0.68548 0.355889 0.552563
4017 1 0.696146 0.367272 0.555104
3943 1 0.681764 0.368054 0.557147
3801 1 0.701113 0.357534 0.550412
4088 1 0.710646 0.36855 0.554601
3668 1 0.717257 0.353105 0.550668
3878 1 0.732423 0.349636 0.548571
4086 1 0.727283 0.365442 0.552215
3875 1 0.742168 0.362768 0.552458
3830 1 0.773796 0.356802 0.551061
3822 1 0.761371 0.359649 0.552844
3680 1 0.769979 0.369316 0.555365
3600 1 0.755917 0.373667 0.556276
4039 1 0.792572 0.350853 0.549841
3675 1 0.788869 0.364671 0.552498
4169 1 0.801233 0.371129 0.556043
3671 1 0.80731 0.356554 0.552929
4037 1 0.820746 0.352845 0.549795
3958 1 0.819743 0.364656 0.554539
3887 1 0.834867 0.354728 0.551632
3902 1 0.833987 0.367757 0.555148
3972 1 0.851228 0.366411 0.552387
4111 1 0.848353 0.351425 0.548988
3976 1 0.863844 0.349763 0.544685
3760 1 0.864743 0.360864 0.550075
3824 1 0.878767 0.363895 0.547343
3837 1 0.875808 0.372544 0.554177
3695 1 0.885513 0.354426 0.544301
3906 1 0.891876 0.365374 0.549085
3700 1 0.90302 0.356106 0.545917
3920 1 0.923523 0.355408 0.547221
3901 1 0.913286 0.36903 0.550692
3706 1 0.940537 0.359948 0.548095
3909 1 0.942213 0.373032 0.550207
3839 1 0.928082 0.369462 0.551172
3703 1 0.955001 0.354796 0.54256
3916 1 0.95493 0.367183 0.546488
1053 1 0.968365 0.368347 0.546678
708 1 0.98253 0.37307 0.546829
1072 1 0.994119 0.369535 0.54384
3950 1 0.724247 0.376899 0.556642
3876 1 0.740851 0.376416 0.5547
3601 1 0.767794 0.385004 0.556133
4030 1 0.75186 0.390025 0.556622
4038 1 0.783216 0.377304 0.555565
3892 1 0.826822 0.383481 0.558075
4110 1 0.844054 0.377269 0.556518
4185 1 0.863114 0.375323 0.55558
3834 1 0.887505 0.378943 0.556692
3826 1 0.900159 0.374687 0.553619
3842 1 0.911582 0.381927 0.555519
4120 1 0.921691 0.3953 0.557639
3772 1 0.946017 0.383802 0.553016
3841 1 0.92753 0.382254 0.554651
3904 1 0.934833 0.395763 0.556403
1123 1 0.948138 0.396613 0.556637
3768 1 0.961135 0.38057 0.54926
1051 1 0.961965 0.393996 0.553069
1059 1 0.976255 0.384911 0.551041
984 1 0.99028 0.384031 0.550677
1127 1 0.985737 0.395372 0.552212
3985 1 0.972392 0.405331 0.554321
3974 1 0.9572 0.406469 0.556325
3846 1 0.96321 0.417354 0.556951
3983 1 0.976215 0.418015 0.557395
3773 1 0.986379 0.409151 0.555288
4192 1 0.990869 0.421492 0.556242
1058 1 0.980132 0.432174 0.556843
3854 1 0.52348 0.302139 0.557806
3645 1 0.508883 0.303847 0.559573
3643 1 0.507769 0.317827 0.561354
3785 1 0.522435 0.314471 0.561486
3717 1 0.535776 0.306837 0.559467
3716 1 0.534339 0.320831 0.564271
3517 1 0.548016 0.312941 0.560428
3587 1 0.553244 0.302443 0.55737
3519 1 0.564516 0.315236 0.559073
3718 1 0.505493 0.332785 0.56281
3720 1 0.520685 0.330288 0.563017
3647 1 0.518835 0.343923 0.56612
3786 1 0.502817 0.346906 0.565719
3513 1 0.53719 0.335751 0.562447
3646 1 0.550624 0.34418 0.563626
3714 1 0.533114 0.347075 0.565306
3511 1 0.547912 0.326927 0.562599
3304 1 0.564335 0.334892 0.559657
3521 1 0.565522 0.349113 0.562983
3580 1 0.5945 0.342971 0.559065
3582 1 0.580574 0.340565 0.560004
3792 1 0.610288 0.344919 0.557558
3602 1 0.625907 0.347086 0.557802
3857 1 0.508432 0.361137 0.566818
3788 1 0.51801 0.373619 0.568976
3783 1 0.525449 0.358594 0.569243
3661 1 0.539298 0.357933 0.566407
3787 1 0.534159 0.371558 0.569435
3722 1 0.55333 0.358298 0.565867
3782 1 0.555113 0.373812 0.567608
3727 1 0.568266 0.362455 0.565373
3660 1 0.582991 0.35311 0.562609
3867 1 0.602216 0.354817 0.560971
3583 1 0.592739 0.36338 0.563817
3585 1 0.581043 0.372486 0.565948
3663 1 0.604078 0.37285 0.563291
3800 1 0.614314 0.356445 0.559775
3937 1 0.619886 0.367529 0.563289
3874 1 0.630935 0.360974 0.559573
3802 1 0.644013 0.364342 0.560637
3939 1 0.633295 0.374795 0.562071
3872 1 0.658717 0.365529 0.560178
4014 1 0.671497 0.372714 0.560751
3996 1 0.506336 0.379506 0.568945
3922 1 0.515112 0.393936 0.571705
3650 1 0.527052 0.38707 0.571303
3652 1 0.539684 0.39764 0.571785
3861 1 0.54119 0.3813 0.571331
3858 1 0.553186 0.386641 0.570286
3993 1 0.563065 0.395376 0.569793
3730 1 0.568484 0.37944 0.566926
3518 1 0.577671 0.38814 0.56845
3942 1 0.594667 0.381637 0.566003
3869 1 0.593625 0.394298 0.568774
3726 1 0.607188 0.388742 0.567107
3870 1 0.620057 0.38424 0.563768
3793 1 0.620956 0.399596 0.567665
3724 1 0.635189 0.388077 0.564235
4090 1 0.649424 0.376311 0.563217
3862 1 0.648116 0.390354 0.564358
3868 1 0.660766 0.380169 0.563464
4011 1 0.666637 0.392448 0.563475
3797 1 0.677999 0.383239 0.562033
4093 1 0.69027 0.378766 0.558503
3728 1 0.688826 0.394577 0.561906
4010 1 0.701745 0.3929 0.559546
4083 1 0.705297 0.38139 0.557745
4084 1 0.718734 0.389315 0.558806
4081 1 0.726182 0.400134 0.559844
3944 1 0.735712 0.38835 0.556696
3740 1 0.767113 0.397371 0.559442
4106 1 0.796216 0.385384 0.557119
4032 1 0.782511 0.394292 0.559066
4107 1 0.797913 0.400862 0.559751
4031 1 0.814131 0.381508 0.556885
3895 1 0.809744 0.392707 0.559036
3979 1 0.825464 0.396123 0.559667
4098 1 0.839994 0.391589 0.558556
3759 1 0.870204 0.38676 0.558386
4183 1 0.856715 0.391129 0.558974
3903 1 0.882853 0.395105 0.559551
4054 1 0.895183 0.390585 0.558115
3770 1 0.907909 0.395027 0.559163
3852 1 0.552005 0.403708 0.569779
3648 1 0.569141 0.408358 0.569423
3929 1 0.580985 0.419365 0.570721
3859 1 0.5806 0.402368 0.568328
3795 1 0.595259 0.411132 0.568854
3721 1 0.606667 0.403439 0.569676
3719 1 0.610089 0.416852 0.567771
4005 1 0.628993 0.41463 0.568374
3729 1 0.637902 0.403286 0.566805
3864 1 0.641096 0.421052 0.56682
3794 1 0.654454 0.401679 0.565499
3863 1 0.65217 0.414541 0.565828
4077 1 0.665863 0.409626 0.565237
3938 1 0.664765 0.425206 0.566459
3798 1 0.677353 0.40324 0.563155
4085 1 0.677413 0.417553 0.565122
4158 1 0.696825 0.406013 0.563105
4159 1 0.690159 0.422214 0.563457
4104 1 0.713181 0.401261 0.561564
4015 1 0.720456 0.412894 0.564465
3812 1 0.706561 0.415465 0.565148
3951 1 0.74017 0.400049 0.559564
3805 1 0.733919 0.410826 0.562614
4223 1 0.73155 0.422941 0.565911
3670 1 0.747089 0.413986 0.562205
3947 1 0.753895 0.403437 0.559311
3893 1 0.763036 0.415527 0.561858
3968 1 0.776637 0.409711 0.559679
3821 1 0.775371 0.42457 0.563139
3959 1 0.789007 0.412458 0.561627
4317 1 0.803636 0.418885 0.560216
4035 1 0.811054 0.405626 0.558879
4036 1 0.823917 0.410785 0.559261
4034 1 0.816728 0.420853 0.561548
4047 1 0.838556 0.404812 0.560975
4114 1 0.83184 0.419893 0.562953
3977 1 0.845901 0.416245 0.562719
3894 1 0.869092 0.400774 0.561309
4040 1 0.853498 0.403053 0.561765
3836 1 0.860593 0.4163 0.562239
3970 1 0.872724 0.413859 0.563025
4119 1 0.8839 0.40812 0.560524
4113 1 0.898467 0.405492 0.560636
4179 1 0.888069 0.420911 0.561983
4246 1 0.91337 0.410971 0.559572
4109 1 0.904962 0.419663 0.56274
3911 1 0.927891 0.41052 0.559639
3838 1 0.942375 0.409802 0.5584
1124 1 0.948633 0.423488 0.557775
3980 1 0.934314 0.423136 0.560838
3998 1 0.566903 0.425369 0.5712
3723 1 0.568352 0.440276 0.570539
3934 1 0.554068 0.446294 0.571868
3941 1 0.596327 0.425158 0.56997
3865 1 0.596163 0.444233 0.57154
3791 1 0.58231 0.434542 0.571471
3933 1 0.60563 0.433298 0.569749
3654 1 0.62004 0.426058 0.567571
4153 1 0.619325 0.439165 0.567944
4082 1 0.633472 0.432096 0.566876
4226 1 0.643174 0.443796 0.566705
4368 1 0.651549 0.431578 0.565538
3960 1 0.666605 0.438085 0.564099
4151 1 0.65723 0.448396 0.565054
4154 1 0.678692 0.43316 0.566819
4028 1 0.691259 0.441212 0.565653
4087 1 0.715055 0.426572 0.567026
3890 1 0.700492 0.43031 0.565215
4101 1 0.710609 0.441598 0.56729
3877 1 0.726527 0.435949 0.567207
3809 1 0.737074 0.446864 0.564967
3818 1 0.741999 0.431195 0.565816
3964 1 0.755113 0.428509 0.562154
3754 1 0.765663 0.433043 0.56311
3817 1 0.753973 0.443499 0.564654
3952 1 0.768677 0.447233 0.564349
3966 1 0.793515 0.426987 0.562835
3816 1 0.779675 0.438704 0.5639
3815 1 0.794613 0.442186 0.562808
3965 1 0.806274 0.432442 0.562528
3962 1 0.820088 0.443842 0.564826
3820 1 0.807912 0.446154 0.563888
3978 1 0.822451 0.432504 0.563061
4173 1 0.834517 0.440937 0.564962
4118 1 0.843798 0.432545 0.563673
4045 1 0.852422 0.444366 0.564821
3832 1 0.859465 0.428793 0.565422
4182 1 0.868672 0.441319 0.565344
4184 1 0.875656 0.429382 0.563792
4048 1 0.888791 0.43843 0.564308
4249 1 0.901446 0.437417 0.560456
3908 1 0.91657 0.437171 0.562341
4187 1 0.919851 0.424351 0.559973
4051 1 0.93115 0.436775 0.559551
4265 1 0.947845 0.435939 0.558717
3982 1 0.941989 0.448588 0.56058
3919 1 0.963344 0.430998 0.557558
1195 1 0.97418 0.444218 0.558426
4052 1 0.959966 0.442994 0.560276
1132 1 0.99109 0.437882 0.559468
4002 1 0.611213 0.467478 0.570489
4078 1 0.613487 0.451924 0.569437
4359 1 0.629818 0.450356 0.568647
4080 1 0.640399 0.457073 0.568372
3940 1 0.627102 0.464287 0.56982
4012 1 0.638039 0.473003 0.567228
4157 1 0.663971 0.461054 0.564752
4008 1 0.651703 0.465069 0.565763
4155 1 0.675593 0.44879 0.565976
4022 1 0.678505 0.4665 0.564519
3889 1 0.691715 0.455829 0.565792
3954 1 0.692347 0.471585 0.565429
4018 1 0.704138 0.455125 0.567484
4298 1 0.706796 0.468193 0.566662
4168 1 0.720259 0.470678 0.567461
4163 1 0.719598 0.452893 0.567553
4167 1 0.73535 0.460819 0.566023
3957 1 0.748154 0.457069 0.563396
4161 1 0.747858 0.470303 0.564549
4024 1 0.735502 0.475665 0.565741
4240 1 0.760472 0.461425 0.564996
3953 1 0.761073 0.475385 0.566062
3955 1 0.773646 0.462592 0.563624
3813 1 0.785962 0.453513 0.563297
4172 1 0.792133 0.469023 0.565197
4102 1 0.801639 0.459616 0.564769
3956 1 0.816031 0.457708 0.565807
4245 1 0.812365 0.46879 0.565911
4243 1 0.830208 0.457738 0.566254
4177 1 0.830474 0.473393 0.566179
4100 1 0.843723 0.456578 0.566278
4175 1 0.84507 0.472702 0.56626
4050 1 0.854724 0.462247 0.564832
4180 1 0.864656 0.455642 0.564313
4255 1 0.875696 0.468199 0.564931
4044 1 0.880748 0.451133 0.562911
4046 1 0.896159 0.452577 0.563124
4190 1 0.887947 0.46459 0.563604
4115 1 0.903136 0.467914 0.563449
4117 1 0.907847 0.449912 0.561569
4116 1 0.92231 0.450435 0.560081
4125 1 0.916693 0.466922 0.562412
4320 1 0.931486 0.459275 0.562496
4257 1 0.945101 0.467647 0.561142
4191 1 0.928405 0.474672 0.561893
4189 1 0.97097 0.453727 0.56358
4057 1 0.954617 0.458587 0.562206
4194 1 0.967996 0.467941 0.562081
1125 1 0.987289 0.450201 0.558854
1200 1 0.9837 0.461607 0.56305
4056 1 0.999032 0.459494 0.561079
4059 1 0.99461 0.471661 0.565366
4070 1 0.561947 0.494503 0.572283
4217 1 0.57649 0.496005 0.572227
4006 1 0.600433 0.480237 0.573461
4075 1 0.622763 0.492267 0.566789
3936 1 0.609356 0.489977 0.570016
4145 1 0.622343 0.477227 0.570221
4293 1 0.637437 0.485532 0.567522
4294 1 0.650711 0.49684 0.565614
4439 1 0.662849 0.475212 0.56493
4152 1 0.650188 0.482556 0.565612
3949 1 0.665702 0.488122 0.56566
3883 1 0.677059 0.499623 0.567308
4227 1 0.678815 0.481535 0.565743
4160 1 0.693823 0.488654 0.567031
4094 1 0.705429 0.495803 0.568682
3886 1 0.70693 0.480259 0.564377
4033 1 0.71893 0.486031 0.567538
4450 1 0.749886 0.498533 0.566786
4239 1 0.735752 0.489415 0.56715
4096 1 0.74884 0.483906 0.566481
4371 1 0.763543 0.488771 0.566625
4170 1 0.777039 0.493976 0.565533
4241 1 0.777575 0.478659 0.563573
4105 1 0.789947 0.487996 0.565859
4027 1 0.80406 0.479852 0.565725
4162 1 0.802337 0.494537 0.565487
4166 1 0.820244 0.485137 0.566277
4178 1 0.830324 0.500068 0.562473
4314 1 0.834025 0.486544 0.565852
4043 1 0.844032 0.493572 0.563199
4256 1 0.862686 0.473501 0.564405
4313 1 0.854612 0.484842 0.564465
4309 1 0.865119 0.49286 0.562864
4252 1 0.875494 0.484198 0.563664
4322 1 0.898282 0.492189 0.56277
4181 1 0.884289 0.493389 0.562362
4103 1 0.890451 0.478193 0.563957
4262 1 0.919868 0.48451 0.561097
4250 1 0.906806 0.480808 0.561921
4321 1 0.910409 0.495448 0.563273
4335 1 0.940083 0.483087 0.563029
4266 1 0.930568 0.491614 0.56144
4188 1 0.951495 0.492643 0.563824
4261 1 0.954747 0.478998 0.560402
4263 1 0.967141 0.484518 0.564122
3987 1 0.992997 0.500239 0.566688
3975 1 0.978364 0.494126 0.563673
3986 1 0.979048 0.474456 0.564321
1337 1 0.986811 0.48517 0.565197
3931 1 0.497477 0.396453 0.570739
3995 1 0.511974 0.40861 0.573452
3853 1 0.500273 0.421652 0.573852
1046 1 0.524437 0.403572 0.572505
3924 1 0.537137 0.410854 0.573681
1255 1 0.52533 0.419937 0.572664
3927 1 0.554181 0.417283 0.57274
4064 1 0.514328 0.4278 0.574972
4001 1 0.510424 0.443868 0.574953
1258 1 0.524748 0.436654 0.574689
1328 1 0.540445 0.426074 0.573417
3997 1 0.538387 0.439672 0.572793
3928 1 0.553652 0.431529 0.572689
1260 1 0.509647 0.458044 0.573411
1321 1 0.515646 0.471209 0.573013
3932 1 0.526695 0.450863 0.573541
1324 1 0.503146 0.475302 0.575341
1399 1 0.527306 0.465909 0.573324
4073 1 0.543522 0.472123 0.573489
3926 1 0.540673 0.455876 0.572588
4007 1 0.553123 0.458755 0.573259
3796 1 0.567475 0.454659 0.57297
3790 1 0.564464 0.469934 0.573492
4066 1 0.591401 0.46661 0.572168
3866 1 0.600223 0.45687 0.570667
3789 1 0.580676 0.450654 0.571434
3649 1 0.578377 0.468169 0.572114
1457 1 0.499626 0.491171 0.574786
4065 1 0.515339 0.485745 0.573077
4069 1 0.542887 0.489451 0.57193
3935 1 0.530422 0.482965 0.57247
1461 1 0.526545 0.496284 0.573973
4213 1 0.572729 0.481133 0.572754
4003 1 0.556775 0.480723 0.571844
4009 1 0.586263 0.481695 0.573368
4141 1 0.592143 0.49425 0.573569
5557 1 0.706638 0.995873 0.412556
2827 1 0.729153 0.989537 0.413215
5414 1 0.744061 0.992667 0.412094
5280 1 0.758478 0.995389 0.413596
5558 1 0.77238 1.00004 0.413379
5261 1 0.510409 0.915357 0.425345
5334 1 0.525375 0.914913 0.426174
5335 1 0.517487 0.901842 0.428209
2658 1 0.50372 0.902735 0.427324
5330 1 0.539072 0.915661 0.427864
5196 1 0.559325 0.912818 0.427349
5190 1 0.575392 0.917722 0.426136
5258 1 0.551062 0.924591 0.425946
5583 1 0.878929 0.926545 0.429442
5573 1 0.894263 0.922673 0.428502
5327 1 0.514198 0.929898 0.423774
5397 1 0.507871 0.940502 0.423454
5189 1 0.523785 0.939183 0.422992
5041 1 0.5309 0.927488 0.424435
5480 1 0.53998 0.935966 0.422132
2588 1 0.534185 0.949964 0.420505
2654 1 0.5648 0.928537 0.427273
2589 1 0.557272 0.937929 0.422724
5337 1 0.571909 0.939431 0.424136
5479 1 0.593299 0.927144 0.426584
5399 1 0.580749 0.929697 0.426922
5252 1 0.588876 0.94312 0.424756
5474 1 0.60462 0.933092 0.426433
5322 1 0.60107 0.948573 0.425581
5477 1 0.616606 0.938957 0.427768
5541 1 0.61873 0.923599 0.428828
5403 1 0.631145 0.941936 0.426587
5347 1 0.646741 0.932678 0.427357
5410 1 0.643128 0.949126 0.424297
5202 1 0.659503 0.930184 0.429024
5486 1 0.659623 0.943754 0.42486
5204 1 0.672421 0.940703 0.426488
5006 1 0.687655 0.936671 0.424443
5214 1 0.685006 0.951152 0.422133
5206 1 0.701141 0.944498 0.423015
5154 1 0.715218 0.941757 0.425525
5075 1 0.70134 0.933463 0.427724
5281 1 0.728458 0.932248 0.429683
5210 1 0.731385 0.945921 0.426379
5421 1 0.753437 0.946151 0.427061
5484 1 0.766574 0.945973 0.425817
5565 1 0.781105 0.944268 0.426771
5357 1 0.79742 0.94515 0.424151
5290 1 0.809289 0.94144 0.426207
5567 1 0.819926 0.931744 0.425874
5355 1 0.827267 0.943807 0.423365
5510 1 0.843799 0.937979 0.426172
5505 1 0.840479 0.949827 0.422441
5493 1 0.831771 0.931288 0.426604
5502 1 0.857272 0.943286 0.424194
5572 1 0.873417 0.9372 0.425838
5431 1 0.884588 0.949432 0.422649
2849 1 0.898003 0.945624 0.424121
5584 1 0.886769 0.93582 0.424395
5520 1 0.916151 0.939641 0.426446
5587 1 0.901941 0.930807 0.425253
5588 1 0.930701 0.938586 0.427288
2729 1 0.517048 0.952259 0.42192
5181 1 0.520077 0.967414 0.419646
2720 1 0.505303 0.96277 0.419813
5473 1 0.54885 0.950678 0.422239
5323 1 0.537023 0.963261 0.419112
2659 1 0.55175 0.966095 0.420904
2728 1 0.564315 0.955249 0.422936
2880 1 0.568423 0.96908 0.421565
5332 1 0.577618 0.954149 0.422875
5395 1 0.589666 0.961656 0.425506
2811 1 0.583778 0.971528 0.423276
5338 1 0.605519 0.965623 0.425063
5543 1 0.614055 0.953081 0.423532
5469 1 0.62389 0.967404 0.423547
5406 1 0.628172 0.954368 0.423558
5402 1 0.639595 0.961869 0.422548
5398 1 0.650113 0.971461 0.420835
5207 1 0.652905 0.957974 0.422018
5208 1 0.668523 0.955152 0.423586
5212 1 0.677962 0.964479 0.42051
5209 1 0.694566 0.96298 0.419686
5275 1 0.707735 0.954587 0.419637
5279 1 0.707443 0.967945 0.41855
5350 1 0.721379 0.965883 0.418085
5285 1 0.723221 0.953407 0.421543
5089 1 0.742795 0.954499 0.4246
5351 1 0.735099 0.96299 0.420327
5215 1 0.750236 0.968033 0.420122
5296 1 0.759988 0.956844 0.421622
5277 1 0.764756 0.972266 0.419248
5487 1 0.77603 0.959476 0.421566
5417 1 0.789053 0.956338 0.422126
5425 1 0.783128 0.972077 0.418597
5430 1 0.796165 0.967398 0.418775
5566 1 0.816255 0.952071 0.422343
5499 1 0.802872 0.957428 0.424263
2837 1 0.815133 0.966446 0.419295
5368 1 0.828208 0.97471 0.416444
5564 1 0.828319 0.960304 0.418777
5492 1 0.840581 0.962521 0.420814
2843 1 0.868417 0.948249 0.422976
2835 1 0.855214 0.970853 0.41947
5427 1 0.853607 0.958919 0.422104
2834 1 0.869417 0.963229 0.420922
2869 1 0.899805 0.959097 0.421689
5504 1 0.88701 0.961714 0.420721
5508 1 0.892849 0.973075 0.419121
5578 1 0.878614 0.974263 0.418729
5590 1 0.912597 0.953609 0.423453
2864 1 0.922533 0.965761 0.421502
2917 1 0.907414 0.968808 0.419881
3002 1 0.941382 0.953453 0.427825
5574 1 0.928132 0.952772 0.424707
2937 1 0.936507 0.965279 0.424489
2998 1 0.947222 0.973587 0.423378
213 1 0.951904 0.959085 0.427797
72 1 0.960303 0.969759 0.425106
3079 1 0.973576 0.966551 0.426769
78 1 0.986833 0.96903 0.430016
5532 1 0.51231 0.977961 0.420043
5463 1 0.522639 0.988887 0.419642
2800 1 0.5118 1.00052 0.4192
2722 1 0.501396 0.98823 0.417947
2730 1 0.531069 0.97715 0.417675
5324 1 0.544845 0.977433 0.418938
5533 1 0.538902 0.991129 0.41717
5534 1 0.552148 0.993969 0.418273
5546 1 0.55957 0.980151 0.420055
5254 1 0.565314 0.99439 0.420048
5394 1 0.574185 0.983015 0.422564
5391 1 0.59551 0.978722 0.423385
5466 1 0.588658 0.99041 0.423836
5551 1 0.613307 0.975296 0.423611
5407 1 0.622062 0.986572 0.423751
5396 1 0.605751 0.989957 0.424408
5409 1 0.635465 0.974777 0.421988
5545 1 0.638012 0.991694 0.42211
5485 1 0.664825 0.974278 0.421096
5278 1 0.649475 0.984434 0.420537
5470 1 0.66659 0.990693 0.420759
5273 1 0.651395 0.998856 0.419776
5282 1 0.692416 0.979033 0.417966
5346 1 0.677397 0.998544 0.418679
5553 1 0.678036 0.980904 0.418798
5268 1 0.689947 0.994536 0.417216
5348 1 0.706469 0.984043 0.415308
5354 1 0.719425 0.979785 0.416853
5284 1 0.740089 0.979373 0.41613
5552 1 0.75472 0.983174 0.416891
5416 1 0.772673 0.985195 0.416189
5560 1 0.790781 0.98516 0.415577
5561 1 0.804641 0.978025 0.416796
5420 1 0.817251 0.985461 0.416001
5419 1 0.803775 0.996956 0.414412
5570 1 0.842748 0.976349 0.418714
2832 1 0.83213 0.987627 0.417059
2912 1 0.846753 0.991478 0.417315
2853 1 0.862262 0.983332 0.417639
5426 1 0.860425 0.996203 0.415978
5370 1 0.89141 0.987796 0.41763
5589 1 0.877256 0.988378 0.417446
5522 1 0.921214 0.978911 0.419665
5579 1 0.904487 0.983005 0.4184
2983 1 0.916501 0.994202 0.418631
2845 1 0.90204 0.998432 0.416124
2936 1 0.935091 0.978584 0.422872
2996 1 0.93116 0.990824 0.41988
3075 1 0.945329 0.985294 0.421817
3274 1 0.969098 0.991159 0.425477
3001 1 0.958656 0.981987 0.423752
148 1 0.973035 0.979611 0.425861
5592 1 0.984305 0.983579 0.425926
82 1 0.992283 0.994093 0.426722
4988 1 0.512796 0.84841 0.441535
4985 1 0.559958 0.850868 0.440977
4981 1 0.502184 0.872721 0.434237
5193 1 0.521449 0.862054 0.437032
4989 1 0.507705 0.86013 0.437888
5125 1 0.52865 0.849249 0.440464
5200 1 0.543986 0.853569 0.43961
5057 1 0.534229 0.861904 0.437673
5339 1 0.54588 0.874443 0.435108
5197 1 0.552824 0.862335 0.437035
5128 1 0.570187 0.861077 0.438975
5183 1 0.563859 0.872327 0.434743
5129 1 0.576776 0.849449 0.441256
5203 1 0.589669 0.858294 0.440427
5199 1 0.595444 0.874502 0.435306
5134 1 0.581338 0.871201 0.436216
5329 1 0.603237 0.862695 0.440009
5336 1 0.617641 0.864778 0.439372
5003 1 0.643064 0.871539 0.442276
5062 1 0.627394 0.875553 0.438296
5124 1 0.516957 0.877223 0.433488
2380 1 0.50986 0.889933 0.430573
5331 1 0.52496 0.888938 0.430558
5192 1 0.53178 0.875514 0.435105
5052 1 0.541301 0.889504 0.430326
5263 1 0.554944 0.883475 0.432136
5262 1 0.574046 0.884191 0.432325
5264 1 0.561749 0.895576 0.43032
5054 1 0.588162 0.886239 0.433568
5408 1 0.582737 0.898357 0.431864
5195 1 0.610284 0.876572 0.436205
5205 1 0.60262 0.889991 0.433044
5401 1 0.617569 0.886549 0.434346
5471 1 0.62456 0.899087 0.43229
5404 1 0.629964 0.888463 0.436491
5272 1 0.641808 0.883995 0.437723
5140 1 0.640244 0.897263 0.434081
5063 1 0.672016 0.878203 0.441824
5142 1 0.655604 0.878178 0.440855
5065 1 0.653074 0.892874 0.437095
5211 1 0.665795 0.890416 0.439055
5146 1 0.686875 0.879805 0.441246
5144 1 0.680693 0.890852 0.438387
5010 1 0.694046 0.888885 0.438259
5221 1 0.700609 0.877679 0.442685
5017 1 0.71561 0.880466 0.442923
5149 1 0.705273 0.891943 0.440413
5023 1 0.719561 0.893341 0.438748
5164 1 0.730116 0.884553 0.441299
4951 1 0.735922 0.896682 0.440126
5295 1 0.80679 0.897788 0.441376
5362 1 0.835176 0.898112 0.439713
5429 1 0.862117 0.89404 0.440363
5437 1 0.873351 0.889694 0.442833
5373 1 0.893796 0.891 0.442842
5384 1 0.906576 0.897501 0.441119
5253 1 0.547386 0.903767 0.428355
5120 1 0.531859 0.903789 0.428282
5326 1 0.571567 0.904492 0.428591
5537 1 0.587181 0.914626 0.429557
5266 1 0.595697 0.902311 0.431436
5269 1 0.605097 0.915113 0.429009
5265 1 0.620909 0.911688 0.430446
5274 1 0.610558 0.900242 0.432068
5267 1 0.636721 0.911406 0.430356
5476 1 0.646932 0.918199 0.429818
5276 1 0.651799 0.905764 0.433196
5344 1 0.660684 0.917814 0.431484
5340 1 0.667471 0.902144 0.434363
5143 1 0.682758 0.902746 0.434264
5074 1 0.686801 0.92179 0.428587
5079 1 0.674734 0.91416 0.432037
5077 1 0.693808 0.908416 0.432699
5287 1 0.699053 0.92033 0.431101
5019 1 0.705736 0.901762 0.435286
5078 1 0.712285 0.912783 0.433238
5358 1 0.725169 0.905891 0.436918
5353 1 0.743415 0.923673 0.432836
5288 1 0.727602 0.917852 0.431661
5490 1 0.741958 0.91217 0.43598
5283 1 0.751909 0.904782 0.439756
5360 1 0.75658 0.918187 0.436357
5418 1 0.769913 0.921332 0.435657
5219 1 0.767105 0.908472 0.438756
4954 1 0.782351 0.900292 0.440109
5016 1 0.795462 0.922303 0.432875
5424 1 0.782691 0.916037 0.436009
5286 1 0.797451 0.90804 0.43851
5434 1 0.820749 0.905042 0.437541
5498 1 0.809629 0.91405 0.437108
5289 1 0.821339 0.919598 0.431158
5571 1 0.834534 0.909226 0.433696
5449 1 0.836121 0.921883 0.431463
5439 1 0.847644 0.903901 0.436437
5371 1 0.869051 0.904607 0.437971
5569 1 0.855261 0.915885 0.433971
5585 1 0.873016 0.915429 0.432815
2932 1 0.883312 0.89997 0.439231
5577 1 0.886451 0.913633 0.432785
5433 1 0.897981 0.905832 0.436531
2863 1 0.907621 0.917566 0.431554
2867 1 0.913674 0.904533 0.437112
5521 1 0.924025 0.9145 0.434955
5448 1 0.928268 0.903691 0.43859
5453 1 0.938601 0.912614 0.437222
5441 1 0.943407 0.901721 0.440662
5586 1 0.933432 0.924426 0.431818
5444 1 0.958024 0.900666 0.441228
5595 1 0.952711 0.912297 0.436981
5512 1 0.96261 0.924341 0.435116
5514 1 0.966986 0.91224 0.439301
3010 1 0.995296 0.919208 0.440583
2870 1 0.978848 0.920098 0.43781
5527 1 0.97544 0.900929 0.442866
3003 1 0.987902 0.905603 0.441958
5270 1 0.632511 0.92566 0.428244
5217 1 0.674488 0.927373 0.429547
5135 1 0.714006 0.926805 0.429302
5497 1 0.742845 0.936738 0.428411
5352 1 0.755962 0.93113 0.432672
5363 1 0.769623 0.93375 0.430125
5157 1 0.782592 0.92963 0.430727
5088 1 0.795345 0.933285 0.428329
5224 1 0.808979 0.925987 0.431111
5507 1 0.85008 0.927062 0.429342
5506 1 0.862455 0.92771 0.429353
5516 1 0.918856 0.925446 0.428835
5519 1 0.942727 0.939214 0.430034
5452 1 0.954635 0.944713 0.42988
5445 1 0.95025 0.926036 0.4322
5593 1 0.964003 0.937015 0.432598
5517 1 0.9783 0.934459 0.436785
2868 1 0.991157 0.931949 0.438877
5594 1 0.978029 0.946788 0.43354
146 1 0.996137 0.94508 0.434853
141 1 0.96637 0.9542 0.429312
4 1 0.987307 0.955359 0.43132
2735 1 0.998132 0.977216 0.429951
4927 1 0.574102 0.797989 0.457341
5061 1 0.5564 0.799844 0.456539
5051 1 0.509499 0.809447 0.455097
4998 1 0.52132 0.817562 0.453282
2309 1 0.522651 0.801672 0.457687
4710 1 0.535109 0.812662 0.452902
5070 1 0.544581 0.804253 0.45593
4930 1 0.55547 0.814907 0.452126
4997 1 0.570812 0.824363 0.448264
4845 1 0.568114 0.810654 0.451806
4995 1 0.584845 0.807441 0.455057
4773 1 0.600915 0.800528 0.457495
5130 1 0.582792 0.821132 0.450514
5056 1 0.596499 0.816218 0.453077
5131 1 0.607366 0.825097 0.451214
5060 1 0.621199 0.820131 0.454023
5007 1 0.63594 0.821076 0.454015
5004 1 0.648521 0.81411 0.45777
4931 1 0.666059 0.815828 0.455678
4940 1 0.681746 0.820325 0.454365
5080 1 0.697967 0.823482 0.453289
5228 1 0.720604 0.820453 0.457837
5067 1 0.520186 0.838791 0.445339
4990 1 0.513335 0.825946 0.449915
5047 1 0.506887 0.835127 0.445692
4983 1 0.537068 0.837492 0.443891
4992 1 0.527537 0.828328 0.448559
5068 1 0.542418 0.824231 0.449792
4984 1 0.549038 0.841954 0.444681
4986 1 0.556572 0.825337 0.446066
5117 1 0.565938 0.837556 0.444794
5119 1 0.5792 0.835949 0.445918
5058 1 0.592216 0.844344 0.444014
5405 1 0.596103 0.832592 0.448011
5132 1 0.610694 0.835443 0.44775
5198 1 0.603664 0.848717 0.443996
5133 1 0.624774 0.832782 0.449579
4922 1 0.629789 0.84682 0.445604
5153 1 0.641077 0.834789 0.450548
5005 1 0.648565 0.842533 0.446408
5001 1 0.654793 0.827566 0.450984
4858 1 0.671313 0.828331 0.450712
5137 1 0.661662 0.839805 0.448232
5147 1 0.678175 0.844824 0.449363
4864 1 0.68889 0.836376 0.450143
4859 1 0.712779 0.828265 0.453122
4873 1 0.703575 0.839672 0.448043
5012 1 0.717699 0.840451 0.449339
5018 1 0.729429 0.828769 0.45287
4949 1 0.742471 0.833322 0.453369
5155 1 0.732922 0.840801 0.448398
4872 1 0.745229 0.849159 0.449906
5090 1 0.75892 0.838917 0.452365
5222 1 0.773019 0.846769 0.453306
5225 1 0.786403 0.844432 0.456784
5343 1 0.616771 0.851028 0.443494
5071 1 0.630614 0.862186 0.443563
5138 1 0.647611 0.857156 0.444436
5271 1 0.663524 0.867256 0.444313
4861 1 0.661584 0.853689 0.446449
5136 1 0.674156 0.859864 0.445537
5081 1 0.69042 0.85126 0.447357
5066 1 0.685528 0.869932 0.445427
5076 1 0.698083 0.863938 0.445399
5009 1 0.710436 0.852229 0.445228
4948 1 0.71334 0.86558 0.445505
5223 1 0.724626 0.852501 0.446695
5014 1 0.727444 0.869309 0.44552
5218 1 0.739678 0.873153 0.444581
4874 1 0.738879 0.858696 0.446649
5031 1 0.752371 0.861888 0.447911
5292 1 0.763737 0.865868 0.447375
5086 1 0.761272 0.853521 0.450991
5305 1 0.776245 0.875503 0.446262
5159 1 0.778348 0.86072 0.45191
5294 1 0.793383 0.859219 0.453527
5293 1 0.790361 0.872772 0.44944
5167 1 0.807785 0.871434 0.45048
5216 1 0.810792 0.860994 0.455873
5356 1 0.824776 0.874997 0.453355
5220 1 0.840172 0.870923 0.454727
5361 1 0.866999 0.865256 0.455542
5359 1 0.855539 0.871784 0.454344
5291 1 0.881877 0.862321 0.453965
5443 1 0.890574 0.872726 0.451836
5375 1 0.92257 0.869098 0.452222
5435 1 0.904571 0.869754 0.451199
5500 1 0.907472 0.858392 0.457
5503 1 0.935156 0.872212 0.452192
5381 1 0.93269 0.858495 0.457168
5364 1 0.945295 0.862349 0.45665
5446 1 0.951111 0.871122 0.45147
2665 1 0.968331 0.869978 0.452252
5320 1 0.959469 0.860256 0.455812
5454 1 0.982365 0.87392 0.453585
2594 1 0.996247 0.867549 0.452667
4880 1 0.748179 0.887036 0.444476
5213 1 0.764676 0.895974 0.443001
5227 1 0.754163 0.874619 0.44537
5233 1 0.765112 0.88205 0.443522
5148 1 0.793627 0.896023 0.444123
5162 1 0.780016 0.887115 0.443922
5093 1 0.798587 0.883263 0.444863
5158 1 0.823351 0.893909 0.443965
5091 1 0.813252 0.884912 0.447657
5234 1 0.84639 0.877302 0.449247
5231 1 0.834163 0.883152 0.447588
5432 1 0.84846 0.890523 0.44271
5367 1 0.861158 0.882304 0.446513
5511 1 0.874502 0.87646 0.450444
5428 1 0.882401 0.882644 0.446238
5440 1 0.896658 0.881667 0.447228
5515 1 0.91905 0.891607 0.443249
5380 1 0.909257 0.882413 0.447212
2521 1 0.934778 0.889256 0.442887
5436 1 0.927645 0.87998 0.447743
2593 1 0.943607 0.879794 0.446709
5376 1 0.952263 0.890846 0.445069
5386 1 0.960057 0.879681 0.447302
5529 1 0.967744 0.891013 0.443901
5518 1 0.975588 0.882747 0.449673
5530 1 0.992227 0.882333 0.449379
5598 1 0.983374 0.891602 0.445394
5596 1 0.997174 0.891465 0.443648
4772 1 0.507608 0.774227 0.471113
4978 1 0.535128 0.775564 0.469375
4643 1 0.57321 0.769584 0.469064
4642 1 0.589642 0.771386 0.470161
4781 1 0.619002 0.771728 0.470876
5073 1 0.653079 0.767603 0.46973
4862 1 0.668691 0.765967 0.471359
4935 1 0.689085 0.774271 0.469188
5191 1 0.516011 0.793544 0.462336
2091 1 0.519847 0.779535 0.466827
5049 1 0.502519 0.786379 0.466578
5046 1 0.501183 0.799884 0.460429
4915 1 0.53316 0.786259 0.463587
4847 1 0.547596 0.779652 0.468449
4987 1 0.536226 0.799008 0.460762
5072 1 0.546885 0.789616 0.46145
4921 1 0.562692 0.780486 0.467989
4701 1 0.563619 0.78994 0.462701
4852 1 0.576081 0.784981 0.463913
5141 1 0.590923 0.791327 0.460002
4854 1 0.589127 0.779266 0.46357
4706 1 0.601192 0.781582 0.466032
4929 1 0.611973 0.793168 0.460584
4718 1 0.617809 0.781841 0.465874
5064 1 0.625989 0.794781 0.460255
4856 1 0.632657 0.775841 0.469478
4508 1 0.634493 0.786492 0.464009
5002 1 0.644545 0.777267 0.465416
5069 1 0.652625 0.788688 0.463653
4860 1 0.662519 0.77784 0.466405
4782 1 0.667069 0.790591 0.463343
4786 1 0.675507 0.781219 0.466082
4941 1 0.690822 0.785623 0.46465
4938 1 0.681085 0.79456 0.4618
4926 1 0.692635 0.796353 0.460133
4876 1 0.700637 0.778431 0.469298
4853 1 0.703579 0.787366 0.464125
5150 1 0.719066 0.79293 0.463579
5151 1 0.713765 0.782303 0.46893
5024 1 0.727741 0.785577 0.468715
4944 1 0.740526 0.794203 0.468067
4881 1 0.753083 0.796293 0.468392
4946 1 0.7679 0.797618 0.469783
4934 1 0.612124 0.808794 0.45708
5201 1 0.625937 0.807752 0.458274
4720 1 0.640983 0.801845 0.459162
5145 1 0.655841 0.801179 0.459563
4857 1 0.678028 0.806934 0.457437
4780 1 0.691749 0.809668 0.456797
5139 1 0.704957 0.814028 0.457506
5085 1 0.718732 0.807926 0.460838
5152 1 0.705847 0.801852 0.461425
5156 1 0.732106 0.816986 0.459983
5083 1 0.730319 0.803895 0.464703
4943 1 0.743703 0.810861 0.464989
5226 1 0.748464 0.824924 0.458222
5101 1 0.756022 0.807374 0.462966
5304 1 0.762006 0.819049 0.46131
5166 1 0.767993 0.809602 0.46709
5103 1 0.78462 0.811437 0.469614
5301 1 0.778459 0.822877 0.464033
5092 1 0.798355 0.816704 0.470488
5236 1 0.815709 0.817375 0.469862
5174 1 0.82773 0.825172 0.469248
5308 1 0.844114 0.819688 0.470331
5310 1 0.862078 0.817269 0.472848
5160 1 0.763997 0.829829 0.457562
5237 1 0.791846 0.833192 0.465496
5021 1 0.777451 0.834083 0.45894
5238 1 0.804436 0.827916 0.468221
5235 1 0.80537 0.83952 0.463386
5161 1 0.819502 0.836646 0.464734
5087 1 0.833312 0.840802 0.463705
5302 1 0.839955 0.830156 0.466321
5241 1 0.850033 0.842924 0.463953
5239 1 0.855244 0.830784 0.468545
5382 1 0.870153 0.8437 0.465077
5314 1 0.872496 0.831658 0.470593
5307 1 0.886321 0.841333 0.465256
5438 1 0.897749 0.84717 0.461929
5312 1 0.89983 0.836486 0.46702
5385 1 0.915473 0.837244 0.468939
5369 1 0.912226 0.846665 0.463035
5501 1 0.926152 0.846426 0.462753
5513 1 0.930234 0.838112 0.468764
5366 1 0.939257 0.84853 0.460533
5383 1 0.945335 0.838694 0.467145
2381 1 0.937165 0.827065 0.471388
2455 1 0.958656 0.839212 0.466224
2522 1 0.971749 0.838716 0.467068
5242 1 0.963247 0.828011 0.469769
5455 1 0.952991 0.848459 0.460086
2597 1 0.993973 0.849675 0.462673
5378 1 0.988148 0.838844 0.466474
2595 1 0.980966 0.828918 0.469851
5460 1 0.980752 0.849157 0.462365
5100 1 0.819357 0.848415 0.461158
2244 1 0.801404 0.850171 0.459694
5229 1 0.827039 0.859759 0.458646
5230 1 0.838181 0.852457 0.461263
5297 1 0.850419 0.857928 0.457813
5096 1 0.86335 0.854207 0.460245
5387 1 0.881864 0.853095 0.459961
5365 1 0.894673 0.859538 0.456769
5299 1 0.92041 0.857868 0.457698
5388 1 0.967064 0.851018 0.460875
5374 1 0.975928 0.860073 0.456246
5458 1 0.988837 0.861001 0.460543
4837 1 0.516446 0.74084 0.485293
4785 1 0.596111 0.740228 0.482792
4924 1 0.583293 0.743987 0.483891
4578 1 0.613364 0.741199 0.481135
4511 1 0.608246 0.732644 0.485815
4354 1 0.638253 0.745662 0.484015
4512 1 0.651875 0.74614 0.481406
4576 1 0.664968 0.740142 0.484975
4788 1 0.683375 0.743089 0.484191
4654 1 0.701197 0.744558 0.484448
4933 1 0.716026 0.744191 0.486019
4787 1 0.730322 0.744136 0.484751
4916 1 0.522033 0.768117 0.473242
4843 1 0.505305 0.751331 0.483141
4842 1 0.513568 0.761265 0.478166
5122 1 0.522442 0.751534 0.48186
4994 1 0.531422 0.758815 0.47935
4993 1 0.540989 0.765933 0.474722
5000 1 0.541214 0.752313 0.482355
4646 1 0.554516 0.771339 0.472015
4999 1 0.557176 0.748214 0.482705
4779 1 0.552225 0.760385 0.47709
4558 1 0.5658 0.763054 0.474928
4645 1 0.57242 0.753734 0.480672
4562 1 0.588089 0.751681 0.478493
4639 1 0.581016 0.763008 0.47547
4564 1 0.595086 0.760047 0.473713
4712 1 0.604253 0.773409 0.471519
4568 1 0.623081 0.751482 0.478488
4778 1 0.604088 0.749769 0.478975
4932 1 0.61129 0.760755 0.474092
4789 1 0.638931 0.766938 0.471934
4716 1 0.628567 0.762595 0.473672
4580 1 0.6383 0.754011 0.478342
4713 1 0.64991 0.758611 0.475802
4783 1 0.66431 0.754402 0.477381
4784 1 0.675982 0.753718 0.478882
4925 1 0.691931 0.752979 0.480134
4937 1 0.682281 0.764477 0.474633
5082 1 0.697315 0.765782 0.475231
4865 1 0.7086 0.759343 0.480468
5084 1 0.713527 0.768364 0.475589
5011 1 0.721789 0.755349 0.481189
4810 1 0.74355 0.769559 0.478908
4947 1 0.728665 0.764994 0.47905
5015 1 0.73985 0.755764 0.483158
5026 1 0.754437 0.757627 0.483317
5163 1 0.767397 0.761557 0.483001
5311 1 0.756696 0.772107 0.478271
5032 1 0.771794 0.773285 0.478422
4955 1 0.783183 0.767607 0.48282
5033 1 0.79399 0.764744 0.485776
5170 1 0.807401 0.7666 0.484905
5020 1 0.819238 0.773116 0.484887
5171 1 0.729315 0.775977 0.474444
4869 1 0.743318 0.780955 0.473129
5022 1 0.758315 0.783794 0.472754
5027 1 0.773237 0.787616 0.474712
5094 1 0.783481 0.799197 0.472567
5036 1 0.783537 0.780129 0.477548
4969 1 0.79502 0.776037 0.480648
5178 1 0.793276 0.789999 0.47816
5098 1 0.809476 0.792387 0.478266
4888 1 0.806774 0.779407 0.480994
2103 1 0.819792 0.787193 0.481046
5104 1 0.822154 0.799434 0.476999
4958 1 0.832462 0.793714 0.479416
4894 1 0.847016 0.785922 0.482272
5034 1 0.850436 0.798344 0.479419
2243 1 0.832155 0.780677 0.4828
5247 1 0.862717 0.79156 0.481256
5030 1 0.860553 0.781315 0.48609
2312 1 0.890744 0.794825 0.484535
5165 1 0.875018 0.799757 0.480931
2242 1 0.876164 0.786946 0.484255
5029 1 0.800191 0.80061 0.474709
2171 1 0.812202 0.805727 0.472936
5169 1 0.828018 0.809661 0.47322
5168 1 0.839023 0.805483 0.47685
5240 1 0.851714 0.809339 0.473299
5309 1 0.862931 0.804858 0.478329
5243 1 0.875917 0.815903 0.474997
5108 1 0.88629 0.805114 0.478285
5306 1 0.892732 0.815871 0.477398
5172 1 0.901839 0.806631 0.482438
5316 1 0.920483 0.808483 0.481471
5442 1 0.910649 0.815552 0.478154
5319 1 0.935384 0.804015 0.483608
5246 1 0.930073 0.814505 0.476964
2452 1 0.942547 0.81451 0.477523
5177 1 0.95464 0.807203 0.481929
5317 1 0.971605 0.810094 0.481325
5377 1 0.959056 0.817202 0.476467
5173 1 0.972658 0.823383 0.475684
2591 1 0.950464 0.826673 0.471974
2382 1 0.998778 0.814985 0.477509
2456 1 0.994596 0.826696 0.471661
5176 1 0.984668 0.816317 0.477689
2183 1 0.989849 0.804442 0.481344
2174 1 0.888556 0.827252 0.471088
5300 1 0.918861 0.825024 0.473027
5298 1 0.903195 0.825606 0.474318
4766 1 0.515821 0.723725 0.498956
4913 1 0.547007 0.715457 0.497336
4923 1 0.531475 0.719826 0.496188
4711 1 0.57426 0.716987 0.497919
4770 1 0.562062 0.723268 0.493943
4570 1 0.583852 0.723463 0.493385
4777 1 0.596902 0.71546 0.494461
4849 1 0.586561 0.713952 0.498188
4920 1 0.614224 0.715596 0.496113
4775 1 0.607387 0.721079 0.490289
4586 1 0.632974 0.720897 0.492782
4515 1 0.644575 0.713742 0.498934
4702 1 0.629185 0.710734 0.498849
4715 1 0.658628 0.721504 0.497747
4652 1 0.67277 0.721336 0.497224
4721 1 0.688473 0.724032 0.496144
4656 1 0.697933 0.714943 0.500894
4918 1 0.50877 0.731336 0.493188
4774 1 0.521311 0.731019 0.490671
4769 1 0.533053 0.742333 0.486048
4708 1 0.546463 0.737574 0.486587
5059 1 0.53616 0.728951 0.490999
4991 1 0.562205 0.736972 0.489092
4855 1 0.549265 0.726075 0.492799
4776 1 0.576956 0.732592 0.489019
4566 1 0.594365 0.730696 0.488705
4493 1 0.625478 0.738434 0.485727
4494 1 0.619595 0.726072 0.488982
4573 1 0.647297 0.723315 0.493911
4640 1 0.637538 0.732299 0.489918
4637 1 0.648189 0.735591 0.486704
4644 1 0.658978 0.732997 0.490479
4717 1 0.676372 0.733689 0.490849
4939 1 0.693583 0.734056 0.490332
5013 1 0.70221 0.725347 0.495366
4871 1 0.717837 0.726403 0.495283
5008 1 0.709145 0.734286 0.489359
4802 1 0.724054 0.735316 0.490516
4804 1 0.733728 0.730331 0.496211
4870 1 0.740907 0.738127 0.490203
4795 1 0.74998 0.73242 0.496218
5028 1 0.750105 0.745206 0.487471
5099 1 0.761734 0.738905 0.492406
4875 1 0.770405 0.73286 0.496477
4962 1 0.763369 0.749126 0.487252
4868 1 0.777136 0.7425 0.490973
4796 1 0.788976 0.736601 0.495164
4963 1 0.791684 0.749687 0.488717
4803 1 0.800898 0.73546 0.499535
4734 1 0.802379 0.746149 0.495226
4953 1 0.818527 0.750948 0.494219
5097 1 0.814548 0.736258 0.49826
4740 1 0.830145 0.745909 0.499232
5232 1 0.775644 0.754785 0.487352
4964 1 0.807775 0.755421 0.489726
4956 1 0.821494 0.761753 0.489907
4812 1 0.844399 0.749346 0.498908
4738 1 0.832824 0.753677 0.492905
2172 1 0.833726 0.766672 0.48877
4960 1 0.845931 0.760166 0.492716
5038 1 0.846289 0.771802 0.486425
2315 1 0.856644 0.756869 0.496761
5110 1 0.858781 0.768991 0.490941
5037 1 0.86928 0.764771 0.49599
4813 1 0.882456 0.771346 0.495948
5040 1 0.892527 0.762084 0.499809
5102 1 0.89614 0.772556 0.495013
2318 1 0.906701 0.76047 0.498994
2176 1 0.921557 0.764284 0.50048
4896 1 0.910648 0.775573 0.495312
5244 1 0.993132 0.773675 0.496238
2249 1 0.977763 0.774249 0.498305
5109 1 0.872862 0.778995 0.490427
5303 1 0.887019 0.782533 0.489427
5379 1 0.907874 0.798083 0.485801
5105 1 0.913004 0.786617 0.489884
2173 1 0.900571 0.784618 0.491424
2245 1 0.925315 0.784248 0.493283
2251 1 0.932588 0.775775 0.498149
5106 1 0.948214 0.79581 0.48721
5175 1 0.941339 0.786707 0.494509
2311 1 0.934506 0.794465 0.488685
2102 1 0.946677 0.773253 0.497524
2323 1 0.963715 0.776245 0.495228
5318 1 0.963028 0.793886 0.487922
2316 1 0.955221 0.78606 0.492491
2384 1 0.974707 0.785579 0.491505
2314 1 0.989245 0.785869 0.491663
5372 1 0.977973 0.796262 0.486655
2383 1 0.995903 0.793843 0.485473
5389 1 0.921116 0.79978 0.487827
1889 1 0.520174 0.701523 0.515035
4698 1 0.547693 0.697765 0.51104
4631 1 0.575294 0.700604 0.511438
4928 1 0.589618 0.694756 0.511835
4771 1 0.61857 0.698778 0.510464
4624 1 0.60296 0.70034 0.507504
4851 1 0.649144 0.697596 0.512371
4936 1 0.700963 0.698483 0.511533
4655 1 0.716182 0.698833 0.513294
4727 1 0.731774 0.698243 0.512147
4838 1 0.506786 0.716728 0.504484
4416 1 0.513703 0.709663 0.509259
4694 1 0.52538 0.715425 0.502609
4553 1 0.530838 0.702225 0.508065
4693 1 0.549416 0.706434 0.504698
4768 1 0.537386 0.711212 0.502271
4695 1 0.562714 0.704407 0.507155
4628 1 0.57625 0.70752 0.503824
1750 1 0.560611 0.713542 0.500264
4696 1 0.588685 0.705623 0.505477
4846 1 0.598824 0.709632 0.501374
4700 1 0.614482 0.70557 0.503495
4703 1 0.62942 0.706509 0.506534
4574 1 0.642973 0.704491 0.505878
4428 1 0.664212 0.702888 0.509063
4709 1 0.655942 0.710906 0.502744
4632 1 0.670886 0.711946 0.505074
4581 1 0.681003 0.699928 0.509535
4942 1 0.694793 0.704757 0.505532
4866 1 0.684107 0.713759 0.503477
4797 1 0.709074 0.707431 0.505562
4793 1 0.721274 0.71093 0.508226
4792 1 0.71248 0.719764 0.501058
4879 1 0.74698 0.701654 0.510007
4724 1 0.735462 0.711415 0.506846
4867 1 0.745254 0.722586 0.50141
4945 1 0.72597 0.719847 0.50111
4641 1 0.761372 0.705627 0.510496
4653 1 0.752973 0.712864 0.505706
4790 1 0.767656 0.716035 0.505417
4884 1 0.776032 0.703966 0.512509
4670 1 0.77878 0.715003 0.507898
4791 1 0.790631 0.710647 0.511014
4952 1 0.794042 0.721373 0.503452
4817 1 0.807398 0.715043 0.5108
5095 1 0.822282 0.719851 0.509006
5025 1 0.838737 0.723364 0.510929
4744 1 0.834698 0.709722 0.513368
4742 1 0.865925 0.719842 0.513871
4794 1 0.759436 0.726386 0.500396
4728 1 0.777437 0.725591 0.501819
4950 1 0.80942 0.724413 0.504522
4882 1 0.826025 0.731601 0.504608
4878 1 0.840045 0.735317 0.504429
4735 1 0.853719 0.728623 0.508365
4821 1 0.865837 0.726582 0.507445
4968 1 0.866617 0.740075 0.505369
5035 1 0.853061 0.742035 0.503118
4886 1 0.876514 0.731455 0.509824
4893 1 0.888523 0.7365 0.507762
1961 1 0.878804 0.745164 0.502857
4809 1 0.890225 0.728491 0.513868
2101 1 0.90448 0.741965 0.50823
2107 1 0.903168 0.73066 0.513225
2035 1 0.920782 0.744756 0.50804
4682 1 0.935527 0.747104 0.509705
5039 1 0.929567 0.734702 0.513691
2031 1 0.942261 0.735741 0.51396
4898 1 0.96798 0.741107 0.512368
2179 1 0.950724 0.744876 0.509822
2043 1 0.981178 0.739187 0.511962
1904 1 0.995047 0.740438 0.512866
4890 1 0.867659 0.752564 0.500045
4885 1 0.892431 0.749147 0.504008
5179 1 0.87967 0.759747 0.501265
4895 1 0.912637 0.753305 0.504343
2034 1 0.928887 0.753503 0.503897
2104 1 0.943736 0.755593 0.504465
2032 1 0.936746 0.764332 0.500419
2247 1 0.961254 0.752929 0.505544
4900 1 0.955348 0.765212 0.501204
2106 1 0.970335 0.763852 0.501303
2116 1 0.976197 0.751971 0.505533
2241 1 0.991445 0.750213 0.506742
5315 1 0.986333 0.760497 0.501587
4344 1 0.538579 0.671977 0.527553
4489 1 0.56755 0.673584 0.525523
4350 1 0.610509 0.669421 0.528216
4559 1 0.621133 0.67498 0.522557
4560 1 0.644994 0.674487 0.523848
4341 1 0.634323 0.667829 0.526376
4571 1 0.660444 0.66769 0.527158
4355 1 0.684786 0.67431 0.524198
4707 1 0.699126 0.670534 0.527215
4427 1 0.714809 0.665015 0.528873
4722 1 0.722163 0.672703 0.523452
4650 1 0.777388 0.674369 0.523676
4965 1 0.819964 0.67053 0.526951
4877 1 0.805654 0.668367 0.528375
4818 1 0.836254 0.674255 0.526991
4486 1 0.515226 0.690585 0.51913
4411 1 0.510326 0.681519 0.524968
1957 1 0.506028 0.699596 0.515274
4487 1 0.525462 0.684759 0.522724
4626 1 0.532279 0.693307 0.515802
1741 1 0.541494 0.684583 0.521207
4422 1 0.563527 0.694169 0.514856
4485 1 0.552074 0.677299 0.524367
4555 1 0.550485 0.690254 0.517363
4419 1 0.566226 0.682985 0.519851
4418 1 0.594209 0.677262 0.526466
4347 1 0.578333 0.689621 0.517491
4420 1 0.581572 0.678922 0.5233
1890 1 0.593684 0.686357 0.519058
4557 1 0.604591 0.692358 0.514853
4634 1 0.619134 0.688808 0.517096
4699 1 0.607416 0.679026 0.522072
4627 1 0.63399 0.694777 0.513948
4638 1 0.632755 0.682378 0.519996
4488 1 0.64517 0.687437 0.518254
4356 1 0.662469 0.689635 0.516931
4501 1 0.657447 0.678021 0.52167
4705 1 0.669871 0.676646 0.522164
4572 1 0.673647 0.692629 0.514854
4513 1 0.691556 0.691792 0.514618
4629 1 0.682688 0.684941 0.518113
4446 1 0.696491 0.679372 0.520463
4577 1 0.709945 0.677912 0.521599
4719 1 0.707303 0.688852 0.517339
4863 1 0.723414 0.682246 0.517714
4569 1 0.748896 0.679889 0.521249
4649 1 0.736998 0.674936 0.522822
4651 1 0.739669 0.689664 0.515823
4589 1 0.769954 0.694029 0.517518
4647 1 0.7571 0.692875 0.516455
4660 1 0.765942 0.683415 0.52248
4657 1 0.78849 0.698735 0.516078
4723 1 0.785699 0.684385 0.518418
4662 1 0.793133 0.673665 0.524273
4800 1 0.801797 0.688621 0.519575
4883 1 0.810096 0.679517 0.522473
4593 1 0.815978 0.694845 0.51871
4743 1 0.825099 0.683333 0.521891
4819 1 0.840179 0.686752 0.52254
4726 1 0.830162 0.695519 0.517998
4815 1 0.85167 0.673811 0.526765
4672 1 0.857491 0.685384 0.523973
4824 1 0.872798 0.688071 0.526593
4889 1 0.889608 0.696483 0.526111
4814 1 0.903407 0.701302 0.527152
4798 1 0.819196 0.708796 0.51458
4808 1 0.804453 0.702505 0.51464
4806 1 0.844836 0.700622 0.517246
4887 1 0.873704 0.700669 0.524009
4745 1 0.853906 0.715211 0.514288
4739 1 0.859109 0.701988 0.521427
4678 1 0.870737 0.709311 0.518746
5107 1 0.887241 0.710653 0.520408
4967 1 0.895462 0.720164 0.518321
4892 1 0.879613 0.72053 0.515768
4816 1 0.900051 0.71037 0.521754
1899 1 0.913434 0.710193 0.523575
1962 1 0.92465 0.703651 0.526312
4747 1 0.910598 0.72023 0.519061
4828 1 0.926166 0.723089 0.517988
4825 1 0.933754 0.714323 0.523847
1901 1 0.948285 0.71322 0.523749
4753 1 0.94462 0.723594 0.51789
1968 1 0.938425 0.702323 0.528011
4758 1 0.965834 0.711081 0.526366
2108 1 0.95862 0.72261 0.52029
2040 1 0.972788 0.720987 0.522205
4757 1 0.952718 0.702678 0.527433
1965 1 0.97926 0.711672 0.527607
1624 1 0.99421 0.708873 0.528462
2041 1 0.988278 0.719285 0.523369
4959 1 0.917155 0.734548 0.514125
2036 1 0.956981 0.733881 0.516115
1972 1 0.971844 0.730609 0.516091
1970 1 0.98564 0.73132 0.518781
4456 1 0.778233 0.616743 0.542084
4666 1 0.795436 0.620997 0.541972
1745 1 0.519614 0.648721 0.54
1744 1 0.548447 0.646163 0.539404
4561 1 0.563439 0.638977 0.542515
1537 1 0.585472 0.64379 0.542385
4275 1 0.597787 0.638561 0.540801
4349 1 0.575858 0.648119 0.538692
4633 1 0.611555 0.643505 0.536808
4424 1 0.622001 0.634563 0.541799
4504 1 0.625496 0.648761 0.535772
4284 1 0.635996 0.644344 0.539572
4358 1 0.650088 0.642504 0.541259
4505 1 0.663893 0.647187 0.538025
4503 1 0.662495 0.636783 0.542568
4364 1 0.675294 0.639849 0.540486
4579 1 0.688029 0.643931 0.538148
4449 1 0.69677 0.631681 0.543268
4507 1 0.701089 0.644535 0.538637
4516 1 0.713998 0.643949 0.540535
4661 1 0.737851 0.633059 0.541348
4510 1 0.731572 0.644804 0.537962
4587 1 0.745756 0.640819 0.536757
4299 1 0.760476 0.637726 0.536591
4380 1 0.751335 0.629389 0.541661
4520 1 0.769009 0.630013 0.541375
4731 1 0.776143 0.638486 0.536007
4729 1 0.790739 0.642504 0.536402
4811 1 0.783088 0.63029 0.540371
4518 1 0.802105 0.636466 0.540161
4596 1 0.805552 0.648741 0.537117
4673 1 0.816299 0.63929 0.539054
4664 1 0.822259 0.626668 0.541876
4801 1 0.8298 0.63712 0.539579
4807 1 0.843024 0.638906 0.5383
4668 1 0.836848 0.626416 0.541629
4542 1 0.85595 0.641889 0.539377
4469 1 0.873966 0.647206 0.537647
4609 1 0.866388 0.63119 0.543152
4538 1 0.899913 0.643322 0.542969
4752 1 0.916568 0.650195 0.540984
1747 1 0.505215 0.652912 0.540629
1470 1 0.522101 0.671728 0.530599
4135 1 0.514324 0.663481 0.536381
1742 1 0.499625 0.663524 0.535427
1809 1 0.53262 0.652274 0.540827
4551 1 0.526888 0.661384 0.534334
1610 1 0.541642 0.659121 0.534343
4272 1 0.55445 0.66533 0.530847
4346 1 0.560166 0.652624 0.538264
1540 1 0.569793 0.662927 0.532054
4483 1 0.581239 0.669601 0.529573
4429 1 0.596968 0.650969 0.536312
4492 1 0.59468 0.665164 0.531198
4274 1 0.585487 0.658429 0.53514
4563 1 0.623177 0.661677 0.529634
4421 1 0.610943 0.655762 0.533872
4497 1 0.647911 0.662568 0.529356
4277 1 0.637524 0.656266 0.531274
4432 1 0.649219 0.651138 0.535134
4430 1 0.661936 0.658214 0.533272
4423 1 0.678163 0.666642 0.529669
4376 1 0.677065 0.654581 0.535654
4500 1 0.692311 0.656426 0.5332
4440 1 0.706184 0.655235 0.532291
4585 1 0.722414 0.653972 0.535419
4506 1 0.73063 0.661643 0.530437
4648 1 0.745504 0.665355 0.528534
4591 1 0.73951 0.652803 0.534257
4592 1 0.761262 0.668945 0.525916
4658 1 0.753491 0.654771 0.531218
4714 1 0.765534 0.649661 0.532778
4725 1 0.772855 0.659261 0.529426
4799 1 0.788578 0.662789 0.529842
4732 1 0.785741 0.653026 0.535175
4676 1 0.823379 0.650888 0.536156
4749 1 0.800799 0.659037 0.533177
4737 1 0.815994 0.661875 0.533036
4736 1 0.828838 0.661826 0.531498
4730 1 0.83786 0.650872 0.536137
4601 1 0.841617 0.660763 0.530316
4829 1 0.855856 0.663925 0.531628
4674 1 0.850569 0.653291 0.534732
4605 1 0.86607 0.659034 0.535342
4957 1 0.867789 0.6717 0.53061
4611 1 0.887545 0.651953 0.538023
4970 1 0.879661 0.663806 0.531579
4746 1 0.893404 0.669913 0.533635
4681 1 0.903611 0.659133 0.536139
4830 1 0.9175 0.662352 0.535911
4820 1 0.907503 0.67273 0.532994
4751 1 0.929763 0.665705 0.536927
4684 1 0.94667 0.658293 0.540719
4539 1 0.93265 0.654483 0.541137
4891 1 0.94327 0.668827 0.537241
4685 1 0.958738 0.665124 0.537489
4823 1 0.965699 0.652513 0.541583
1971 1 0.997632 0.668315 0.538559
1964 1 0.985819 0.672367 0.537775
4827 1 0.973865 0.666372 0.538383
1896 1 0.979101 0.649927 0.542583
1900 1 0.987918 0.656937 0.539326
4556 1 0.50492 0.674469 0.530913
4679 1 0.883757 0.677423 0.527658
4966 1 0.897189 0.682577 0.530039
4680 1 0.920806 0.675634 0.532277
4826 1 0.912453 0.688982 0.529865
4961 1 0.92599 0.690026 0.530551
4748 1 0.934614 0.67757 0.532797
4897 1 0.942394 0.689266 0.53059
1967 1 0.951885 0.677696 0.535387
4756 1 0.955711 0.690199 0.531713
4613 1 0.966702 0.677012 0.535155
2033 1 0.968465 0.696424 0.531251
1906 1 0.979768 0.686996 0.534169
1902 1 0.99494 0.68201 0.536122
2126 1 0.997676 0.696587 0.532409
4899 1 0.985694 0.699033 0.532388
4523 1 0.773672 0.568794 0.556178
4667 1 0.793116 0.566935 0.555558
4465 1 0.805726 0.572724 0.554563
4532 1 0.821328 0.573598 0.555381
4546 1 0.845337 0.56692 0.556166
4395 1 0.869207 0.556898 0.556678
4467 1 0.895878 0.567299 0.557494
4464 1 0.913671 0.572126 0.555519
4478 1 0.93148 0.571555 0.557296
4343 1 0.562001 0.600128 0.556357
4280 1 0.57476 0.595315 0.557187
4436 1 0.675838 0.595685 0.556192
4444 1 0.689094 0.584473 0.557073
4307 1 0.701431 0.591209 0.556136
4312 1 0.715133 0.596218 0.552881
4378 1 0.729102 0.591002 0.554558
4381 1 0.740883 0.597414 0.550913
4521 1 0.755712 0.581371 0.556581
4458 1 0.771583 0.5935 0.551008
4528 1 0.769427 0.580166 0.553469
4595 1 0.754912 0.593191 0.551904
4388 1 0.783973 0.580332 0.554113
4455 1 0.784444 0.591602 0.548834
4451 1 0.794755 0.583736 0.552566
4457 1 0.798189 0.596226 0.548795
4527 1 0.809529 0.583662 0.550762
4525 1 0.811606 0.596111 0.548071
4524 1 0.824498 0.585614 0.551069
4403 1 0.835245 0.57527 0.555499
4604 1 0.836863 0.587858 0.550677
4598 1 0.852352 0.592288 0.551421
4326 1 0.851167 0.580144 0.55419
4473 1 0.86584 0.59246 0.552059
4475 1 0.866634 0.580242 0.554966
4399 1 0.879622 0.591808 0.553845
4332 1 0.886292 0.580985 0.556165
1614 1 0.897861 0.596948 0.555149
4472 1 0.903599 0.580676 0.55639
4186 1 0.925621 0.584729 0.557165
4329 1 0.941355 0.601596 0.555321
4334 1 0.94227 0.585874 0.556587
4139 1 0.518342 0.612621 0.555499
1676 1 0.502568 0.61884 0.553444
4417 1 0.538049 0.611998 0.554176
4357 1 0.55426 0.613906 0.552993
4208 1 0.565843 0.621296 0.54573
4276 1 0.571649 0.608917 0.552822
4498 1 0.580684 0.620989 0.547378
4288 1 0.586838 0.609401 0.551834
4495 1 0.597696 0.618522 0.550124
1609 1 0.609154 0.612245 0.552281
4567 1 0.615496 0.621124 0.547604
4304 1 0.600814 0.603929 0.556294
4519 1 0.624554 0.612903 0.551784
4351 1 0.636062 0.610395 0.554627
4565 1 0.6409 0.622131 0.550374
4231 1 0.650069 0.611711 0.55454
4302 1 0.670565 0.610067 0.555009
4575 1 0.66033 0.618587 0.55212
4584 1 0.678953 0.615845 0.551279
4441 1 0.692672 0.617201 0.548348
4301 1 0.68779 0.602356 0.553382
4514 1 0.703182 0.605102 0.551424
4232 1 0.704565 0.620956 0.547804
4300 1 0.713384 0.612363 0.548948
4234 1 0.722894 0.621068 0.548494
4305 1 0.724438 0.605997 0.551248
4447 1 0.736997 0.622039 0.547421
4308 1 0.737254 0.608961 0.549197
4373 1 0.747629 0.618106 0.545917
4522 1 0.755071 0.606437 0.548726
4659 1 0.768467 0.604312 0.545656
4582 1 0.76326 0.616719 0.544777
4588 1 0.780173 0.604726 0.546391
4526 1 0.792577 0.607885 0.545158
4382 1 0.805645 0.608307 0.546521
4453 1 0.809662 0.622906 0.542577
4452 1 0.818337 0.610129 0.545027
4733 1 0.825753 0.599172 0.549418
4594 1 0.8294 0.615746 0.544835
4665 1 0.840716 0.602536 0.546939
4607 1 0.847041 0.614186 0.544951
4540 1 0.857546 0.603395 0.548254
4536 1 0.873589 0.60379 0.549852
4608 1 0.866244 0.615951 0.546756
4600 1 0.887881 0.60348 0.551066
4606 1 0.883091 0.616785 0.548374
4474 1 0.897132 0.615273 0.550316
4602 1 0.909402 0.622478 0.550244
4545 1 0.911808 0.606979 0.552616
4333 1 0.92444 0.616009 0.55235
4470 1 0.926441 0.600255 0.554374
1683 1 0.943082 0.616413 0.554153
4404 1 0.971091 0.601137 0.555303
4619 1 0.95446 0.607528 0.55489
4690 1 0.95528 0.622087 0.551084
4614 1 0.968188 0.6154 0.554029
1894 1 0.984025 0.609458 0.552207
1751 1 0.98038 0.625053 0.549359
1753 1 0.995785 0.617474 0.55014
1895 1 0.997635 0.604814 0.554697
4271 1 0.517533 0.625687 0.54972
4412 1 0.510655 0.638133 0.54546
4345 1 0.546225 0.625083 0.551398
4414 1 0.531934 0.627603 0.550245
4204 1 0.528055 0.640481 0.54532
4482 1 0.541725 0.638529 0.545688
4348 1 0.553375 0.630673 0.545797
4490 1 0.577284 0.633452 0.543109
4353 1 0.591721 0.629137 0.544304
4202 1 0.605326 0.62761 0.544365
4636 1 0.641801 0.632369 0.544902
4499 1 0.628856 0.625492 0.547328
4426 1 0.669357 0.627129 0.546813
4431 1 0.654884 0.628015 0.54639
4635 1 0.68332 0.629339 0.545075
4590 1 0.712601 0.630604 0.544638
4374 1 0.724931 0.636086 0.542841
4741 1 0.851616 0.628224 0.543835
4610 1 0.89522 0.630876 0.546832
4805 1 0.880723 0.628613 0.545238
4543 1 0.883806 0.641203 0.543779
4675 1 0.909913 0.635223 0.546625
4750 1 0.925129 0.642089 0.544115
4541 1 0.941249 0.62558 0.549335
4471 1 0.928436 0.628507 0.54941
4683 1 0.93742 0.639917 0.545856
4476 1 0.967194 0.630957 0.549428
4616 1 0.94984 0.647061 0.543005
4544 1 0.951667 0.633885 0.548066
4677 1 0.96426 0.641448 0.544579
1829 1 0.98009 0.63835 0.546721
4617 1 0.994022 0.630543 0.547443
4612 1 0.992171 0.643708 0.544027
4072 1 0.552525 0.506585 0.571037
4079 1 0.595949 0.517718 0.568484
1396 1 0.57877 0.522872 0.56947
4150 1 0.620959 0.508714 0.567057
4149 1 0.603728 0.503906 0.570131
4076 1 0.610179 0.519528 0.56774
4222 1 0.636801 0.501566 0.567472
4138 1 0.634724 0.517165 0.566938
4435 1 0.649309 0.514564 0.567423
4366 1 0.66311 0.506688 0.567537
4363 1 0.663599 0.523185 0.566834
4092 1 0.678374 0.515767 0.568827
4369 1 0.693602 0.523076 0.568324
4370 1 0.68941 0.503128 0.56863
4229 1 0.702663 0.512604 0.568429
3884 1 0.715107 0.507814 0.568452
3888 1 0.724175 0.498596 0.568842
4091 1 0.727779 0.515618 0.568754
3879 1 0.737969 0.506428 0.567772
4295 1 0.750036 0.51465 0.566433
4228 1 0.76241 0.502134 0.565775
4460 1 0.765336 0.516071 0.567012
4029 1 0.790345 0.502991 0.564783
4171 1 0.77806 0.508483 0.565554
4462 1 0.792785 0.519758 0.563772
4310 1 0.802597 0.513258 0.565564
4530 1 0.816441 0.515651 0.562556
4434 1 0.814856 0.502944 0.565548
4238 1 0.841906 0.507279 0.56115
4603 1 0.830201 0.517231 0.561274
4176 1 0.848624 0.519924 0.55887
4393 1 0.872568 0.504162 0.562097
4108 1 0.861608 0.511975 0.561748
4248 1 0.854465 0.501299 0.562911
4237 1 0.874501 0.516247 0.560498
4254 1 0.887388 0.50614 0.564102
4402 1 0.888585 0.521369 0.561877
4099 1 0.900791 0.508132 0.562395
4324 1 0.914612 0.513128 0.562947
4390 1 0.921727 0.502547 0.564551
4319 1 0.90179 0.524052 0.56307
4325 1 0.937508 0.503793 0.563835
4328 1 0.929137 0.517003 0.563842
4242 1 0.941615 0.521244 0.563758
4123 1 0.964714 0.500412 0.562431
4251 1 0.950539 0.508884 0.563227
4337 1 0.967648 0.514308 0.563342
4049 1 0.957245 0.521905 0.564432
4267 1 0.998322 0.513228 0.565681
4407 1 0.980904 0.511136 0.564166
1259 1 0.50756 0.528862 0.572285
1463 1 0.506445 0.541461 0.571537
4136 1 0.546498 0.53962 0.570562
4146 1 0.573156 0.536157 0.570128
4144 1 0.56004 0.54745 0.56861
4218 1 0.559938 0.531936 0.569924
4148 1 0.57822 0.547954 0.569156
4143 1 0.58987 0.530488 0.568137
4291 1 0.590497 0.54441 0.567531
4147 1 0.602853 0.532849 0.567518
4290 1 0.616924 0.537723 0.566322
4286 1 0.62493 0.526865 0.565753
4215 1 0.60417 0.549496 0.566068
4433 1 0.63099 0.541845 0.564872
4362 1 0.639728 0.531691 0.566679
4216 1 0.644541 0.545407 0.56521
4367 1 0.653137 0.531059 0.563954
4089 1 0.667896 0.535473 0.565358
4156 1 0.658932 0.545749 0.564581
4292 1 0.68018 0.530695 0.566845
4438 1 0.685125 0.542353 0.564879
4289 1 0.698352 0.536773 0.567002
4023 1 0.712745 0.527167 0.569528
4225 1 0.712984 0.540676 0.566915
4318 1 0.72543 0.533141 0.567656
4377 1 0.743359 0.524108 0.565091
3885 1 0.7264 0.549074 0.564612
4459 1 0.736955 0.540068 0.565965
4233 1 0.749993 0.538618 0.563745
4463 1 0.763529 0.529741 0.56425
4303 1 0.761579 0.543022 0.561763
4391 1 0.790565 0.546867 0.559707
4236 1 0.775938 0.541881 0.562048
4235 1 0.779431 0.525393 0.564711
4311 1 0.792882 0.534856 0.56209
4669 1 0.806151 0.526868 0.561862
4461 1 0.806577 0.541097 0.559982
4531 1 0.818676 0.531418 0.560455
4529 1 0.818198 0.549549 0.559341
4174 1 0.836071 0.530707 0.56009
4316 1 0.851092 0.53948 0.558874
4383 1 0.830593 0.543393 0.558889
4392 1 0.861046 0.527372 0.560043
4247 1 0.866981 0.541946 0.558833
4397 1 0.876413 0.530142 0.560261
4394 1 0.881694 0.547492 0.559359
4327 1 0.890836 0.536687 0.560088
4454 1 0.91367 0.529697 0.563022
4244 1 0.904685 0.540939 0.561287
4477 1 0.918191 0.544108 0.56213
4315 1 0.929253 0.532856 0.563378
4401 1 0.935891 0.546317 0.562217
1612 1 0.947781 0.532729 0.564328
4323 1 0.965005 0.535471 0.562294
4259 1 0.950535 0.547759 0.562218
1821 1 0.976575 0.542985 0.561746
4198 1 0.976894 0.526416 0.563826
4689 1 0.990149 0.541529 0.563066
4122 1 0.993884 0.527791 0.564096
3992 1 0.514825 0.556662 0.570429
4209 1 0.516997 0.571706 0.566595
1596 1 0.503121 0.570456 0.567394
4132 1 0.531538 0.550957 0.569453
4142 1 0.545139 0.553151 0.568775
4413 1 0.53058 0.563606 0.567082
4214 1 0.542811 0.568078 0.565891
4211 1 0.556101 0.561324 0.56599
4210 1 0.563085 0.571853 0.564651
4287 1 0.571261 0.558244 0.56613
4220 1 0.58521 0.561639 0.566856
4273 1 0.577161 0.573722 0.564404
4224 1 0.619842 0.550091 0.56591
4205 1 0.601598 0.56469 0.566911
4140 1 0.614925 0.563695 0.566252
4281 1 0.6289 0.570462 0.562669
4365 1 0.633958 0.557673 0.563929
4352 1 0.648307 0.561509 0.562362
4375 1 0.67599 0.550227 0.565325
4437 1 0.663134 0.56027 0.563876
4296 1 0.661813 0.575445 0.562342
4230 1 0.674872 0.565879 0.562347
3814 1 0.68879 0.556789 0.561295
4097 1 0.687308 0.570671 0.558602
3948 1 0.702444 0.549953 0.564689
4517 1 0.704307 0.564815 0.560108
4297 1 0.716338 0.555373 0.561903
4306 1 0.716021 0.570524 0.560065
4026 1 0.730074 0.562642 0.561364
4379 1 0.744588 0.56773 0.559497
4599 1 0.740738 0.552451 0.561766
4534 1 0.759926 0.568548 0.558899
4387 1 0.754406 0.554116 0.561897
4597 1 0.767432 0.555785 0.559399
4448 1 0.780436 0.556614 0.557775
4398 1 0.800611 0.556055 0.559326
4671 1 0.812913 0.560967 0.558231
4258 1 0.83045 0.560277 0.557215
4389 1 0.842671 0.551473 0.557055
4533 1 0.85813 0.569235 0.558084
4663 1 0.876429 0.571039 0.55689
4537 1 0.85668 0.554416 0.556242
4466 1 0.896082 0.552502 0.558526
4405 1 0.884343 0.560477 0.556919
4385 1 0.910284 0.557977 0.559703
4400 1 0.924193 0.558182 0.559349
4396 1 0.93834 0.560377 0.559077
4260 1 0.947811 0.571716 0.557946
4480 1 0.964612 0.551224 0.56168
1823 1 0.955492 0.561518 0.560378
4330 1 0.969703 0.569833 0.560224
4268 1 1.00148 0.551959 0.563373
4193 1 0.981118 0.558037 0.561925
4549 1 0.994449 0.567077 0.559845
1467 1 0.502139 0.594051 0.562453
4206 1 0.509824 0.58358 0.565325
4207 1 0.517571 0.598555 0.561547
4212 1 0.526003 0.587756 0.563512
4004 1 0.533138 0.576295 0.564765
4279 1 0.541172 0.588442 0.562384
4278 1 0.550522 0.57741 0.565171
4342 1 0.555201 0.585545 0.560198
4283 1 0.568448 0.584719 0.56123
4285 1 0.591622 0.577749 0.564157
4372 1 0.586586 0.599374 0.555861
4282 1 0.583139 0.586038 0.559929
4360 1 0.595754 0.591689 0.561139
4361 1 0.609062 0.592128 0.558762
4425 1 0.604718 0.580113 0.562303
4443 1 0.619082 0.581215 0.561501
4442 1 0.645753 0.573296 0.563198
4509 1 0.643362 0.597721 0.557995
4583 1 0.634348 0.584091 0.560899
4502 1 0.628541 0.595608 0.559171
4496 1 0.650666 0.588033 0.561587
4386 1 0.666219 0.588383 0.559283
4445 1 0.677255 0.579291 0.559432
4095 1 0.713742 0.583505 0.557508
4165 1 0.700191 0.577288 0.558387
4164 1 0.741556 0.583394 0.55602
4384 1 0.728467 0.576082 0.558102
4535 1 0.910913 0.593653 0.557384
4406 1 0.956203 0.595464 0.556944
1825 1 0.97023 0.586071 0.558461
4468 1 0.958732 0.579123 0.559391
4331 1 0.985684 0.591833 0.557457
1760 1 0.981842 0.572955 0.558455
4336 1 0.99575 0.581596 0.558402
4134 1 0.502393 0.606235 0.558744
4067 1 0.531948 0.60321 0.560263
1539 1 0.546265 0.600233 0.557234
4491 1 0.620462 0.602776 0.556844
4025 1 0.658631 0.60103 0.557091
4131 1 0.521781 0.512548 0.571084
1394 1 0.508477 0.515524 0.571108
1323 1 0.512478 0.502334 0.572855
1326 1 0.534543 0.519215 0.572003
4000 1 0.537563 0.505268 0.572278
4137 1 0.548388 0.524438 0.572013
1327 1 0.564463 0.520191 0.571387
4068 1 0.571553 0.507936 0.570863
4221 1 0.586872 0.508282 0.571154
1397 1 0.521531 0.526517 0.57215
1536 1 0.521032 0.540999 0.571613
4219 1 0.534412 0.533238 0.570474
1462 1 0.499015 0.554738 0.57135
