ITEM: TIMESTEP
399800
ITEM: NUMBER OF ATOMS
5530
ITEM: BOX BOUNDS pp pp pp
-3.3634999999999991e+01 3.3634999999999991e+01
-3.3290016521473788e+01 3.3290016521473788e+01
-5.7659999999999989e+01 5.7659999999999989e+01
ITEM: ATOMS id type xs ys zs
45 1 0.00997073 0.00174362 0.49893
2491 1 0.0460802 0.0146935 0.499769
2510 1 0.0309395 0.0127039 0.49957
131 1 0.0702144 0.0183109 0.49988
266 1 0.0773113 0.000107284 0.499981
2661 1 0.0828242 0.0118051 0.499785
13 1 0.107477 0.00725819 0.49906
264 1 0.0983195 0.0167139 0.499008
134 1 0.113945 0.0197175 0.499456
431 1 0.119368 0.00444801 0.499494
491 1 0.142172 0.0168615 0.496656
2667 1 0.13076 0.0122001 0.497483
360 1 0.15015 0.00550387 0.495572
221 1 0.162322 0.00770747 0.496691
133 1 0.157534 0.0196444 0.496011
142 1 0.173233 0.0122196 0.496829
425 1 0.184428 0.022017 0.496342
210 1 0.189404 0.0109935 0.497116
2463 1 0.212745 0.0133237 0.496017
75 1 0.20053 0.00759004 0.494514
197 1 0.200653 0.0226312 0.497244
558 1 0.224035 0.00898504 0.49456
55 1 0.235433 0.000154684 0.493384
213 1 0.225427 0.0210923 0.496206
2391 1 0.237487 0.0137825 0.495274
212 1 0.249517 0.00576902 0.493338
2461 1 0.260293 0.00995226 0.495401
2455 1 0.253814 0.0233151 0.497412
2324 1 0.272178 0.0117384 0.497413
74 1 0.279995 0.0227576 0.496041
437 1 0.284158 0.0101444 0.496245
2733 1 0.308477 0.00115015 0.496555
375 1 0.292947 0.0224788 0.496049
21 1 0.297762 0.0106413 0.495725
211 1 0.314049 0.011795 0.494864
236 1 0.324826 0.00421172 0.495352
287 1 0.331607 0.0170835 0.498043
148 1 0.338495 0.00340056 0.498157
26 1 0.347154 0.0130957 0.497959
2604 1 0.358728 0.00957107 0.497508
158 1 0.371339 0.0160329 0.496984
2753 1 0.373683 0.00443493 0.499461
2617 1 0.393622 0.00244519 0.499775
2945 1 0.385185 0.0115956 0.498494
2258 1 0.409918 0.00115361 0.498333
2691 1 0.419385 0.0226439 0.498884
2877 1 0.425293 0.0105339 0.49817
520 1 0.449392 0.0207027 0.499045
307 1 0.434244 0.0221801 0.498794
230 1 0.44414 0.00786117 0.498996
664 1 0.461314 0.0119664 0.498903
3438 1 0.48828 0.017676 0.499111
207 1 0.0439948 0.027637 0.499259
2630 1 0.0367418 0.0372177 0.499861
185 1 0.0873601 0.024114 0.499865
495 1 0.101818 0.0286954 0.499071
149 1 0.10079 0.0412081 0.499163
2586 1 0.115274 0.038206 0.499055
135 1 0.126301 0.0268412 0.497859
340 1 0.132714 0.0386548 0.498282
2388 1 0.143402 0.0311634 0.498006
2501 1 0.159518 0.0308471 0.496932
269 1 0.149501 0.0441037 0.497599
283 1 0.163328 0.0468354 0.496613
565 1 0.1724 0.0260662 0.495044
424 1 0.174509 0.0393338 0.496647
403 1 0.190717 0.0331658 0.496838
281 1 0.202363 0.0422049 0.497385
225 1 0.213166 0.0295884 0.49699
215 1 0.216453 0.0427025 0.495851
564 1 0.236108 0.0427675 0.495926
2662 1 0.226658 0.0332031 0.496157
2525 1 0.240237 0.0259253 0.495386
2665 1 0.249282 0.0366643 0.496541
377 1 0.261137 0.0382738 0.496748
99 1 0.265583 0.0257324 0.497577
2743 1 0.274583 0.0345381 0.49714
89 1 0.279683 0.0466517 0.49655
2683 1 0.305993 0.0243805 0.496014
574 1 0.288557 0.0344733 0.496705
2526 1 0.304335 0.0373648 0.497265
288 1 0.294033 0.0448331 0.496779
2655 1 0.321085 0.0250358 0.496401
364 1 0.31757 0.0374102 0.495942
203 1 0.330943 0.0418275 0.495401
2734 1 0.350867 0.0250648 0.498139
2457 1 0.33615 0.0300716 0.497372
224 1 0.349593 0.0369659 0.497005
19 1 0.362366 0.0251812 0.497981
2941 1 0.375472 0.0288363 0.499597
2757 1 0.361563 0.0381857 0.499242
163 1 0.376498 0.0414045 0.498972
516 1 0.390702 0.037843 0.499144
2622 1 0.400556 0.025836 0.499578
97 1 0.405362 0.039268 0.499174
5251 1 0.429987 0.0341583 0.499568
175 1 0.443812 0.0322265 0.499562
173 1 0.46175 0.02609 0.499158
2948 1 0.47689 0.0258621 0.499836
2693 1 0.485713 0.036912 0.499906
336 1 0.00597993 0.0599844 0.499891
5317 1 0.0422599 0.0638341 0.499801
64 1 0.0251552 0.0538485 0.499466
121 1 0.0621183 0.0676136 0.498819
489 1 0.109188 0.064036 0.499035
263 1 0.0960945 0.0614778 0.499688
2513 1 0.13902 0.051813 0.497611
119 1 0.123276 0.0505177 0.499261
417 1 0.125668 0.0616829 0.498242
208 1 0.138842 0.064353 0.497622
413 1 0.152836 0.0548013 0.49682
354 1 0.166037 0.0608456 0.496919
483 1 0.154612 0.0680414 0.496986
367 1 0.177421 0.0551051 0.499009
572 1 0.187887 0.0478643 0.496738
365 1 0.184868 0.0686914 0.496984
422 1 0.210222 0.0537343 0.49724
374 1 0.196229 0.0578043 0.497801
641 1 0.199187 0.0696505 0.497801
634 1 0.212963 0.0676061 0.498071
2724 1 0.224174 0.05163 0.497914
291 1 0.230873 0.0627856 0.497188
146 1 0.240895 0.0542003 0.497885
352 1 0.24411 0.0696582 0.497098
435 1 0.253437 0.0497084 0.496703
82 1 0.256569 0.0632962 0.497584
443 1 0.267877 0.0497248 0.498628
216 1 0.271706 0.0617122 0.498533
219 1 0.281777 0.0712265 0.49739
2761 1 0.305056 0.0538011 0.495832
2726 1 0.286062 0.0572936 0.497815
563 1 0.29797 0.0642211 0.497228
79 1 0.316876 0.050659 0.497317
2754 1 0.317019 0.0639024 0.49635
289 1 0.325955 0.0695708 0.496538
300 1 0.328471 0.056218 0.497208
243 1 0.342077 0.0492181 0.497982
498 1 0.339943 0.0630677 0.496893
2721 1 0.354822 0.0492448 0.497751
447 1 0.35818 0.0626369 0.498068
232 1 0.36755 0.0509587 0.498399
92 1 0.376257 0.061644 0.497951
2751 1 0.386377 0.0530671 0.499341
100 1 0.392865 0.0676386 0.498217
237 1 0.399415 0.0521167 0.499445
439 1 0.40782 0.0620703 0.49922
138 1 0.421679 0.062469 0.499874
2810 1 0.464008 0.0661229 0.499584
2695 1 0.481567 0.0497022 0.499785
2653 1 0.0220581 0.0792111 0.499842
818 1 0.0373122 0.0929806 0.499199
189 1 0.05215 0.0928374 0.499521
328 1 0.0861239 0.0797581 0.499187
194 1 0.09048 0.0906753 0.498662
677 1 0.106968 0.0898724 0.499057
182 1 0.11566 0.078271 0.497655
419 1 0.117348 0.0950102 0.498321
60 1 0.129003 0.0748905 0.49716
337 1 0.139597 0.0851815 0.49637
111 1 0.127434 0.0877438 0.497826
496 1 0.144056 0.0747723 0.495487
61 1 0.155111 0.0809304 0.495388
401 1 0.164684 0.0888357 0.497321
637 1 0.151459 0.0951515 0.498741
366 1 0.166776 0.0730497 0.495836
472 1 0.17768 0.0784955 0.497428
559 1 0.18812 0.0861324 0.49817
486 1 0.201107 0.0819916 0.498392
650 1 0.213583 0.0912263 0.499744
562 1 0.216395 0.0794438 0.497718
779 1 0.228732 0.0886259 0.49887
349 1 0.228768 0.0757922 0.497489
506 1 0.241229 0.0865776 0.49882
229 1 0.252873 0.0796118 0.497653
2452 1 0.263815 0.0727386 0.49816
502 1 0.262828 0.0896902 0.498485
575 1 0.283689 0.0877271 0.498625
141 1 0.272549 0.0813417 0.498298
235 1 0.297607 0.0764278 0.498749
589 1 0.29582 0.0900205 0.497991
359 1 0.309276 0.0886022 0.497638
152 1 0.311121 0.0747992 0.497245
84 1 0.320152 0.08177 0.496075
223 1 0.33018 0.0906832 0.495991
160 1 0.334148 0.0773652 0.495567
583 1 0.342649 0.0866973 0.49594
726 1 0.349111 0.0731921 0.496246
285 1 0.355773 0.0830769 0.497064
451 1 0.367356 0.0715982 0.497609
153 1 0.36998 0.0823982 0.497332
937 1 0.360698 0.0947572 0.49664
507 1 0.403723 0.0756883 0.498007
313 1 0.381869 0.0746844 0.4974
2616 1 0.382646 0.0888524 0.496658
444 1 0.396759 0.0935093 0.497594
35 1 0.392568 0.0819614 0.498279
2762 1 0.425163 0.0831247 0.499019
513 1 0.416266 0.0736675 0.498367
2944 1 0.409948 0.0865892 0.498938
3027 1 0.444459 0.0939776 0.499798
591 1 0.459452 0.0905017 0.499997
3222 1 0.468741 0.078629 0.49981
172 1 0.454688 0.0790463 0.499983
3221 1 0.485296 0.0782781 0.499456
3366 1 0.498638 0.0820966 0.498983
662 1 0.478103 0.090659 0.497588
126 1 0.0475912 0.118828 0.499421
201 1 0.0333666 0.108117 0.499425
395 1 0.0934221 0.10987 0.499738
192 1 0.0732628 0.115433 0.499349
2714 1 0.117861 0.10892 0.498445
476 1 0.101223 0.099608 0.498926
534 1 0.106367 0.112978 0.49865
273 1 0.12966 0.101775 0.49838
14 1 0.132318 0.113516 0.499181
427 1 0.140235 0.098041 0.497116
547 1 0.161072 0.10403 0.498293
2434 1 0.160775 0.116609 0.49753
571 1 0.147465 0.109289 0.497904
402 1 0.174422 0.0964895 0.496711
761 1 0.18679 0.100546 0.496787
549 1 0.1866 0.112654 0.496902
293 1 0.172116 0.110384 0.497007
701 1 0.199461 0.0965637 0.499442
568 1 0.199453 0.111819 0.499453
550 1 0.232901 0.114086 0.499263
636 1 0.222723 0.100347 0.498061
479 1 0.219416 0.115443 0.498967
356 1 0.237347 0.0998625 0.499019
191 1 0.251949 0.0952625 0.499299
567 1 0.247352 0.11106 0.49871
371 1 0.259015 0.117298 0.498975
2742 1 0.273981 0.0982159 0.499423
155 1 0.271476 0.113972 0.499939
218 1 0.302768 0.113125 0.499596
90 1 0.295657 0.103007 0.499419
368 1 0.321901 0.0994533 0.497051
734 1 0.309662 0.10089 0.498215
433 1 0.332566 0.107881 0.497265
865 1 0.315601 0.112316 0.498301
83 1 0.342554 0.0999777 0.496424
302 1 0.354225 0.106942 0.495548
290 1 0.341679 0.116933 0.497128
239 1 0.373776 0.0954926 0.497349
659 1 0.365224 0.114225 0.49569
298 1 0.373962 0.107563 0.499538
234 1 0.387692 0.104991 0.497099
446 1 0.403451 0.11483 0.499627
505 1 0.388236 0.117374 0.498188
241 1 0.406506 0.100674 0.498174
373 1 0.417535 0.10933 0.498409
440 1 0.419441 0.0964059 0.499073
3367 1 0.426695 0.117196 0.49733
3432 1 0.430617 0.106113 0.4995
453 1 0.443084 0.108511 0.498616
3152 1 0.467626 0.0981715 0.49858
3016 1 0.488097 0.0969791 0.498808
2820 1 0.478916 0.10631 0.499334
3502 1 0.492371 0.108624 0.49833
257 1 0.00449631 0.125651 0.499992
545 1 0.0141312 0.13592 0.499699
327 1 0.0173443 0.120696 0.499847
416 1 0.029348 0.12141 0.498653
339 1 0.0385129 0.128745 0.499831
190 1 0.0660471 0.133738 0.498485
279 1 0.0841733 0.119194 0.499558
254 1 0.0777435 0.131271 0.499145
206 1 0.094402 0.128297 0.497678
333 1 0.0860988 0.140725 0.499275
1044 1 0.107684 0.12679 0.499809
546 1 0.104021 0.142045 0.499685
341 1 0.134223 0.128671 0.498386
817 1 0.122705 0.120821 0.497955
275 1 0.120963 0.133936 0.498424
643 1 0.13136 0.141014 0.498441
353 1 0.163265 0.129789 0.497697
409 1 0.148019 0.120432 0.498519
642 1 0.145817 0.133467 0.498876
679 1 0.174818 0.122013 0.497684
338 1 0.175506 0.137576 0.499525
646 1 0.187242 0.125216 0.498351
708 1 0.188434 0.141325 0.49896
481 1 0.207208 0.123104 0.498534
556 1 0.199 0.133637 0.498185
157 1 0.212095 0.137167 0.499371
420 1 0.219671 0.128195 0.497632
775 1 0.24677 0.127651 0.499138
566 1 0.26597 0.132645 0.498803
706 1 0.324616 0.133534 0.498191
652 1 0.324695 0.119781 0.499447
921 1 0.312277 0.125108 0.498958
793 1 0.35192 0.121242 0.496576
167 1 0.334923 0.142082 0.496128
584 1 0.336731 0.130122 0.497512
238 1 0.35101 0.134091 0.496275
655 1 0.362471 0.130343 0.495893
588 1 0.37382 0.138163 0.496444
595 1 0.375491 0.123913 0.497424
859 1 0.387655 0.131456 0.497336
525 1 0.400163 0.126863 0.497767
523 1 0.399759 0.140838 0.49753
303 1 0.415955 0.122159 0.498644
445 1 0.410477 0.134563 0.498864
3362 1 0.42796 0.129268 0.497882
3650 1 0.422659 0.140283 0.497435
587 1 0.438295 0.121072 0.499151
310 1 0.441431 0.136216 0.498423
381 1 0.454687 0.130792 0.499914
3578 1 0.498477 0.121488 0.497856
3012 1 0.477042 0.122799 0.498343
382 1 0.482143 0.141303 0.498137
3365 1 0.498335 0.13914 0.496946
3434 1 0.48823 0.130265 0.497103
262 1 0.020373 0.158766 0.498939
405 1 0.0516487 0.143375 0.498887
760 1 0.0620017 0.162531 0.498937
259 1 0.0630024 0.149701 0.499339
712 1 0.0733943 0.145863 0.498471
617 1 0.0969329 0.153873 0.497966
577 1 0.147076 0.146077 0.499789
687 1 0.181382 0.154597 0.497958
585 1 0.170568 0.164617 0.499394
499 1 0.201813 0.146598 0.498628
569 1 0.214028 0.15376 0.499456
267 1 0.19334 0.155985 0.499583
477 1 0.22194 0.14369 0.499565
296 1 0.231446 0.154801 0.499422
638 1 0.246114 0.149558 0.499923
233 1 0.321779 0.145365 0.499448
503 1 0.334529 0.155415 0.497919
992 1 0.347688 0.153577 0.496636
654 1 0.34096 0.166528 0.498578
648 1 0.358733 0.14583 0.495384
732 1 0.36934 0.152268 0.495708
379 1 0.357985 0.164094 0.496524
724 1 0.385832 0.145096 0.497069
944 1 0.384213 0.159009 0.49633
3580 1 0.397602 0.15326 0.496867
3505 1 0.396714 0.165048 0.496748
1290 1 0.40969 0.161784 0.497205
1000 1 0.410903 0.148906 0.497415
3437 1 0.42145 0.165118 0.497139
872 1 0.425581 0.152878 0.497438
862 1 0.439076 0.147613 0.496528
663 1 0.437075 0.161812 0.496617
3784 1 0.448889 0.157678 0.495158
3231 1 0.452964 0.145351 0.49782
3443 1 0.46688 0.147756 0.498551
512 1 0.465788 0.163297 0.498048
3508 1 0.477036 0.154684 0.497228
3228 1 0.491481 0.150889 0.496246
455 1 0.485265 0.16421 0.498291
3423 1 0.0213421 0.186316 0.499183
678 1 0.0160164 0.174654 0.499229
676 1 0.0373261 0.182347 0.496796
484 1 0.0279017 0.170874 0.498002
618 1 0.0572496 0.187735 0.499155
750 1 0.049213 0.170405 0.498489
536 1 0.0740787 0.171589 0.499193
570 1 0.182185 0.169393 0.499621
442 1 0.330571 0.173885 0.498679
1062 1 0.336837 0.185582 0.498789
930 1 0.348797 0.176538 0.496593
580 1 0.37644 0.181908 0.494894
436 1 0.361687 0.187636 0.495543
789 1 0.364944 0.173972 0.495789
731 1 0.378156 0.169186 0.494979
795 1 0.388778 0.177383 0.495458
3641 1 0.405768 0.176862 0.496448
1073 1 0.419331 0.177973 0.497034
3448 1 0.4299 0.187409 0.496338
450 1 0.432703 0.174002 0.497075
3369 1 0.447498 0.171643 0.495528
3925 1 0.451556 0.186455 0.496657
3589 1 0.45904 0.172751 0.496851
3151 1 0.464875 0.184183 0.497341
3506 1 0.476364 0.17439 0.497625
800 1 0.494577 0.175407 0.499916
3153 1 0.482664 0.183059 0.499897
256 1 0.00392227 0.196782 0.499391
408 1 0.042375 0.192574 0.499149
260 1 0.0302815 0.197275 0.499343
474 1 0.0423108 0.208238 0.49973
956 1 0.0539284 0.200263 0.499481
941 1 0.330169 0.206001 0.498826
653 1 0.345712 0.212592 0.498278
794 1 0.349852 0.191242 0.496786
3292 1 0.342796 0.199262 0.499883
854 1 0.357801 0.213649 0.498403
311 1 0.359525 0.200337 0.496547
294 1 0.374787 0.195394 0.496601
573 1 0.371457 0.209402 0.496569
727 1 0.38478 0.208923 0.497685
3435 1 0.39875 0.203901 0.498999
592 1 0.388263 0.195118 0.495884
441 1 0.400515 0.190691 0.497749
376 1 0.412963 0.192359 0.497801
3501 1 0.41138 0.207137 0.499691
3519 1 0.424835 0.200105 0.498981
3088 1 0.441236 0.19125 0.497133
3503 1 0.440697 0.204165 0.499056
725 1 0.453316 0.201153 0.49745
3572 1 0.462579 0.209697 0.498193
3444 1 0.464575 0.195701 0.498364
3370 1 0.475885 0.208805 0.498791
1014 1 0.480641 0.197462 0.499593
870 1 0.336337 0.22408 0.499351
853 1 0.34893 0.225397 0.499297
925 1 0.364325 0.225213 0.499018
869 1 0.37666 0.22137 0.499664
792 1 0.402548 0.21757 0.49929
1004 1 0.417771 0.22033 0.499985
3098 1 0.442178 0.237172 0.499117
3233 1 0.439142 0.224197 0.499999
3294 1 0.448946 0.214543 0.498952
3312 1 0.457635 0.222676 0.498099
3383 1 0.47117 0.221886 0.499007
3582 1 0.496767 0.226025 0.498872
3171 1 0.488853 0.215953 0.499681
3642 1 0.464684 0.25043 0.49858
1273 1 0.423972 0.373151 0.499472
1637 1 0.410177 0.37389 0.498956
1489 1 0.437606 0.373188 0.499399
1362 1 0.38732 0.394476 0.499857
3716 1 0.399338 0.383524 0.498731
1343 1 0.399886 0.397386 0.499074
3924 1 0.410784 0.385277 0.497807
1573 1 0.412154 0.399744 0.498761
1410 1 0.425161 0.385969 0.49984
1285 1 0.451884 0.386848 0.499883
1280 1 0.368203 0.423753 0.498921
1332 1 0.366669 0.4092 0.499628
1206 1 0.381097 0.422259 0.498552
1339 1 0.395533 0.420348 0.499287
1429 1 0.392447 0.408028 0.497879
1056 1 0.407997 0.412545 0.497998
1155 1 0.411858 0.426168 0.498394
823 1 0.259731 0.43858 0.499668
1236 1 0.267619 0.447912 0.499515
1072 1 0.343778 0.429853 0.499571
1078 1 0.350996 0.447975 0.499951
1482 1 0.358171 0.436265 0.499911
1132 1 0.369291 0.442825 0.4991
1692 1 0.389746 0.434315 0.496636
1483 1 0.384642 0.447138 0.498505
1291 1 0.399202 0.449546 0.497173
1187 1 0.402324 0.436708 0.498258
1501 1 0.420758 0.435064 0.499567
1360 1 0.413222 0.446342 0.497043
1462 1 0.244993 0.461295 0.499724
1101 1 0.240598 0.475847 0.49934
1272 1 0.254798 0.473972 0.498814
1095 1 0.267766 0.465427 0.498287
919 1 0.280051 0.456895 0.498401
1574 1 0.322161 0.471108 0.49955
1201 1 0.33826 0.472528 0.49741
1419 1 0.34305 0.459758 0.498979
1420 1 0.35536 0.461488 0.498509
1260 1 0.365374 0.469611 0.496544
1644 1 0.365846 0.454229 0.498511
1638 1 0.37614 0.461573 0.49768
1276 1 0.389434 0.458866 0.496364
1499 1 0.399907 0.46643 0.496089
1488 1 0.384995 0.47071 0.495282
4282 1 0.415177 0.469331 0.496868
1264 1 0.421584 0.455337 0.498321
1286 1 0.410007 0.458548 0.497476
1645 1 0.438385 0.476055 0.498931
1504 1 0.431891 0.463936 0.498542
1007 1 0.471399 0.474435 0.499847
4559 1 0.454691 0.473814 0.499285
1176 1 0.222332 0.498431 0.499714
1526 1 0.250662 0.492932 0.4982
909 1 0.238332 0.490466 0.498616
1659 1 0.272365 0.497277 0.495582
1195 1 0.283739 0.489085 0.497542
1103 1 0.262378 0.483717 0.498613
1108 1 0.27333 0.477325 0.499231
1412 1 0.292374 0.476778 0.49891
1270 1 0.299361 0.493168 0.495081
1349 1 0.305025 0.48147 0.497417
1153 1 0.331285 0.482835 0.497394
1196 1 0.311588 0.494663 0.494478
4133 1 0.318578 0.484062 0.497545
1355 1 0.326874 0.494707 0.496156
1259 1 0.345625 0.490811 0.497384
1414 1 0.349763 0.478605 0.499088
4138 1 0.362942 0.484107 0.496636
1840 1 0.372713 0.493598 0.496609
1422 1 0.372765 0.478516 0.495581
1283 1 0.358963 0.497326 0.496746
4275 1 0.391959 0.494309 0.495976
1430 1 0.386159 0.482152 0.495612
1266 1 0.400093 0.479213 0.495204
1632 1 0.419149 0.492118 0.495891
1490 1 0.404973 0.492753 0.49564
1197 1 0.424826 0.477758 0.496052
4621 1 0.412206 0.480786 0.496129
1497 1 0.44989 0.486432 0.496677
1775 1 0.446844 0.499046 0.496589
1773 1 0.435583 0.489061 0.497689
1568 1 0.461137 0.496917 0.498344
1219 1 0.462406 0.483472 0.49859
1710 1 0.473552 0.489969 0.49818
1566 1 0.486904 0.496366 0.498067
1293 1 0.48302 0.480403 0.499639
2291 1 0.0041762 0.0210034 0.50063
2570 1 0.01522 0.0131364 0.501203
7 1 0.0234756 0.00208178 0.500108
258 1 0.0570575 0.017872 0.500663
351 1 0.050069 0.0001207 0.500332
196 1 0.0645415 0.00580021 0.500337
15 1 0.095517 0.00371055 0.500795
162 1 0.406175 0.0152005 0.500309
380 1 0.474313 0.0146476 0.500039
2408 1 0.478238 0.00211861 0.500179
308 1 0.490948 0.0042855 0.500397
5389 1 0.0233907 0.0387837 0.500582
2639 1 0.00775032 0.0376 0.500982
5457 1 0.0170173 0.0257465 0.500351
2562 1 0.0297878 0.0251598 0.500844
115 1 0.0484224 0.0436267 0.500017
253 1 0.0556563 0.0314753 0.500998
280 1 0.0612037 0.0425991 0.500926
199 1 0.0751612 0.0300428 0.500177
332 1 0.0859559 0.0393724 0.500249
448 1 0.387197 0.0252901 0.500294
31 1 0.416822 0.0351419 0.500302
91 1 0.4394 0.0454171 0.500276
2752 1 0.470679 0.0381658 0.500155
2620 1 0.456764 0.0371513 0.500746
3096 1 0.497677 0.0394033 0.500227
3084 1 0.497472 0.0255229 0.500614
139 1 0.0130882 0.0502114 0.500112
132 1 0.0189522 0.0645366 0.500454
2708 1 0.0383019 0.0516413 0.501255
2635 1 0.0291466 0.0696208 0.500281
493 1 0.0560865 0.0548835 0.500188
3219 1 0.0702229 0.0596791 0.500246
6 1 0.0752972 0.0486812 0.501687
329 1 0.0831659 0.0656596 0.501063
2634 1 0.0911777 0.0504724 0.50012
202 1 0.110468 0.0507637 0.500398
370 1 0.411724 0.0500849 0.500526
2485 1 0.42556 0.049656 0.500061
96 1 0.449037 0.0656367 0.500604
2756 1 0.438067 0.060151 0.500928
93 1 0.430523 0.0714064 0.500047
2687 1 0.45375 0.0502221 0.500657
2884 1 0.468834 0.0531966 0.501234
3155 1 0.478015 0.0639345 0.500181
2878 1 0.494001 0.0516571 0.50129
5472 1 0.490104 0.0667442 0.501817
5 1 0.00737681 0.073942 0.500286
610 1 0.0101453 0.0893533 0.500717
2712 1 0.0391664 0.0794954 0.500408
128 1 0.0243936 0.0915982 0.50015
180 1 0.0519296 0.0758345 0.500417
127 1 0.065116 0.0892584 0.500425
183 1 0.0711133 0.0760744 0.500087
130 1 0.0775103 0.0909344 0.500445
613 1 0.0993048 0.0738922 0.500027
242 1 0.441442 0.0791273 0.50062
519 1 0.431575 0.0932986 0.50005
124 1 0.00630911 0.102643 0.500466
406 1 0.000263512 0.114167 0.501358
667 1 0.0186616 0.106831 0.5003
323 1 0.0457086 0.104773 0.501473
700 1 0.0696654 0.101999 0.501111
261 1 0.0581251 0.10763 0.500881
277 1 0.0825837 0.104728 0.500306
1042 1 0.210033 0.105226 0.50011
343 1 0.260987 0.104984 0.500695
151 1 0.282991 0.105076 0.500506
220 1 0.290065 0.114231 0.501143
2612 1 0.450995 0.118973 0.50024
733 1 0.454951 0.103939 0.500384
174 1 0.466867 0.115198 0.500245
3566 1 0.00280412 0.139363 0.500095
692 1 0.0264752 0.135801 0.500471
624 1 0.0378142 0.142793 0.500594
540 1 0.0611181 0.120406 0.500155
3568 1 0.0517295 0.13141 0.50022
723 1 0.159953 0.140266 0.501028
711 1 0.236554 0.140633 0.500283
423 1 0.233079 0.127417 0.500006
154 1 0.254027 0.13683 0.500786
226 1 0.280653 0.124838 0.501197
783 1 0.277301 0.139405 0.503008
240 1 0.300782 0.127235 0.500069
504 1 0.290667 0.133255 0.502762
432 1 0.311457 0.137545 0.500952
2942 1 0.468361 0.134141 0.500132
418 1 0.00853067 0.163966 0.50039
255 1 0.00977283 0.150672 0.500125
603 1 0.036985 0.159328 0.500164
184 1 0.025232 0.147466 0.500292
816 1 0.0479287 0.155198 0.500649
608 1 0.0841388 0.154609 0.500092
753 1 0.109134 0.156293 0.501066
626 1 0.123329 0.158818 0.501477
200 1 0.135699 0.153286 0.500474
412 1 0.120051 0.146407 0.500578
480 1 0.14523 0.162782 0.500142
490 1 0.156872 0.16655 0.501522
557 1 0.1573 0.154236 0.500513
193 1 0.169572 0.148628 0.501394
358 1 0.203733 0.163501 0.500925
159 1 0.242796 0.163074 0.502244
510 1 0.258889 0.157272 0.50152
369 1 0.266245 0.146718 0.501463
362 1 0.274444 0.156208 0.501761
434 1 0.286068 0.162255 0.501963
2675 1 0.301167 0.144054 0.501687
297 1 0.288578 0.145829 0.502324
286 1 0.296962 0.156689 0.502867
560 1 0.31242 0.156743 0.502434
586 1 0.322549 0.160033 0.500571
331 1 0.00682771 0.184135 0.500537
834 1 0.0696157 0.185524 0.500627
334 1 0.0617998 0.175293 0.500158
614 1 0.0827427 0.181449 0.501051
974 1 0.09043 0.190254 0.500993
622 1 0.0866468 0.168432 0.500952
914 1 0.0971159 0.179165 0.500927
471 1 0.110749 0.18176 0.502137
122 1 0.118511 0.170385 0.501508
509 1 0.103037 0.167702 0.500719
619 1 0.135758 0.170837 0.500855
973 1 0.134697 0.183375 0.502662
780 1 0.123118 0.184624 0.500408
688 1 0.163625 0.178007 0.501529
497 1 0.147549 0.17957 0.500806
630 1 0.176964 0.181585 0.500742
764 1 0.189251 0.184353 0.501673
411 1 0.203682 0.180596 0.501065
832 1 0.193593 0.171059 0.500307
639 1 0.228281 0.16669 0.501103
350 1 0.216648 0.167964 0.501087
470 1 0.216402 0.180965 0.502186
492 1 0.230019 0.178924 0.502198
715 1 0.253229 0.169426 0.500459
717 1 0.241422 0.17682 0.501575
581 1 0.242875 0.189013 0.502208
3363 1 0.253433 0.181822 0.502995
920 1 0.266341 0.166976 0.50139
430 1 0.276316 0.173619 0.504119
718 1 0.264959 0.180629 0.503938
87 1 0.272444 0.189754 0.506551
515 1 0.289399 0.173934 0.505257
295 1 0.294766 0.185004 0.503826
508 1 0.304451 0.169782 0.50361
222 1 0.309183 0.184236 0.503334
271 1 0.316851 0.171683 0.501974
299 1 0.322471 0.183648 0.501787
3103 1 0.495975 0.189286 0.500826
600 1 0.000293856 0.212066 0.501856
3635 1 0.0162325 0.199582 0.500158
745 1 0.028153 0.213057 0.50083
548 1 0.0656054 0.2014 0.50003
746 1 0.0763561 0.211373 0.501335
685 1 0.0780314 0.195572 0.501141
695 1 0.087042 0.203929 0.501094
542 1 0.111841 0.194541 0.502665
561 1 0.0991863 0.19825 0.502964
1133 1 0.110987 0.208902 0.503474
867 1 0.139625 0.197053 0.502223
611 1 0.126754 0.208121 0.502981
843 1 0.127311 0.195566 0.502858
829 1 0.139935 0.210944 0.502539
487 1 0.163905 0.190699 0.501211
704 1 0.152204 0.191316 0.502751
606 1 0.150906 0.204449 0.502079
797 1 0.164699 0.204027 0.501448
981 1 0.175352 0.194004 0.502412
786 1 0.177501 0.207074 0.502231
698 1 0.187568 0.197897 0.501311
635 1 0.192446 0.209929 0.502648
485 1 0.201323 0.195032 0.501426
765 1 0.206106 0.210896 0.503163
1061 1 0.213519 0.19923 0.504358
927 1 0.225826 0.190707 0.503354
847 1 0.217933 0.212724 0.503651
716 1 0.23501 0.196431 0.5046
989 1 0.229487 0.207547 0.504749
713 1 0.250308 0.199702 0.50446
517 1 0.259966 0.19217 0.504276
590 1 0.244154 0.210152 0.503305
514 1 0.264244 0.205663 0.505435
576 1 0.276196 0.201898 0.504465
798 1 0.28341 0.191105 0.505766
719 1 0.291585 0.210482 0.504353
72 1 0.29325 0.198213 0.5043
864 1 0.305539 0.211305 0.503076
985 1 0.308563 0.197632 0.501359
511 1 0.318249 0.209267 0.501816
228 1 0.323281 0.195247 0.500625
803 1 0.431 0.211341 0.501149
3154 1 0.496507 0.203574 0.500548
388 1 0.000581077 0.224802 0.503229
674 1 0.0125289 0.216058 0.501151
599 1 0.00769052 0.235178 0.50353
815 1 0.0193453 0.225453 0.50292
812 1 0.0313968 0.232882 0.503612
3567 1 0.0379849 0.220871 0.501717
478 1 0.0487361 0.226278 0.502514
1096 1 0.0536111 0.214944 0.501624
691 1 0.0599904 0.232643 0.502774
633 1 0.0661811 0.218473 0.501351
844 1 0.0871752 0.216558 0.502341
964 1 0.0822763 0.227933 0.501561
628 1 0.0716993 0.229258 0.504297
840 1 0.0935662 0.228866 0.50342
488 1 0.0982956 0.214825 0.50315
848 1 0.107662 0.224895 0.503621
770 1 0.121182 0.21988 0.504292
621 1 0.120981 0.233321 0.503783
821 1 0.133624 0.222133 0.503902
697 1 0.145677 0.233365 0.502198
625 1 0.148049 0.21991 0.50253
551 1 0.161218 0.218254 0.501793
912 1 0.169689 0.232685 0.500627
651 1 0.176511 0.220456 0.501351
1198 1 0.181838 0.236302 0.501605
776 1 0.18952 0.22384 0.502795
649 1 0.196227 0.234483 0.501553
647 1 0.20304 0.223957 0.502722
363 1 0.21428 0.225413 0.504782
804 1 0.226203 0.236047 0.506739
860 1 0.227609 0.221152 0.505986
785 1 0.255333 0.217249 0.504367
3509 1 0.239359 0.220328 0.505092
846 1 0.252632 0.228931 0.505252
1064 1 0.241407 0.233454 0.506691
990 1 0.267987 0.219298 0.505042
714 1 0.279624 0.215221 0.503825
994 1 0.264818 0.232885 0.505334
426 1 0.283206 0.228031 0.50532
1129 1 0.295847 0.22214 0.504484
578 1 0.303963 0.232383 0.504947
721 1 0.326402 0.219971 0.502075
1344 1 0.315143 0.222923 0.503181
3293 1 0.317463 0.234651 0.504574
1055 1 0.330894 0.233536 0.503483
582 1 0.374083 0.23704 0.500197
849 1 0.385799 0.232689 0.501198
932 1 0.389556 0.218875 0.500143
935 1 0.399024 0.232752 0.50183
656 1 0.412441 0.233425 0.500044
501 1 0.426809 0.230251 0.500248
1001 1 0.455455 0.236103 0.500693
3510 1 0.468259 0.235413 0.500413
3014 1 0.483561 0.230288 0.50054
748 1 0.00394571 0.246163 0.504531
541 1 0.0204162 0.239045 0.503938
888 1 0.0152338 0.251077 0.505357
3628 1 0.00258091 0.258939 0.505725
325 1 0.042644 0.238316 0.503771
629 1 0.0285829 0.247774 0.50494
827 1 0.041036 0.250095 0.504758
552 1 0.0558491 0.256222 0.504647
609 1 0.0535947 0.243959 0.503735
768 1 0.0669099 0.245354 0.504938
616 1 0.0680346 0.257045 0.504713
699 1 0.0836978 0.255146 0.504045
482 1 0.0805936 0.242429 0.50386
769 1 0.092333 0.24451 0.502986
767 1 0.096328 0.257628 0.504067
620 1 0.104711 0.238523 0.502876
694 1 0.108758 0.251031 0.503285
908 1 0.133189 0.238636 0.504246
771 1 0.121137 0.258855 0.502902
845 1 0.11951 0.245243 0.50363
696 1 0.133055 0.251768 0.50243
632 1 0.157226 0.238675 0.503027
837 1 0.144623 0.249532 0.5023
710 1 0.15726 0.254256 0.503185
916 1 0.169615 0.247941 0.500856
554 1 0.174203 0.259507 0.502724
918 1 0.184377 0.252003 0.501688
982 1 0.209489 0.238626 0.505031
707 1 0.195555 0.248451 0.501807
923 1 0.206058 0.253191 0.501653
917 1 0.220236 0.249942 0.504759
1063 1 0.236398 0.245801 0.504746
913 1 0.232284 0.259676 0.504429
645 1 0.248366 0.245623 0.506453
791 1 0.244035 0.259343 0.506727
984 1 0.259218 0.261738 0.505899
292 1 0.261536 0.248272 0.506145
788 1 0.274207 0.256271 0.505779
428 1 0.27685 0.240058 0.506195
579 1 0.289821 0.239544 0.503454
931 1 0.301594 0.245391 0.504388
500 1 0.287007 0.252976 0.505185
660 1 0.296051 0.258016 0.501857
729 1 0.320658 0.247441 0.502979
1075 1 0.310084 0.255012 0.504527
857 1 0.332926 0.246289 0.501865
1054 1 0.347228 0.239715 0.501515
928 1 0.347015 0.254781 0.503168
1003 1 0.335129 0.261462 0.50255
518 1 0.376446 0.250306 0.503437
1071 1 0.360966 0.252021 0.502672
378 1 0.369501 0.261238 0.50436
3783 1 0.361212 0.238914 0.501981
1070 1 0.387009 0.259651 0.503725
866 1 0.402934 0.258618 0.503375
1149 1 0.391965 0.246944 0.50093
1006 1 0.405919 0.245556 0.501741
3431 1 0.424261 0.244396 0.501592
1134 1 0.415094 0.252254 0.503058
3573 1 0.428 0.257749 0.503629
1213 1 0.435986 0.246501 0.500853
1005 1 0.439559 0.259196 0.502025
1139 1 0.451108 0.247746 0.500706
3105 1 0.491332 0.244407 0.501329
3298 1 0.494568 0.256867 0.500181
3595 1 0.481567 0.260094 0.500927
2970 1 0.477412 0.244904 0.500138
3561 1 0.0162709 0.265713 0.505903
597 1 0.00559509 0.277937 0.507433
3703 1 0.0226264 0.278067 0.507353
464 1 0.0299924 0.26239 0.505986
887 1 0.0435405 0.263001 0.5048
752 1 0.0338242 0.2744 0.506871
890 1 0.0471034 0.273662 0.505096
627 1 0.0596833 0.271735 0.504903
744 1 0.0711091 0.278054 0.505962
747 1 0.0800128 0.267619 0.506084
763 1 0.0924352 0.271411 0.504543
3774 1 0.0830455 0.28185 0.505928
755 1 0.104294 0.266868 0.502382
689 1 0.107609 0.28054 0.504358
965 1 0.115906 0.270505 0.504004
828 1 0.0967902 0.284688 0.504396
702 1 0.13599 0.265689 0.502424
987 1 0.124679 0.27694 0.502037
3636 1 0.134865 0.28202 0.503342
766 1 0.147889 0.263014 0.501589
553 1 0.163775 0.267863 0.502361
962 1 0.14742 0.275668 0.502495
814 1 0.168523 0.279093 0.503608
922 1 0.180489 0.276477 0.502959
657 1 0.188052 0.266184 0.501515
640 1 0.200599 0.266566 0.502458
705 1 0.193758 0.281665 0.504045
778 1 0.208651 0.280479 0.503406
1059 1 0.214744 0.263796 0.502778
906 1 0.22077 0.27431 0.504207
871 1 0.233476 0.273138 0.504938
1050 1 0.237722 0.284431 0.506362
593 1 0.248952 0.275614 0.506278
978 1 0.265625 0.27517 0.505192
1210 1 0.276758 0.268193 0.505066
1207 1 0.282548 0.279502 0.503127
858 1 0.289232 0.26703 0.503948
1336 1 0.296004 0.27645 0.503373
924 1 0.308412 0.267463 0.503331
991 1 0.305917 0.284939 0.502305
1002 1 0.317527 0.278603 0.502061
929 1 0.321156 0.262495 0.503804
868 1 0.330194 0.273428 0.504022
1215 1 0.355856 0.262938 0.505057
1080 1 0.343042 0.270453 0.505162
1137 1 0.340849 0.283794 0.504032
3574 1 0.354243 0.284409 0.505001
801 1 0.371424 0.278528 0.504496
1223 1 0.359212 0.274537 0.505403
1138 1 0.381695 0.270553 0.504523
1145 1 0.389663 0.281926 0.503316
3361 1 0.397495 0.269611 0.502864
722 1 0.416163 0.264936 0.50305
1220 1 0.408391 0.27722 0.504284
301 1 0.422432 0.278267 0.505329
3315 1 0.431877 0.269782 0.501533
3717 1 0.444242 0.273949 0.501455
3571 1 0.43513 0.284232 0.50165
728 1 0.45372 0.264132 0.501714
665 1 0.469173 0.262734 0.500512
3651 1 0.462658 0.273492 0.501889
3586 1 0.474428 0.275008 0.500477
1081 1 0.452437 0.28369 0.501297
3722 1 0.487873 0.271599 0.501456
3089 1 0.480126 0.285689 0.501613
3422 1 0.0185456 0.301178 0.507681
3633 1 0.01074 0.289549 0.507641
758 1 0.00860419 0.308969 0.50999
387 1 0.00102275 0.296595 0.509716
830 1 0.0399751 0.28887 0.506822
739 1 0.0267884 0.291242 0.507271
3355 1 0.0324032 0.305711 0.50742
741 1 0.0458675 0.303459 0.50734
960 1 0.0526529 0.286837 0.506737
807 1 0.0599416 0.302524 0.507755
623 1 0.0645948 0.289722 0.508099
671 1 0.0790034 0.295734 0.506398
680 1 0.0782329 0.308216 0.50708
896 1 0.089503 0.298947 0.506085
3917 1 0.11606 0.288561 0.501987
759 1 0.101631 0.296552 0.504548
820 1 0.112606 0.302066 0.503257
3700 1 0.126552 0.298342 0.502388
787 1 0.138812 0.303388 0.503558
703 1 0.158046 0.286085 0.50299
882 1 0.147444 0.291835 0.503369
899 1 0.15154 0.304441 0.504929
1118 1 0.161554 0.297776 0.503467
772 1 0.173066 0.292702 0.505119
782 1 0.18679 0.29184 0.504315
988 1 0.180227 0.305627 0.503984
1041 1 0.167027 0.308974 0.505509
980 1 0.194756 0.303956 0.504756
910 1 0.203171 0.292948 0.505467
1110 1 0.214192 0.298917 0.505087
850 1 0.222993 0.288093 0.505474
1040 1 0.229636 0.297478 0.507144
841 1 0.222719 0.307902 0.506246
839 1 0.255347 0.287904 0.505664
644 1 0.243621 0.294496 0.506465
968 1 0.254654 0.305577 0.506852
781 1 0.239341 0.306693 0.505416
1116 1 0.27368 0.287432 0.505555
784 1 0.264047 0.295839 0.50431
926 1 0.279709 0.297865 0.505055
709 1 0.268291 0.308205 0.50518
995 1 0.292099 0.302872 0.50466
998 1 0.289895 0.290185 0.504846
856 1 0.302537 0.297591 0.502515
1135 1 0.318487 0.292726 0.501642
1058 1 0.327993 0.286012 0.503141
1204 1 0.327488 0.305584 0.502953
901 1 0.315591 0.305774 0.501921
1140 1 0.337272 0.297408 0.503585
863 1 0.349793 0.297935 0.503612
1067 1 0.365581 0.29158 0.503873
1208 1 0.363934 0.305642 0.503566
3516 1 0.379125 0.290477 0.502923
1146 1 0.379369 0.304363 0.50248
3299 1 0.392021 0.29647 0.503094
3436 1 0.402094 0.288697 0.501447
3575 1 0.401731 0.306404 0.502554
3297 1 0.422955 0.2937 0.503125
3291 1 0.414062 0.3077 0.503853
1348 1 0.410651 0.294757 0.504317
873 1 0.435674 0.297265 0.50355
735 1 0.449889 0.297474 0.502606
661 1 0.465825 0.286966 0.501935
1082 1 0.474219 0.297725 0.500055
1013 1 0.463258 0.298965 0.501725
3234 1 0.494609 0.286564 0.502049
3712 1 0.496948 0.305186 0.500807
1354 1 0.486537 0.298622 0.502257
3608 1 0.00676155 0.324437 0.509837
898 1 0.0206152 0.324648 0.510342
947 1 0.0225362 0.314212 0.50699
681 1 0.0425847 0.317411 0.50726
683 1 0.0329296 0.323213 0.509438
969 1 0.0534047 0.321706 0.509098
3690 1 0.0619928 0.313829 0.507459
615 1 0.0634116 0.329044 0.509525
1170 1 0.0749232 0.32261 0.508209
686 1 0.0911371 0.312836 0.504576
886 1 0.0871718 0.324159 0.507292
904 1 0.10339 0.311474 0.504972
601 1 0.101304 0.326403 0.504244
900 1 0.114222 0.321273 0.504608
836 1 0.122733 0.312141 0.502818
3495 1 0.132099 0.319888 0.505271
952 1 0.142409 0.313956 0.50529
3907 1 0.126051 0.332559 0.504963
3707 1 0.145239 0.329145 0.505865
1090 1 0.154432 0.319669 0.503951
754 1 0.158044 0.330624 0.503633
1165 1 0.169551 0.323492 0.504891
855 1 0.183031 0.31861 0.503473
3634 1 0.184975 0.331827 0.505348
1128 1 0.2092 0.310116 0.504759
773 1 0.198599 0.320506 0.505534
897 1 0.2156 0.321475 0.50479
1113 1 0.232166 0.317873 0.504611
1164 1 0.225566 0.328447 0.506163
1190 1 0.255605 0.319779 0.504537
1292 1 0.243156 0.32023 0.506209
895 1 0.260311 0.333159 0.505001
1052 1 0.240132 0.332691 0.505029
963 1 0.267692 0.323156 0.505326
996 1 0.279708 0.31365 0.504244
1104 1 0.280958 0.328854 0.505595
1032 1 0.292881 0.318762 0.503267
1115 1 0.2949 0.331494 0.503707
1141 1 0.306012 0.315155 0.502888
915 1 0.320431 0.320465 0.501468
1124 1 0.310479 0.328718 0.503728
790 1 0.338119 0.311326 0.50193
861 1 0.336108 0.322627 0.502082
983 1 0.352072 0.326639 0.502528
1130 1 0.351803 0.311394 0.500978
1214 1 0.375986 0.319391 0.5017
993 1 0.363057 0.319084 0.502382
1147 1 0.372887 0.329993 0.503233
1288 1 0.390397 0.315233 0.502413
1212 1 0.387694 0.327639 0.502796
1114 1 0.399507 0.332679 0.501955
940 1 0.403771 0.321008 0.502721
3368 1 0.419035 0.322999 0.501336
3852 1 0.428629 0.310698 0.503464
874 1 0.433147 0.32339 0.500915
999 1 0.441764 0.310617 0.50156
1131 1 0.448283 0.322178 0.500501
1148 1 0.441907 0.333148 0.500009
933 1 0.469772 0.311755 0.500511
1069 1 0.456937 0.313961 0.501974
1294 1 0.46572 0.325653 0.501152
4070 1 0.494669 0.318236 0.500861
938 1 0.498158 0.330046 0.502809
1136 1 0.480187 0.323173 0.502291
1012 1 0.482466 0.31089 0.502108
1017 1 0.014442 0.337609 0.510982
3759 1 0.00784159 0.349127 0.511875
3702 1 0.0190836 0.356539 0.511856
811 1 0.0276513 0.338949 0.510492
3494 1 0.0417626 0.333738 0.510969
532 1 0.0314508 0.349716 0.511175
751 1 0.04334 0.346699 0.510405
810 1 0.0549532 0.35295 0.510459
3817 1 0.0540633 0.337191 0.510434
1088 1 0.0668275 0.343997 0.509055
555 1 0.0751018 0.334436 0.510557
949 1 0.0814373 0.345674 0.508577
878 1 0.0948972 0.349329 0.507567
3708 1 0.092113 0.33589 0.505897
3909 1 0.107268 0.33638 0.505529
3551 1 0.107849 0.350603 0.50762
893 1 0.121798 0.344931 0.507263
3687 1 0.132275 0.352509 0.506503
1386 1 0.138263 0.339081 0.504579
948 1 0.153029 0.341067 0.505623
742 1 0.162606 0.350378 0.503635
1099 1 0.149573 0.353013 0.505715
3625 1 0.170613 0.336477 0.503601
1029 1 0.177202 0.348049 0.504567
1107 1 0.198102 0.334625 0.504201
954 1 0.191284 0.347653 0.505287
889 1 0.213352 0.334495 0.504792
959 1 0.204207 0.345576 0.504572
1240 1 0.209384 0.356292 0.504598
877 1 0.218474 0.348059 0.505536
3637 1 0.228279 0.356191 0.504601
1097 1 0.228775 0.340338 0.504268
824 1 0.239204 0.347828 0.504252
835 1 0.249345 0.341508 0.505724
1392 1 0.259451 0.350244 0.503399
1327 1 0.273276 0.34108 0.5036
1120 1 0.283767 0.347037 0.502778
1184 1 0.272787 0.353854 0.502546
1038 1 0.295807 0.343939 0.503624
903 1 0.297794 0.35426 0.501097
831 1 0.310463 0.340833 0.50187
1480 1 0.325138 0.333722 0.502714
967 1 0.314319 0.353499 0.501994
1065 1 0.326095 0.347105 0.501919
1185 1 0.340802 0.335521 0.502131
842 1 0.350867 0.343604 0.50268
720 1 0.339149 0.352583 0.501899
1211 1 0.365065 0.351737 0.502529
1122 1 0.361937 0.335778 0.502411
1202 1 0.376837 0.342087 0.503903
1351 1 0.388848 0.339998 0.501117
1361 1 0.401862 0.344607 0.500422
1068 1 0.390191 0.353622 0.500454
972 1 0.414995 0.335946 0.500872
1079 1 0.411864 0.350813 0.501514
1143 1 0.424096 0.349061 0.500259
1281 1 0.429884 0.337718 0.500246
1144 1 0.43925 0.347848 0.500085
1295 1 0.453353 0.34721 0.502346
658 1 0.455897 0.333775 0.501972
1217 1 0.475345 0.334482 0.50334
1010 1 0.467143 0.346021 0.502778
1066 1 0.48719 0.334942 0.501912
3854 1 0.479015 0.353237 0.501009
4131 1 0.489363 0.346889 0.502814
740 1 0.00325364 0.360559 0.510006
3557 1 0.0144674 0.367927 0.508591
3562 1 0.00213753 0.372781 0.508052
3485 1 0.0419317 0.358983 0.510312
3837 1 0.0291921 0.363967 0.509627
808 1 0.0419536 0.373403 0.509425
3709 1 0.0259665 0.3794 0.508839
3846 1 0.066345 0.359026 0.510961
3490 1 0.0524962 0.367271 0.511453
3631 1 0.0634824 0.374133 0.510762
1092 1 0.0836361 0.359058 0.509973
3836 1 0.0751095 0.368891 0.510874
3911 1 0.0930869 0.36659 0.510378
3552 1 0.0902469 0.379787 0.510607
3767 1 0.104729 0.366109 0.509335
3906 1 0.103086 0.380857 0.510296
3698 1 0.115584 0.37569 0.508836
1033 1 0.116276 0.360409 0.50848
1022 1 0.127664 0.367191 0.506469
3620 1 0.139574 0.363016 0.5059
3706 1 0.127582 0.380059 0.507469
1016 1 0.141713 0.378513 0.506644
3910 1 0.165173 0.362991 0.505479
3916 1 0.151353 0.365267 0.505826
891 1 0.166606 0.377244 0.505973
3843 1 0.184752 0.362067 0.504248
738 1 0.179289 0.380879 0.506947
946 1 0.198454 0.361677 0.50422
1319 1 0.191933 0.376052 0.505706
825 1 0.209568 0.368782 0.505109
762 1 0.222748 0.367011 0.504321
3920 1 0.229956 0.378568 0.503693
966 1 0.237515 0.366308 0.50402
1037 1 0.250258 0.358636 0.50462
1030 1 0.244938 0.375889 0.504394
1326 1 0.260425 0.367631 0.502305
826 1 0.256277 0.378672 0.5028
1049 1 0.27518 0.369423 0.502808
961 1 0.286094 0.359659 0.503256
1252 1 0.290022 0.371355 0.500766
1271 1 0.304509 0.379721 0.501427
977 1 0.302673 0.366624 0.500278
979 1 0.329164 0.362336 0.503462
1045 1 0.315852 0.367801 0.50109
838 1 0.331194 0.376047 0.502169
986 1 0.318871 0.380511 0.500708
1250 1 0.343214 0.36777 0.502632
911 1 0.352192 0.357172 0.502568
1205 1 0.344198 0.379866 0.503495
1150 1 0.357522 0.368712 0.502891
936 1 0.370074 0.370521 0.501088
3923 1 0.375761 0.357263 0.50179
1289 1 0.401413 0.359278 0.500504
1350 1 0.383502 0.366745 0.500592
1428 1 0.396299 0.371077 0.500162
1639 1 0.415266 0.362152 0.5003
1008 1 0.449876 0.372576 0.50096
852 1 0.431391 0.360289 0.500546
875 1 0.445601 0.358468 0.500463
1555 1 0.459408 0.361133 0.502072
3782 1 0.471568 0.362399 0.501934
1076 1 0.474699 0.377646 0.501271
4137 1 0.461784 0.377768 0.50195
1152 1 0.499015 0.371868 0.503778
3787 1 0.493577 0.359289 0.503024
1009 1 0.484062 0.369467 0.503467
3413 1 0.0131422 0.381979 0.50977
3483 1 0.00560201 0.392413 0.507479
4052 1 0.0146378 0.401579 0.507223
3624 1 0.0238732 0.392116 0.508901
885 1 0.0389546 0.385564 0.50999
4038 1 0.0383833 0.399362 0.508186
3820 1 0.0533541 0.382252 0.51057
3616 1 0.0505554 0.394463 0.509538
3822 1 0.0641636 0.390492 0.510923
3699 1 0.0663795 0.404552 0.51154
737 1 0.0758771 0.382937 0.510622
3830 1 0.0782459 0.394821 0.511068
3968 1 0.0909456 0.393969 0.509749
3772 1 0.103469 0.392978 0.509363
3623 1 0.113669 0.400677 0.508898
813 1 0.119727 0.39013 0.509295
3919 1 0.132671 0.391245 0.509791
757 1 0.12934 0.403592 0.508945
3842 1 0.15417 0.381665 0.505625
3773 1 0.16641 0.39119 0.506867
3770 1 0.147953 0.392494 0.506901
1162 1 0.14653 0.404148 0.509674
3849 1 0.18129 0.394786 0.506933
3695 1 0.19407 0.392122 0.508132
631 1 0.203229 0.381289 0.505687
3839 1 0.194471 0.404233 0.508597
4049 1 0.208478 0.393924 0.506532
1023 1 0.216094 0.381768 0.505011
1026 1 0.223947 0.39282 0.503934
1245 1 0.236873 0.390265 0.503479
1021 1 0.249365 0.392483 0.503246
955 1 0.262521 0.393617 0.503006
971 1 0.269925 0.382571 0.503037
1105 1 0.274637 0.39565 0.502791
1418 1 0.282987 0.382371 0.503068
774 1 0.287188 0.396908 0.502683
1175 1 0.300409 0.39972 0.503017
1256 1 0.295267 0.387505 0.501931
1046 1 0.311162 0.39113 0.501261
1047 1 0.320927 0.404322 0.502527
1186 1 0.330669 0.39159 0.501249
1057 1 0.346776 0.394089 0.501314
1125 1 0.356811 0.381346 0.50214
1111 1 0.373825 0.381708 0.501067
851 1 0.362753 0.394991 0.500839
1051 1 0.375618 0.394821 0.501156
1277 1 0.385584 0.381946 0.500457
945 1 0.425276 0.403344 0.501613
1279 1 0.440085 0.385161 0.501257
1282 1 0.441203 0.398288 0.500803
4005 1 0.458527 0.39678 0.501393
3527 1 0.470603 0.390507 0.503174
3577 1 0.497043 0.38392 0.503362
4557 1 0.485433 0.38379 0.504027
4066 1 0.483026 0.396373 0.502898
4274 1 0.498345 0.403766 0.502743
3696 1 0.00510287 0.413323 0.505948
3824 1 0.00587247 0.426781 0.506393
3686 1 0.0173645 0.416599 0.508485
3640 1 0.0276185 0.406406 0.508011
3622 1 0.039347 0.413597 0.5073
3705 1 0.0296157 0.423941 0.508822
4181 1 0.0474702 0.422927 0.509796
3632 1 0.0533893 0.409536 0.509085
3969 1 0.0639476 0.417831 0.510674
876 1 0.0803265 0.409095 0.508749
3838 1 0.0772072 0.421916 0.509207
3621 1 0.0940431 0.417944 0.510016
3912 1 0.0983593 0.404943 0.509161
3983 1 0.107169 0.413748 0.510324
4103 1 0.106152 0.425782 0.509187
1158 1 0.119786 0.412701 0.509498
1794 1 0.130254 0.419915 0.509174
884 1 0.163773 0.406093 0.509337
3915 1 0.142992 0.41747 0.511317
1093 1 0.157316 0.418689 0.51021
1020 1 0.171026 0.419456 0.509811
3769 1 0.181084 0.40866 0.508235
1511 1 0.18598 0.420756 0.509893
1232 1 0.198776 0.416235 0.508086
1234 1 0.209616 0.406848 0.507285
1321 1 0.211973 0.420831 0.505838
1089 1 0.234486 0.411156 0.503985
1441 1 0.221482 0.405739 0.503526
1199 1 0.224105 0.418581 0.503491
3777 1 0.242718 0.423219 0.504206
1106 1 0.247925 0.405681 0.504215
970 1 0.253671 0.415619 0.50217
1043 1 0.259819 0.427699 0.503956
1156 1 0.266797 0.407591 0.501674
1173 1 0.270051 0.420004 0.50248
1255 1 0.28237 0.423758 0.502946
1102 1 0.281131 0.409147 0.502204
1174 1 0.294435 0.424604 0.502477
1177 1 0.294653 0.411835 0.503409
1257 1 0.308988 0.410249 0.501904
1182 1 0.308513 0.42793 0.501804
1121 1 0.318485 0.418361 0.50258
1119 1 0.351279 0.419425 0.500902
1126 1 0.336956 0.406475 0.500971
833 1 0.352804 0.406523 0.501252
907 1 0.334437 0.421371 0.502249
1423 1 0.379503 0.409909 0.50064
3855 1 0.422781 0.418128 0.50046
4061 1 0.434304 0.426076 0.501075
4343 1 0.435799 0.413265 0.500186
1850 1 0.45067 0.409461 0.500494
4062 1 0.446813 0.42392 0.501295
1558 1 0.470122 0.406235 0.502202
1569 1 0.475979 0.418179 0.502859
1505 1 0.462753 0.417942 0.501388
2135 1 0.484357 0.409729 0.502621
3922 1 0.488236 0.421964 0.502898
4389 1 0.0155109 0.449075 0.507626
3971 1 0.00695019 0.439582 0.507685
3556 1 0.0172744 0.43068 0.507972
3694 1 0.0384968 0.433365 0.508379
3763 1 0.0265464 0.440812 0.507448
3826 1 0.0468598 0.444248 0.5087
3848 1 0.060599 0.44267 0.50928
4265 1 0.0583846 0.429986 0.510468
4046 1 0.0875297 0.429751 0.509544
4407 1 0.0723123 0.436106 0.509303
3987 1 0.0876232 0.442235 0.5086
4309 1 0.0750513 0.450976 0.508628
4056 1 0.100316 0.435264 0.509209
3982 1 0.112162 0.442462 0.508736
3778 1 0.117965 0.429393 0.508461
1226 1 0.100312 0.450598 0.508376
3779 1 0.140374 0.45047 0.510398
1516 1 0.123366 0.448303 0.509458
3554 1 0.129722 0.437824 0.510572
4263 1 0.142715 0.433749 0.509352
1018 1 0.160335 0.452202 0.508421
1171 1 0.155119 0.432325 0.508938
1160 1 0.152079 0.443672 0.509621
1039 1 0.168307 0.439105 0.50877
1301 1 0.175893 0.449929 0.507097
1325 1 0.17797 0.43152 0.509978
4060 1 0.188725 0.445496 0.506577
1166 1 0.200894 0.445489 0.506305
1442 1 0.19283 0.432348 0.507908
1318 1 0.204581 0.432789 0.506211
1387 1 0.234125 0.431006 0.50394
1183 1 0.220758 0.432961 0.50469
1305 1 0.218769 0.445887 0.504424
1316 1 0.234274 0.443935 0.50319
1465 1 0.247428 0.449036 0.500709
905 1 0.246335 0.435154 0.501064
976 1 0.272861 0.433745 0.501691
1109 1 0.280678 0.443276 0.500042
777 1 0.292011 0.451567 0.501475
1320 1 0.305493 0.451481 0.501278
1329 1 0.302291 0.438283 0.500841
1100 1 0.289531 0.436259 0.503123
1209 1 0.323823 0.431928 0.501638
1060 1 0.313949 0.441579 0.502455
1189 1 0.32723 0.446143 0.50103
1053 1 0.338386 0.443055 0.501054
997 1 0.376557 0.434292 0.500314
1359 1 0.44991 0.450222 0.500951
1151 1 0.429283 0.444753 0.500169
3856 1 0.451657 0.436191 0.501687
3720 1 0.439678 0.439331 0.500387
1431 1 0.463408 0.449007 0.502363
1629 1 0.464223 0.432828 0.502411
1712 1 0.475691 0.442878 0.502346
4141 1 0.478657 0.43143 0.502667
4072 1 0.498643 0.445644 0.504694
1225 1 0.490821 0.433836 0.503776
1357 1 0.486588 0.451964 0.502851
3605 1 0.00896566 0.459753 0.504762
3833 1 0.0222408 0.463237 0.507877
4108 1 0.0137296 0.474706 0.503719
4222 1 0.0465272 0.467765 0.505688
3610 1 0.0336001 0.453106 0.507087
3750 1 0.0336919 0.468959 0.505746
4406 1 0.0641738 0.458892 0.508365
3841 1 0.0598302 0.471302 0.50624
4179 1 0.0480266 0.456758 0.508284
3755 1 0.0901795 0.46761 0.506895
3771 1 0.0748328 0.46754 0.50734
4045 1 0.0878732 0.455209 0.507958
1157 1 0.117348 0.47368 0.507312
4119 1 0.114441 0.455563 0.509723
4111 1 0.103828 0.466324 0.50721
1459 1 0.134755 0.47616 0.507484
809 1 0.139786 0.463214 0.508317
894 1 0.124777 0.460283 0.507993
1024 1 0.151737 0.462155 0.508054
1449 1 0.16155 0.468567 0.508493
1112 1 0.187003 0.457998 0.50788
1370 1 0.172509 0.461319 0.508796
1172 1 0.182596 0.472302 0.506152
1373 1 0.211519 0.457185 0.504636
1448 1 0.198404 0.460102 0.506372
4057 1 0.195694 0.474501 0.506009
1169 1 0.228843 0.469701 0.501869
1249 1 0.230832 0.456572 0.501214
957 1 0.215084 0.468074 0.502217
1025 1 0.257154 0.456479 0.500055
1246 1 0.283675 0.469598 0.501356
1203 1 0.30845 0.467999 0.500085
1278 1 0.296875 0.463979 0.500115
1127 1 0.316967 0.457743 0.500306
1426 1 0.330082 0.457934 0.500494
1353 1 0.437242 0.453638 0.500008
4064 1 0.447394 0.462547 0.500451
1411 1 0.461399 0.463358 0.500565
1567 1 0.474786 0.459794 0.502718
1347 1 0.497914 0.474358 0.500732
1705 1 0.496763 0.459565 0.504258
4552 1 0.486609 0.46816 0.501597
4462 1 0.0154241 0.492047 0.505081
4663 1 0.00395424 0.484278 0.503142
4192 1 0.0436274 0.497335 0.504048
4182 1 0.0392575 0.484858 0.503625
4337 1 0.0298069 0.496087 0.50272
4195 1 0.0256646 0.480282 0.505175
3985 1 0.0628841 0.490234 0.503962
3761 1 0.0704408 0.480345 0.506338
4104 1 0.0526052 0.480079 0.505003
3482 1 0.0920833 0.48561 0.505854
3710 1 0.0822989 0.479235 0.506143
4125 1 0.0779657 0.494914 0.503794
3908 1 0.103561 0.479502 0.506483
4058 1 0.109398 0.489909 0.504399
4127 1 0.0964135 0.497836 0.504034
1299 1 0.141513 0.486975 0.506032
3990 1 0.123416 0.486674 0.505254
3986 1 0.131003 0.497615 0.503911
1235 1 0.160449 0.483837 0.50651
4109 1 0.154847 0.495123 0.5052
1242 1 0.150392 0.477376 0.50699
1599 1 0.186163 0.498081 0.504425
3847 1 0.185399 0.485985 0.504684
1237 1 0.171575 0.476601 0.508386
1036 1 0.174614 0.48979 0.506882
4047 1 0.211416 0.492176 0.502322
1330 1 0.197942 0.493697 0.504209
1233 1 0.206794 0.479379 0.503635
756 1 0.221743 0.48185 0.501328
4558 1 0.496096 0.48845 0.500009
1546 1 0.23346 0.516023 0.497504
902 1 0.220018 0.512682 0.498981
1098 1 0.25852 0.502853 0.496654
1253 1 0.239443 0.504575 0.498111
1263 1 0.250278 0.51191 0.496521
1117 1 0.265748 0.513101 0.49611
1388 1 0.27842 0.507833 0.494901
1345 1 0.279051 0.520274 0.494901
1251 1 0.293406 0.517105 0.494149
1031 1 0.305346 0.506779 0.493829
1194 1 0.291126 0.503348 0.495203
1028 1 0.31572 0.517863 0.491635
1178 1 0.320423 0.506506 0.493569
1417 1 0.33161 0.513469 0.492949
1477 1 0.342998 0.517241 0.494179
1433 1 0.337517 0.501134 0.495282
1248 1 0.350633 0.507921 0.495417
1564 1 0.356153 0.519767 0.494899
1265 1 0.369258 0.521751 0.494424
1479 1 0.368959 0.508113 0.495289
1496 1 0.383612 0.517711 0.495506
1342 1 0.399721 0.520299 0.496281
1622 1 0.381972 0.50336 0.49598
1338 1 0.398127 0.50654 0.495628
1553 1 0.410186 0.515623 0.495534
4625 1 0.412549 0.502576 0.49698
1987 1 0.421431 0.515313 0.497393
1406 1 0.427406 0.50174 0.497511
1785 1 0.435648 0.514243 0.497244
4629 1 0.448495 0.513172 0.497709
1559 1 0.461921 0.509741 0.49745
4411 1 0.474966 0.505665 0.498672
1415 1 0.46973 0.519543 0.496169
1708 1 0.497152 0.503926 0.499474
2184 1 0.485603 0.511233 0.49851
4315 1 0.0137331 0.542183 0.498478
3762 1 0.00861654 0.528908 0.499431
3904 1 0.0214932 0.529298 0.49919
4114 1 0.0553555 0.543587 0.499419
4340 1 0.089141 0.542454 0.49883
4268 1 0.103122 0.539961 0.499772
1297 1 0.135062 0.546996 0.497977
1656 1 0.120995 0.541725 0.497281
1091 1 0.130511 0.532777 0.499411
1524 1 0.157302 0.537145 0.499265
1372 1 0.144057 0.53841 0.499785
1229 1 0.182916 0.544224 0.49679
1383 1 0.183182 0.530839 0.499574
1300 1 0.170146 0.533527 0.498615
1258 1 0.195909 0.525845 0.49932
1123 1 0.211091 0.533336 0.497963
819 1 0.200095 0.538982 0.497833
1402 1 0.223182 0.527014 0.498269
1274 1 0.2343 0.536558 0.497561
1544 1 0.219808 0.544002 0.497588
1331 1 0.244015 0.524691 0.496127
1241 1 0.259185 0.537745 0.495538
1323 1 0.247451 0.538519 0.495496
1394 1 0.260649 0.524504 0.495094
1400 1 0.274186 0.533087 0.494163
1267 1 0.269204 0.546931 0.494153
1486 1 0.286046 0.543446 0.494368
1181 1 0.303068 0.525553 0.493171
1244 1 0.288795 0.530663 0.493706
1536 1 0.299259 0.541365 0.494504
1548 1 0.326457 0.528141 0.493284
1275 1 0.311225 0.536163 0.494748
1269 1 0.32597 0.542031 0.49322
1352 1 0.353901 0.53431 0.494398
1549 1 0.339995 0.529333 0.494131
1709 1 0.339026 0.544523 0.493702
1341 1 0.373214 0.534012 0.494626
1784 1 0.365214 0.544895 0.49374
1851 1 0.384718 0.546034 0.495716
1216 1 0.385429 0.533256 0.49607
1607 1 0.398723 0.531666 0.49627
1635 1 0.397108 0.546343 0.497422
1493 1 0.417468 0.528915 0.496371
1550 1 0.409604 0.537818 0.498035
1340 1 0.421797 0.541557 0.496478
1192 1 0.431487 0.526864 0.497357
4556 1 0.445514 0.529287 0.498676
1995 1 0.446708 0.543172 0.499058
1854 1 0.433497 0.540629 0.497521
1421 1 0.456244 0.523904 0.496863
4833 1 0.45929 0.537105 0.498654
4907 1 0.472341 0.533316 0.499651
1484 1 0.484281 0.539544 0.497264
1640 1 0.486118 0.523826 0.496546
1783 1 0.496497 0.532714 0.496984
1919 1 0.495002 0.545442 0.498304
4687 1 0.000460935 0.566829 0.495911
4247 1 0.0206288 0.564617 0.497767
4326 1 0.0106345 0.554202 0.49691
4306 1 0.0345896 0.566516 0.498575
4757 1 0.0261212 0.554011 0.49936
4330 1 0.0402161 0.553858 0.498684
4335 1 0.052523 0.557883 0.497162
4540 1 0.0649871 0.552637 0.498321
1790 1 0.0615906 0.568767 0.497538
3973 1 0.0484274 0.570612 0.496502
4187 1 0.0728915 0.563453 0.497184
4186 1 0.0778242 0.550274 0.497941
1437 1 0.0860525 0.560406 0.498081
1594 1 0.0990743 0.553488 0.497707
1510 1 0.109597 0.567461 0.496801
1446 1 0.112485 0.553447 0.49751
4196 1 0.0968766 0.57085 0.496422
1313 1 0.135908 0.56418 0.496317
1302 1 0.125673 0.555898 0.496986
1308 1 0.123611 0.56852 0.495926
1796 1 0.157896 0.551641 0.496768
1382 1 0.16345 0.562464 0.495133
1528 1 0.148936 0.567392 0.494294
1243 1 0.146151 0.554237 0.497751
1227 1 0.169503 0.550254 0.497286
1391 1 0.179526 0.558041 0.494349
1314 1 0.172678 0.571417 0.493122
1247 1 0.190619 0.565631 0.494944
1168 1 0.206045 0.54973 0.496154
1035 1 0.192904 0.551775 0.49577
953 1 0.203083 0.561399 0.493939
1470 1 0.213865 0.569308 0.495489
1254 1 0.232645 0.549706 0.49596
1478 1 0.220724 0.556904 0.495434
1048 1 0.234596 0.562637 0.495046
1614 1 0.244411 0.550654 0.494926
1179 1 0.251082 0.564986 0.494869
1481 1 0.258131 0.552901 0.49505
1310 1 0.267222 0.564369 0.494629
1416 1 0.27725 0.570723 0.492977
1268 1 0.277591 0.558704 0.494231
1485 1 0.288898 0.556101 0.494345
1545 1 0.290716 0.569731 0.49386
1747 1 0.303689 0.561924 0.494078
1628 1 0.313214 0.549581 0.495195
1530 1 0.324332 0.556447 0.493831
1322 1 0.326988 0.569331 0.494635
1755 1 0.337496 0.561706 0.492579
1200 1 0.351449 0.549978 0.493639
4623 1 0.350754 0.568205 0.492952
1556 1 0.361548 0.560273 0.491773
1324 1 0.374806 0.55718 0.492294
1630 1 0.368144 0.571378 0.492435
1334 1 0.387679 0.558861 0.495381
1487 1 0.399767 0.563957 0.496466
1763 1 0.40899 0.551132 0.497204
1849 1 0.415229 0.562016 0.49791
1616 1 0.425634 0.553841 0.496793
1287 1 0.426999 0.569145 0.496674
1502 1 0.438227 0.552413 0.498376
1571 1 0.44011 0.563197 0.496641
1923 1 0.452938 0.561773 0.496628
1498 1 0.460914 0.570395 0.497078
1925 1 0.459271 0.551366 0.498491
1845 1 0.47245 0.563424 0.498517
1989 1 0.472773 0.548687 0.496735
1500 1 0.484289 0.555465 0.498313
1778 1 0.488946 0.569565 0.498435
4847 1 0.499496 0.557938 0.497469
4535 1 0.0100864 0.576614 0.497395
1576 1 0.0152172 0.587569 0.496729
4459 1 0.0251542 0.576975 0.497566
1228 1 0.0285235 0.589956 0.496311
4334 1 0.0389363 0.580764 0.497196
1860 1 0.0413384 0.594647 0.495481
1717 1 0.0622802 0.58181 0.496703
4043 1 0.0529117 0.588132 0.495529
1579 1 0.0726567 0.575587 0.49837
4129 1 0.0855014 0.576049 0.496813
4193 1 0.080066 0.58722 0.495352
1312 1 0.09903 0.584313 0.493287
4339 1 0.116301 0.580064 0.4933
4059 1 0.112434 0.59227 0.493542
1872 1 0.128566 0.581631 0.49324
1296 1 0.141694 0.577135 0.493439
1374 1 0.136886 0.591647 0.491087
1161 1 0.159247 0.575286 0.493563
1167 1 0.152176 0.584158 0.491985
1371 1 0.171118 0.583974 0.49041
1407 1 0.182333 0.593771 0.490785
1304 1 0.184564 0.576605 0.491539
1399 1 0.201533 0.578641 0.493446
1094 1 0.191279 0.586481 0.491032
1720 1 0.213157 0.583326 0.494409
1776 1 0.203567 0.59344 0.493765
1427 1 0.226689 0.573938 0.495443
1315 1 0.224809 0.588724 0.493021
1401 1 0.234642 0.584132 0.495271
1542 1 0.258858 0.575302 0.49413
1384 1 0.241014 0.573521 0.49385
1239 1 0.250042 0.58857 0.493453
1471 1 0.270273 0.58215 0.494817
1736 1 0.277708 0.592656 0.493133
1701 1 0.289585 0.583032 0.492864
1617 1 0.30039 0.577936 0.494867
1541 1 0.313016 0.588783 0.494923
1409 1 0.31346 0.573406 0.495599
1492 1 0.326707 0.586161 0.49397
1562 1 0.340276 0.579114 0.493598
1540 1 0.341998 0.593991 0.492545
1188 1 0.354906 0.591748 0.492838
1398 1 0.376428 0.584714 0.493747
1624 1 0.358045 0.578754 0.492747
1557 1 0.368251 0.593322 0.494098
1777 1 0.384997 0.573473 0.494758
1841 1 0.389602 0.590324 0.495211
1191 1 0.397058 0.580968 0.496349
1844 1 0.422827 0.582318 0.494579
1780 1 0.409666 0.577686 0.496115
1834 1 0.414709 0.591775 0.496195
1695 1 0.430661 0.594727 0.49593
1855 1 0.434939 0.579585 0.495571
1473 1 0.441613 0.591161 0.496007
1476 1 0.447824 0.573554 0.496243
1853 1 0.456924 0.584076 0.496107
1990 1 0.469871 0.580031 0.496718
1405 1 0.481924 0.578816 0.497064
4835 1 0.479666 0.592457 0.496603
1924 1 0.494989 0.580738 0.496913
2060 1 0.492577 0.595175 0.495979
4682 1 0.0111843 0.61389 0.498217
3975 1 0.0203368 0.600514 0.497609
4479 1 0.00852944 0.600669 0.495723
4477 1 0.0347227 0.606185 0.496793
1869 1 0.0239003 0.617066 0.497177
1507 1 0.0500525 0.608884 0.494696
4126 1 0.0593926 0.600203 0.495226
4262 1 0.0696596 0.611947 0.495219
4044 1 0.0899032 0.596646 0.493978
4197 1 0.0730691 0.597209 0.495573
4756 1 0.0826798 0.608975 0.493244
1231 1 0.101663 0.599401 0.491747
1721 1 0.0960588 0.611586 0.493486
1734 1 0.111595 0.611056 0.492512
1726 1 0.123143 0.610889 0.490147
1535 1 0.123248 0.59745 0.491291
1531 1 0.13448 0.604183 0.490602
1436 1 0.13643 0.618445 0.491502
3850 1 0.161818 0.595265 0.4903
1438 1 0.147739 0.597148 0.492152
1159 1 0.145912 0.608934 0.488697
1650 1 0.158525 0.609535 0.4911
1375 1 0.171713 0.601345 0.489522
1027 1 0.188881 0.614608 0.491765
1603 1 0.173588 0.615454 0.488941
1588 1 0.193106 0.60237 0.492935
1333 1 0.20491 0.608127 0.492872
1595 1 0.228756 0.600103 0.493947
1596 1 0.223696 0.612795 0.493413
1393 1 0.215432 0.600586 0.493032
1378 1 0.239127 0.610057 0.492916
1467 1 0.242248 0.597219 0.493956
1262 1 0.251883 0.607368 0.494743
1655 1 0.259939 0.596839 0.495487
1403 1 0.2735 0.604019 0.494973
1602 1 0.282078 0.614822 0.495286
1452 1 0.26252 0.615832 0.496024
1454 1 0.299564 0.596385 0.494941
1311 1 0.288227 0.60211 0.495273
1381 1 0.295522 0.613457 0.494652
1463 1 0.309097 0.616272 0.493853
1474 1 0.309731 0.602816 0.494242
1390 1 0.323143 0.601756 0.494621
1534 1 0.320962 0.615106 0.49357
1396 1 0.337159 0.605948 0.494091
1693 1 0.349076 0.608034 0.49296
1608 1 0.336355 0.618959 0.493091
1547 1 0.36195 0.607215 0.493904
1702 1 0.374692 0.608183 0.494756
1193 1 0.402934 0.598425 0.496996
1404 1 0.386128 0.60131 0.49392
1475 1 0.397449 0.608234 0.494653
1466 1 0.387545 0.616605 0.494433
1690 1 0.409944 0.609842 0.496022
1698 1 0.420651 0.603596 0.495104
1684 1 0.42341 0.618003 0.495836
1981 1 0.446676 0.606501 0.49674
1700 1 0.432481 0.608331 0.494648
1837 1 0.469125 0.597584 0.497763
1774 1 0.464076 0.607992 0.497047
1491 1 0.455735 0.595893 0.496424
2062 1 0.474836 0.618712 0.497235
1697 1 0.480317 0.607223 0.496893
4766 1 0.496145 0.609523 0.498024
4258 1 0.0144277 0.629725 0.497424
4050 1 0.0373705 0.619671 0.496294
1723 1 0.0271699 0.635859 0.496592
2143 1 0.0400741 0.640137 0.494482
1727 1 0.0471173 0.628444 0.494553
4122 1 0.0571554 0.619745 0.495572
2150 1 0.0571911 0.636108 0.493367
4611 1 0.0667686 0.626497 0.493446
4755 1 0.0788862 0.61999 0.493694
3984 1 0.0913307 0.625622 0.492401
1577 1 0.079474 0.633824 0.492478
1585 1 0.0949171 0.639034 0.491665
1230 1 0.103998 0.622759 0.490113
1439 1 0.107355 0.634652 0.49037
1580 1 0.122966 0.624984 0.491169
1377 1 0.134582 0.634772 0.49096
4688 1 0.120443 0.639356 0.491384
1519 1 0.159011 0.635677 0.48944
1456 1 0.14842 0.621551 0.490245
1518 1 0.163631 0.622976 0.48988
1512 1 0.146906 0.633904 0.49098
1722 1 0.18763 0.62874 0.490899
1369 1 0.174481 0.629559 0.489832
1798 1 0.213296 0.622039 0.494183
1592 1 0.2012 0.623074 0.492017
1368 1 0.207225 0.637001 0.492162
1812 1 0.194854 0.641962 0.49115
1376 1 0.227874 0.626101 0.493043
1335 1 0.221892 0.63619 0.492631
1742 1 0.234737 0.637328 0.494086
1337 1 0.254688 0.623549 0.495798
1238 1 0.239951 0.622631 0.494467
1397 1 0.247202 0.636323 0.494797
1605 1 0.264112 0.631351 0.495848
1751 1 0.276605 0.627777 0.495184
1460 1 0.273337 0.640979 0.496097
1680 1 0.290135 0.627266 0.495505
1408 1 0.301783 0.628561 0.493603
1457 1 0.299626 0.641835 0.495787
1554 1 0.286482 0.639605 0.496737
1537 1 0.315262 0.629128 0.494765
2029 1 0.331375 0.631808 0.4943
1613 1 0.313263 0.642538 0.493501
1675 1 0.348955 0.621401 0.491954
1317 1 0.343465 0.633527 0.493534
1627 1 0.355416 0.635911 0.49365
1743 1 0.362755 0.622356 0.493887
4555 1 0.375709 0.621256 0.494098
1678 1 0.369034 0.634453 0.493665
1472 1 0.399074 0.622415 0.494498
1691 1 0.3836 0.631277 0.494002
1539 1 0.394951 0.635016 0.495298
1821 1 0.411524 0.623186 0.494994
1590 1 0.422168 0.637113 0.497315
1458 1 0.409267 0.6367 0.496722
4906 1 0.443292 0.619795 0.496662
2110 1 0.432642 0.627602 0.496643
1601 1 0.450326 0.633463 0.496912
1626 1 0.457503 0.622433 0.496637
1912 1 0.467286 0.631752 0.497772
1992 1 0.4814 0.636358 0.497302
1597 1 0.493535 0.633307 0.497127
1918 1 0.486951 0.622612 0.497269
4121 1 0.0174874 0.646525 0.49684
1926 1 0.0108211 0.660766 0.49681
1649 1 0.00399374 0.646364 0.496832
4467 1 0.0226953 0.657643 0.49642
4113 1 0.0348532 0.652392 0.494279
1584 1 0.0462616 0.657363 0.493825
4336 1 0.0378284 0.666606 0.495383
1737 1 0.0701224 0.644023 0.492114
4191 1 0.0504878 0.64587 0.492638
4254 1 0.0612676 0.653336 0.492106
1440 1 0.0552596 0.664782 0.493387
1941 1 0.0850017 0.646161 0.491875
1789 1 0.0747973 0.65574 0.491499
4194 1 0.0927103 0.657691 0.49289
2013 1 0.10495 0.649173 0.491869
1653 1 0.110888 0.66016 0.491325
4048 1 0.122659 0.651601 0.492086
3989 1 0.135256 0.649359 0.492872
1515 1 0.136427 0.663745 0.491296
1730 1 0.147522 0.648836 0.48925
1740 1 0.162557 0.66109 0.489038
1582 1 0.162824 0.647611 0.490294
1654 1 0.151326 0.662721 0.491212
1591 1 0.177919 0.644017 0.490452
1303 1 0.174728 0.658771 0.488657
1532 1 0.188272 0.652643 0.489205
1955 1 0.200692 0.656137 0.49028
1581 1 0.212389 0.660063 0.491378
1657 1 0.214349 0.646668 0.491138
1523 1 0.228667 0.648565 0.4912
1445 1 0.22731 0.6613 0.492604
1461 1 0.258722 0.643991 0.495938
1522 1 0.252817 0.657749 0.494668
1450 1 0.242398 0.64963 0.493381
1525 1 0.239765 0.663997 0.492342
1752 1 0.2616 0.666412 0.494468
1306 1 0.266528 0.653013 0.495083
1956 1 0.278952 0.652723 0.495758
2026 1 0.273447 0.664777 0.494026
1379 1 0.286967 0.666556 0.49659
1618 1 0.3059 0.651564 0.496242
1820 1 0.292076 0.653432 0.496361
1822 1 0.301768 0.664332 0.496939
1681 1 0.325761 0.644474 0.494595
1527 1 0.318942 0.656218 0.496463
1823 1 0.332807 0.655071 0.494383
1464 1 0.342754 0.645636 0.494921
1683 1 0.355277 0.649591 0.494619
1762 1 0.353483 0.66217 0.495465
1852 1 0.372137 0.64592 0.495105
1682 1 0.367312 0.656799 0.495468
1543 1 0.381956 0.663035 0.495961
1685 1 0.385601 0.646172 0.495996
1749 1 0.398774 0.648568 0.495096
1991 1 0.394306 0.662172 0.496553
1620 1 0.406726 0.665461 0.496868
1356 1 0.425718 0.651216 0.497029
1745 1 0.411362 0.650206 0.496265
2246 1 0.420052 0.665424 0.497259
1974 1 0.438279 0.643255 0.496849
2054 1 0.434814 0.660181 0.498822
2064 1 0.445662 0.657606 0.496222
1985 1 0.452704 0.64578 0.495783
1621 1 0.468075 0.644853 0.496482
1765 1 0.460095 0.657183 0.496898
4848 1 0.475099 0.658145 0.497513
1521 1 0.483291 0.64891 0.496659
1906 1 0.492505 0.657398 0.498061
1846 1 0.499748 0.645136 0.498717
1801 1 0.0110567 0.673709 0.496909
4617 1 0.0211255 0.681826 0.496149
2231 1 0.00595872 0.685353 0.497829
1870 1 7.21723e-05 0.672314 0.498056
4754 1 0.0263901 0.669673 0.496288
1874 1 0.0361953 0.678627 0.496969
4619 1 0.0456531 0.689591 0.496464
4680 1 0.0488263 0.674976 0.496146
1857 1 0.0673369 0.669202 0.493804
4408 1 0.0600705 0.67938 0.494015
3980 1 0.0797765 0.668 0.493406
1792 1 0.080192 0.681581 0.493923
1787 1 0.094387 0.684701 0.493217
1517 1 0.0917474 0.671725 0.493544
1729 1 0.103986 0.669325 0.492852
1735 1 0.109659 0.680343 0.492529
1679 1 0.120131 0.689642 0.490541
4200 1 0.128078 0.678317 0.491784
1718 1 0.119544 0.668599 0.491515
1935 1 0.134263 0.689336 0.49053
1800 1 0.145715 0.679732 0.49047
1328 1 0.156699 0.678028 0.487221
1298 1 0.164252 0.689249 0.489321
1538 1 0.184478 0.668507 0.488356
3988 1 0.168193 0.673022 0.48993
1827 1 0.187604 0.680715 0.488574
1811 1 0.177052 0.687951 0.488012
1307 1 0.206491 0.679164 0.489632
1805 1 0.196656 0.670253 0.488761
1589 1 0.198086 0.688918 0.489172
1753 1 0.218141 0.672295 0.491935
1671 1 0.233933 0.674261 0.490113
1884 1 0.229821 0.687004 0.490926
2027 1 0.217004 0.684513 0.490896
1385 1 0.250679 0.672966 0.492938
1750 1 0.24269 0.684655 0.491839
2097 1 0.256751 0.685336 0.491855
1468 1 0.268344 0.678479 0.493152
1739 1 0.277094 0.687351 0.493185
1455 1 0.286488 0.677633 0.493907
1451 1 0.294091 0.688659 0.495969
1756 1 0.302976 0.676699 0.496106
1623 1 0.307674 0.689153 0.496715
1395 1 0.315382 0.667214 0.496884
1963 1 0.328984 0.667191 0.496352
2377 1 0.318696 0.678296 0.497336
1838 1 0.332218 0.68084 0.498735
1529 1 0.342054 0.667991 0.496885
1609 1 0.346202 0.68097 0.498432
1826 1 0.358574 0.672963 0.49907
1552 1 0.371168 0.669601 0.497057
1824 1 0.368489 0.683866 0.499335
1983 1 0.382713 0.678777 0.497306
1767 1 0.396235 0.677353 0.497105
1839 1 0.411308 0.681273 0.497886
1686 1 0.426659 0.676994 0.496673
2056 1 0.439845 0.672591 0.497663
1551 1 0.437558 0.68462 0.498377
1971 1 0.451072 0.682431 0.49864
1842 1 0.465517 0.670165 0.498001
1848 1 0.452713 0.668828 0.497892
2115 1 0.498567 0.668979 0.496555
2043 1 0.484841 0.669814 0.498353
5045 1 0.476197 0.67894 0.499837
2061 1 0.490578 0.682925 0.498042
4405 1 0.00651463 0.69779 0.499594
4184 1 0.0172946 0.693631 0.499104
4394 1 0.0157167 0.712675 0.498523
2492 1 0.0035347 0.71246 0.49828
1795 1 0.0310996 0.692167 0.496288
1864 1 0.0395659 0.704524 0.497071
1813 1 0.0247348 0.704742 0.49981
1651 1 0.0514875 0.703446 0.496771
1867 1 0.0581443 0.692335 0.496498
4260 1 0.0651252 0.70431 0.496098
4130 1 0.0730016 0.692271 0.494488
1871 1 0.0778688 0.704887 0.495042
1802 1 0.0873206 0.696007 0.494676
1882 1 0.0972168 0.704735 0.494917
1876 1 0.103233 0.69236 0.493887
2012 1 0.113186 0.701748 0.492481
1520 1 0.128141 0.700444 0.490263
2306 1 0.122943 0.713835 0.491954
1583 1 0.14083 0.702454 0.490448
1806 1 0.152177 0.69372 0.488974
1669 1 0.160517 0.707147 0.488943
1948 1 0.150286 0.712913 0.490068
1807 1 0.187569 0.69751 0.487902
1885 1 0.173963 0.702418 0.489068
2018 1 0.182204 0.71034 0.487921
1309 1 0.192328 0.709389 0.488527
1453 1 0.207117 0.69767 0.490711
2005 1 0.204248 0.707321 0.487773
4270 1 0.22155 0.696736 0.491669
1593 1 0.236451 0.697998 0.492602
1868 1 0.229309 0.710484 0.491563
1668 1 0.216115 0.708821 0.491357
1808 1 0.244307 0.709186 0.491845
1514 1 0.250894 0.698075 0.492095
1666 1 0.261974 0.709069 0.492188
1830 1 0.264621 0.695331 0.49206
1759 1 0.27556 0.700329 0.492492
1598 1 0.27433 0.713601 0.491982
1893 1 0.28805 0.699624 0.493631
2105 1 0.292578 0.710317 0.493163
1907 1 0.300914 0.699477 0.495622
1887 1 0.314478 0.704194 0.495561
1903 1 0.320165 0.692146 0.49658
2126 1 0.32906 0.702968 0.497367
1612 1 0.353712 0.691737 0.499515
1977 1 0.337759 0.691417 0.496787
1973 1 0.343896 0.704147 0.49838
1760 1 0.362113 0.706346 0.499173
1754 1 0.371927 0.696121 0.498086
1972 1 0.400308 0.691523 0.497135
1687 1 0.386376 0.691304 0.498303
1757 1 0.39788 0.70306 0.49778
1895 1 0.422681 0.690823 0.497118
1975 1 0.412922 0.700731 0.497898
1900 1 0.426776 0.701167 0.499626
2472 1 0.407036 0.712639 0.498753
2395 1 0.440506 0.6982 0.499913
2114 1 0.434524 0.71117 0.498596
1828 1 0.448466 0.70871 0.499832
4915 1 0.480843 0.69338 0.498672
2051 1 0.494582 0.701334 0.498342
4560 1 0.481315 0.707136 0.498882
2004 1 0.0378872 0.726663 0.499012
2015 1 0.0344125 0.714406 0.498475
2218 1 0.0241555 0.722338 0.499005
2488 1 0.0307764 0.735519 0.49959
1866 1 0.0496916 0.729604 0.497705
1873 1 0.0488861 0.715733 0.497724
4472 1 0.0616686 0.718542 0.495666
1586 1 0.062023 0.730279 0.49581
2009 1 0.0867541 0.715962 0.49651
1942 1 0.0752728 0.717878 0.4967
4055 1 0.0837506 0.72914 0.495989
1940 1 0.0947027 0.735778 0.496682
1865 1 0.0963544 0.721276 0.494682
1732 1 0.107103 0.714504 0.494526
1886 1 0.104847 0.729437 0.495332
1676 1 0.11529 0.723711 0.495581
1943 1 0.115158 0.737348 0.495107
1724 1 0.13839 0.715712 0.492287
2583 1 0.130628 0.724565 0.493534
2224 1 0.140859 0.73786 0.492165
2022 1 0.144799 0.726212 0.490468
2165 1 0.158141 0.72393 0.489727
2019 1 0.166037 0.736388 0.490097
1741 1 0.169356 0.716543 0.488358
1746 1 0.176292 0.727844 0.489315
1604 1 0.188436 0.722223 0.487784
2024 1 0.188893 0.735141 0.490481
1766 1 0.20208 0.721809 0.489328
2243 1 0.205564 0.732278 0.490044
1261 1 0.217587 0.722347 0.490022
1738 1 0.223569 0.733176 0.49143
1748 1 0.232424 0.722278 0.491301
1615 1 0.25165 0.72157 0.492041
2449 1 0.242901 0.731888 0.492588
1818 1 0.26378 0.73726 0.494584
1606 1 0.265091 0.724013 0.493129
1670 1 0.278232 0.730536 0.493738
2112 1 0.286505 0.72215 0.494795
2109 1 0.290716 0.734972 0.496397
2239 1 0.298946 0.723647 0.494859
1831 1 0.305754 0.735314 0.495844
1694 1 0.305617 0.714342 0.493584
1961 1 0.323818 0.714788 0.495285
1892 1 0.315648 0.724146 0.495981
2398 1 0.330574 0.731624 0.496255
1533 1 0.3188 0.737961 0.49685
2323 1 0.350711 0.714762 0.498694
1909 1 0.33691 0.720274 0.499205
2180 1 0.36466 0.718584 0.499025
1688 1 0.42259 0.715167 0.499679
2120 1 0.44304 0.720806 0.499726
1769 1 0.472201 0.71812 0.499396
4983 1 0.469787 0.730229 0.499621
4975 1 0.456986 0.720968 0.499245
4776 1 0.488355 0.718424 0.499126
2415 1 0.495453 0.732724 0.49942
4431 1 0.48214 0.733402 0.499682
2213 1 0.0412974 0.745361 0.499407
1939 1 0.0532066 0.741868 0.498546
1719 1 0.0571806 0.754987 0.498447
2078 1 0.0675092 0.749037 0.498669
1744 1 0.0733953 0.738106 0.497809
1949 1 0.0790602 0.755001 0.49746
1652 1 0.08534 0.742384 0.497733
1879 1 0.0939978 0.751115 0.496534
1804 1 0.104859 0.743953 0.496099
1944 1 0.113913 0.754032 0.495751
2010 1 0.102538 0.760263 0.495536
1664 1 0.12924 0.742008 0.493806
2076 1 0.127081 0.753687 0.493944
1662 1 0.140779 0.751483 0.492035
1890 1 0.15337 0.739164 0.491934
2167 1 0.15432 0.750915 0.49006
1880 1 0.167654 0.748724 0.490705
1951 1 0.179114 0.742212 0.490254
2104 1 0.183895 0.754608 0.490086
1817 1 0.208631 0.752906 0.490702
1815 1 0.19912 0.745361 0.491438
1809 1 0.19692 0.760755 0.491878
2166 1 0.213935 0.741357 0.490372
2102 1 0.224476 0.748392 0.490015
1898 1 0.23546 0.742022 0.491488
2311 1 0.232312 0.75901 0.492842
1672 1 0.251938 0.74238 0.494045
1768 1 0.243343 0.75233 0.492636
2040 1 0.256048 0.75945 0.494276
1832 1 0.276941 0.744585 0.496735
2031 1 0.268017 0.754771 0.494427
1600 1 0.284625 0.755957 0.496652
2032 1 0.292807 0.747551 0.495755
1814 1 0.300387 0.757243 0.496359
1689 1 0.309274 0.746558 0.497417
1696 1 0.327576 0.747829 0.497916
2529 1 0.327666 0.760433 0.498999
2318 1 0.315283 0.75982 0.499264
1771 1 0.338569 0.741033 0.499695
1933 1 0.0354884 0.763038 0.499749
2151 1 0.0685245 0.762839 0.498334
1733 1 0.0573357 0.76924 0.499015
1883 1 0.0740149 0.773714 0.498534
1661 1 0.0879966 0.766671 0.495709
2221 1 0.0927089 0.777864 0.497232
1665 1 0.0795008 0.785544 0.498654
2374 1 0.108 0.772338 0.495171
2579 1 0.105874 0.78455 0.496548
5250 1 0.119127 0.77729 0.496925
2228 1 0.119609 0.76671 0.493085
1998 1 0.131256 0.783426 0.491596
2504 1 0.132301 0.766041 0.491617
1725 1 0.140738 0.774424 0.490868
1674 1 0.160325 0.762687 0.491192
2301 1 0.146578 0.763069 0.49192
2145 1 0.164581 0.775341 0.490307
2168 1 0.151964 0.779729 0.490792
1896 1 0.173625 0.763082 0.490033
2160 1 0.176292 0.776253 0.490678
4615 1 0.186847 0.768041 0.492161
2576 1 0.190469 0.779761 0.490323
2014 1 0.205907 0.769211 0.491396
1889 1 0.203327 0.782254 0.491342
2023 1 0.218953 0.762882 0.490996
1950 1 0.222066 0.772896 0.494122
1673 1 0.232196 0.780511 0.494619
1888 1 0.214796 0.784931 0.492456
2456 1 0.239628 0.768399 0.494117
2173 1 0.246164 0.785257 0.495764
2234 1 0.253713 0.772476 0.495819
1957 1 0.2789 0.76702 0.495382
2241 1 0.266735 0.77138 0.494272
1897 1 0.27769 0.785152 0.496551
2236 1 0.264145 0.78332 0.496938
2531 1 0.299906 0.782497 0.496579
1902 1 0.288759 0.774421 0.49518
2659 1 0.296711 0.767561 0.498451
1833 1 0.324345 0.771313 0.499517
2170 1 0.310348 0.775062 0.497623
1677 1 0.322614 0.785283 0.499326
2107 1 0.466505 0.769609 0.499235
2188 1 0.455581 0.77764 0.499999
1997 1 0.0439401 0.801696 0.499813
2080 1 0.0415034 0.789585 0.499614
1803 1 0.0547777 0.793599 0.4987
1859 1 0.0580701 0.808226 0.499048
1799 1 0.0724296 0.798747 0.499202
2355 1 0.0911404 0.7924 0.497765
2153 1 0.0841992 0.805764 0.498471
2419 1 0.101438 0.799856 0.496031
2425 1 0.111914 0.799006 0.491939
2638 1 0.120797 0.787041 0.49361
2007 1 0.129881 0.797905 0.491053
2442 1 0.121687 0.808214 0.492476
1953 1 0.143946 0.790087 0.490923
1952 1 0.149536 0.805085 0.490676
2162 1 0.156656 0.793462 0.489843
2652 1 0.167529 0.787118 0.490838
2101 1 0.180609 0.788794 0.489428
2163 1 0.170263 0.800724 0.490598
2307 1 0.182836 0.805059 0.491087
2242 1 0.193774 0.793231 0.489616
2028 1 0.206705 0.794841 0.491128
2238 1 0.198018 0.807102 0.492071
2255 1 0.210846 0.808898 0.491185
2042 1 0.222099 0.794504 0.492894
2259 1 0.233869 0.793209 0.494295
2103 1 0.234027 0.806647 0.494737
2159 1 0.222867 0.808891 0.493288
2385 1 0.245841 0.800968 0.496662
2533 1 0.255415 0.792465 0.495928
2315 1 0.279753 0.798427 0.498657
1835 1 0.264411 0.800062 0.497949
2435 1 0.289855 0.789696 0.497233
2164 1 0.30128 0.798308 0.499228
2025 1 0.311384 0.789726 0.49768
2357 1 0.082586 0.819423 0.499174
5040 1 0.110311 0.815451 0.494366
1938 1 0.0962817 0.812164 0.496235
1877 1 0.111967 0.828224 0.49449
2418 1 0.097422 0.826702 0.496758
1810 1 0.13304 0.813793 0.490895
2084 1 0.123896 0.823455 0.493014
2011 1 0.139972 0.825712 0.492329
2017 1 0.150609 0.820268 0.491383
1667 1 0.166158 0.827157 0.492078
2220 1 0.162199 0.811028 0.490841
2098 1 0.173649 0.81681 0.491839
1878 1 0.17983 0.828513 0.491697
1875 1 0.187161 0.81805 0.493044
2082 1 0.192334 0.830583 0.492021
2086 1 0.204108 0.819289 0.491637
2081 1 0.217185 0.824397 0.493568
1816 1 0.230214 0.821871 0.495568
1891 1 0.255307 0.810542 0.497984
1901 1 0.241203 0.828737 0.496629
2446 1 0.243957 0.81644 0.495582
2033 1 0.255334 0.825098 0.496601
2523 1 0.281468 0.826083 0.499478
2305 1 0.267365 0.817088 0.496699
2295 1 0.267594 0.832789 0.497546
2308 1 0.277084 0.812239 0.498614
2190 1 0.291552 0.810135 0.498759
2244 1 0.295357 0.82637 0.499703
2039 1 0.355055 0.822041 0.499739
5043 1 0.377741 0.830657 0.499735
2035 1 0.393627 0.825971 0.499684
2545 1 0.449559 0.814544 0.499803
2030 1 0.0878503 0.834298 0.498708
4689 1 0.0933462 0.848074 0.498627
11 1 0.118925 0.839885 0.49648
2497 1 0.104288 0.839098 0.496442
2227 1 0.117002 0.852655 0.497703
2566 1 0.132434 0.833846 0.494422
2574 1 0.132445 0.847341 0.496396
1797 1 0.156079 0.834599 0.491731
2427 1 0.145601 0.840545 0.493735
1934 1 0.154947 0.853059 0.493727
1728 1 0.166642 0.844357 0.49281
2386 1 0.17767 0.840056 0.491515
1959 1 0.180553 0.85315 0.494263
2732 1 0.190126 0.845405 0.492335
2222 1 0.205407 0.835754 0.49365
137 1 0.200712 0.848666 0.493759
2503 1 0.217763 0.837588 0.494651
2083 1 0.214636 0.850828 0.495875
2309 1 0.230329 0.838633 0.495774
2230 1 0.22845 0.85438 0.49381
2044 1 0.253339 0.837178 0.497459
2383 1 0.241666 0.848004 0.496018
2088 1 0.255042 0.853638 0.497361
1965 1 0.267387 0.846822 0.497689
2099 1 0.279908 0.849814 0.498848
2521 1 0.292673 0.851204 0.498277
2232 1 0.286636 0.838356 0.4989
20 1 0.309367 0.834341 0.499898
2516 1 0.311843 0.850649 0.499915
1825 1 0.322957 0.845549 0.49927
4905 1 0.335884 0.846858 0.499369
2174 1 0.347989 0.853186 0.499037
2320 1 0.37125 0.843058 0.498525
2528 1 0.365863 0.855672 0.498509
1915 1 0.395213 0.849287 0.498872
2534 1 0.382053 0.84945 0.497812
1962 1 0.387311 0.837274 0.49908
2196 1 0.42695 0.844704 0.499657
2397 1 0.411389 0.848594 0.498678
2483 1 0.44139 0.854056 0.499276
2340 1 0.429813 0.855925 0.498573
2353 1 0.125216 0.876612 0.499684
2085 1 0.130122 0.86049 0.496827
2568 1 0.136419 0.870816 0.498156
2021 1 0.143448 0.860815 0.494768
1793 1 0.157564 0.864718 0.496453
2509 1 0.1482 0.874246 0.49512
2092 1 0.162753 0.876165 0.49361
2237 1 0.17097 0.862649 0.493975
2381 1 0.1837 0.866119 0.494514
2454 1 0.194598 0.86097 0.494127
2317 1 0.208678 0.859966 0.493772
278 1 0.207443 0.875907 0.493681
2075 1 0.192863 0.877079 0.494322
2424 1 0.22138 0.877979 0.494543
2091 1 0.220317 0.865227 0.494889
2669 1 0.234625 0.873533 0.49468
2093 1 0.24101 0.860949 0.494776
2369 1 0.251657 0.867629 0.495361
2020 1 0.245745 0.879246 0.492496
2464 1 0.265673 0.86224 0.49489
2175 1 0.282306 0.86127 0.496389
1968 1 0.276277 0.875782 0.49665
2453 1 0.291422 0.872339 0.497011
2745 1 0.300867 0.861832 0.49865
4775 1 0.30569 0.876204 0.498571
2522 1 0.325013 0.857496 0.499088
2199 1 0.329199 0.872131 0.498685
2316 1 0.318798 0.879285 0.499048
85 1 0.31428 0.866529 0.49986
2471 1 0.336845 0.862714 0.499091
86 1 0.34978 0.865788 0.498012
2607 1 0.343677 0.877431 0.499083
2334 1 0.370608 0.866328 0.498118
2254 1 0.358381 0.877267 0.497608
2553 1 0.373775 0.880665 0.498417
2679 1 0.386704 0.874082 0.496811
2678 1 0.385229 0.860541 0.499239
2543 1 0.399916 0.86146 0.497984
2401 1 0.40054 0.87533 0.498741
2402 1 0.416004 0.859908 0.498662
2345 1 0.415036 0.875048 0.497148
5006 1 0.428184 0.867909 0.497985
5191 1 0.441665 0.869981 0.499239
52 1 0.0233125 0.892308 0.499731
2436 1 0.0378027 0.889815 0.499817
2158 1 0.115734 0.903201 0.499678
2016 1 0.128025 0.900425 0.498471
2581 1 0.127385 0.887397 0.499203
2439 1 0.137445 0.882485 0.496956
2602 1 0.141846 0.895861 0.498091
2235 1 0.153059 0.88643 0.496508
2089 1 0.156846 0.899196 0.497179
2096 1 0.164598 0.890342 0.494988
2172 1 0.177604 0.881043 0.494108
2431 1 0.169092 0.901549 0.496033
65 1 0.18526 0.890554 0.493044
2416 1 0.180619 0.904081 0.494989
2444 1 0.199479 0.889679 0.493589
217 1 0.193098 0.901737 0.494363
2666 1 0.211721 0.891416 0.494333
2723 1 0.228556 0.888075 0.492976
68 1 0.222328 0.899316 0.492901
2448 1 0.235343 0.897766 0.493055
2380 1 0.249737 0.892665 0.492937
2300 1 0.263071 0.882724 0.495193
1970 1 0.275947 0.889618 0.495719
2382 1 0.265189 0.900229 0.494384
29 1 0.288287 0.88434 0.497748
2458 1 0.299784 0.889527 0.498144
2087 1 0.288464 0.896923 0.496593
2322 1 0.30596 0.902533 0.496518
2384 1 0.314555 0.892796 0.498445
2467 1 0.326889 0.889695 0.499124
284 1 0.332035 0.901096 0.498079
25 1 0.352292 0.887824 0.498964
2747 1 0.339042 0.888625 0.499146
2245 1 0.34614 0.899683 0.498602
1829 1 0.366739 0.890597 0.498712
164 1 0.360129 0.903903 0.497776
1966 1 0.381295 0.893361 0.497934
2404 1 0.404707 0.88648 0.497525
2540 1 0.392553 0.886931 0.499114
2552 1 0.393184 0.900654 0.497895
165 1 0.405406 0.89901 0.498358
1964 1 0.417474 0.888755 0.499392
5258 1 0.419577 0.903285 0.498569
5473 1 0.428957 0.882797 0.497445
2459 1 0.435028 0.895456 0.499293
2628 1 0.043956 0.921311 0.499082
2720 1 0.0601975 0.916042 0.499755
2722 1 0.048397 0.909039 0.499828
2294 1 0.12774 0.91273 0.499543
2489 1 0.139345 0.907314 0.498639
2169 1 0.136975 0.921892 0.49987
2578 1 0.150741 0.910744 0.497911
2739 1 0.149363 0.923142 0.498652
69 1 0.160313 0.919189 0.49578
2736 1 0.171159 0.913428 0.494723
198 1 0.180344 0.921709 0.49335
16 1 0.190866 0.915582 0.494285
2651 1 0.205646 0.907516 0.493085
209 1 0.205192 0.92145 0.493029
147 1 0.233642 0.911888 0.493154
2599 1 0.219067 0.913758 0.492671
2447 1 0.229093 0.922607 0.493082
2365 1 0.245869 0.919303 0.492176
2671 1 0.258391 0.923233 0.49275
2527 1 0.246701 0.905183 0.494019
2327 1 0.25897 0.909926 0.494927
2321 1 0.270555 0.917495 0.494234
2594 1 0.283999 0.916066 0.494202
1881 1 0.276591 0.905192 0.495675
2303 1 0.291875 0.907773 0.496686
2302 1 0.295276 0.924595 0.494373
2314 1 0.304104 0.916271 0.496649
2677 1 0.308275 0.928107 0.495308
2161 1 0.319762 0.905901 0.496797
2378 1 0.318743 0.919007 0.494919
2108 1 0.332568 0.916156 0.497706
2181 1 0.345844 0.912123 0.498928
2744 1 0.344473 0.924181 0.497176
2758 1 0.373511 0.906506 0.497179
2605 1 0.358848 0.919625 0.497292
23 1 0.37362 0.922999 0.497495
2477 1 0.384206 0.91465 0.49786
2748 1 0.386839 0.927932 0.498366
2674 1 0.398504 0.915879 0.499546
2470 1 0.410052 0.912941 0.498279
2344 1 0.421016 0.918982 0.49885
2333 1 0.429914 0.909098 0.498661
2336 1 0.441995 0.912505 0.49969
2257 1 0.434379 0.922196 0.497785
2264 1 0.453098 0.921195 0.499421
2445 1 0.0288546 0.930029 0.499816
57 1 0.041991 0.949938 0.499232
538 1 0.029433 0.941943 0.5
62 1 0.0680609 0.951535 0.49942
2649 1 0.058318 0.939347 0.499977
1958 1 0.130686 0.932314 0.498867
2632 1 0.137269 0.944268 0.498041
54 1 0.143995 0.934465 0.496474
2650 1 0.15971 0.933611 0.495856
63 1 0.150626 0.945624 0.496388
2508 1 0.166781 0.945311 0.495898
2506 1 0.173179 0.933817 0.494841
2575 1 0.180552 0.947766 0.494862
414 1 0.187997 0.931471 0.493778
361 1 0.194436 0.94596 0.494792
78 1 0.20129 0.93292 0.493839
2746 1 0.209957 0.941591 0.493795
18 1 0.215897 0.929473 0.493508
73 1 0.226813 0.937328 0.491642
156 1 0.219158 0.94917 0.494189
2660 1 0.232834 0.94888 0.493595
71 1 0.238889 0.931253 0.492234
2664 1 0.244734 0.945443 0.49051
2520 1 0.251855 0.93495 0.491745
2465 1 0.262769 0.942194 0.492756
2730 1 0.270318 0.933112 0.494998
70 1 0.27922 0.946461 0.493405
2598 1 0.286188 0.932638 0.495234
150 1 0.297465 0.940641 0.493325
2379 1 0.308911 0.944613 0.49303
2225 1 0.319843 0.932419 0.494657
2298 1 0.32857 0.941883 0.495621
2392 1 0.334028 0.928575 0.495834
2253 1 0.343038 0.940246 0.497301
2590 1 0.348156 0.951419 0.496645
2680 1 0.354639 0.931655 0.49712
2681 1 0.334319 0.952193 0.497174
2519 1 0.367603 0.933483 0.497835
24 1 0.360731 0.94459 0.497317
95 1 0.374042 0.952242 0.495184
22 1 0.378765 0.939907 0.496877
2393 1 0.401884 0.929574 0.497692
2608 1 0.391742 0.941568 0.497229
98 1 0.406887 0.942191 0.497518
2759 1 0.414632 0.930626 0.498767
2554 1 0.417783 0.947004 0.498173
2400 1 0.427512 0.934433 0.498092
161 1 0.429076 0.951022 0.497609
2341 1 0.443978 0.93015 0.499291
2331 1 0.44039 0.942244 0.49804
2484 1 0.468164 0.943689 0.499147
2670 1 0.459234 0.933118 0.499333
2613 1 0.45259 0.944302 0.497621
5252 1 0.484255 0.930056 0.499454
2468 1 0.482527 0.943857 0.499389
2889 1 0.494971 0.943406 0.499473
2685 1 0.497834 0.929166 0.499402
2559 1 0.00929718 0.971543 0.497409
204 1 0.00871901 0.957853 0.498212
268 1 0.0210487 0.97382 0.499004
252 1 0.0216536 0.958592 0.497679
346 1 0.0335246 0.960049 0.499936
58 1 0.0635005 0.965484 0.49959
2642 1 0.0760924 0.96275 0.499663
270 1 0.107068 0.960913 0.499492
2370 1 0.108489 0.975954 0.498652
347 1 0.118677 0.966093 0.499645
2596 1 0.12774 0.954282 0.498393
348 1 0.141253 0.959003 0.496176
2663 1 0.132691 0.968861 0.499007
2499 1 0.146783 0.971186 0.497884
272 1 0.158521 0.954861 0.496698
2646 1 0.160521 0.966918 0.497842
2589 1 0.189264 0.958488 0.495644
2603 1 0.172067 0.955702 0.495886
2593 1 0.175268 0.97148 0.494929
2460 1 0.189624 0.973315 0.494245
76 1 0.203798 0.970966 0.494669
2672 1 0.202537 0.956695 0.494879
2707 1 0.222102 0.973612 0.493492
2433 1 0.214566 0.962139 0.494657
2524 1 0.230843 0.962002 0.493127
2600 1 0.243311 0.971441 0.492225
2387 1 0.242221 0.957754 0.491059
80 1 0.255211 0.953379 0.491242
438 1 0.256709 0.966316 0.492607
2609 1 0.269752 0.970888 0.49231
28 1 0.269389 0.954792 0.493477
2537 1 0.285641 0.967489 0.493089
169 1 0.298639 0.969249 0.493309
2668 1 0.28887 0.953038 0.49349
2601 1 0.300852 0.955488 0.493242
214 1 0.321156 0.97537 0.493991
2450 1 0.320555 0.952486 0.495729
2358 1 0.312584 0.96272 0.494451
2741 1 0.327536 0.963245 0.496313
2614 1 0.333954 0.975658 0.495721
2480 1 0.353896 0.969034 0.497245
2738 1 0.342082 0.964066 0.496552
17 1 0.362846 0.959479 0.496518
2530 1 0.380309 0.96331 0.496266
2606 1 0.367887 0.971543 0.496601
305 1 0.393247 0.955312 0.496888
34 1 0.386932 0.975008 0.497547
2338 1 0.403236 0.975557 0.498944
2673 1 0.406862 0.956085 0.498359
2803 1 0.41736 0.96505 0.497712
94 1 0.445185 0.971015 0.498918
2252 1 0.430711 0.967805 0.496765
2548 1 0.440288 0.956214 0.497535
2621 1 0.454621 0.958279 0.498715
2610 1 0.474699 0.971905 0.499168
2538 1 0.466847 0.956899 0.497882
5519 1 0.0088249 0.988664 0.498784
123 1 0.0637696 0.993126 0.499551
282 1 0.0732994 0.981101 0.499435
421 1 0.0855147 0.985992 0.499768
2654 1 0.110614 0.990514 0.499875
276 1 0.0979098 0.989493 0.499546
145 1 0.138738 0.999574 0.498353
274 1 0.128591 0.99043 0.497957
429 1 0.121303 0.978708 0.498116
2157 1 0.139276 0.981166 0.497654
342 1 0.148139 0.991206 0.497838
2636 1 0.163861 0.994555 0.497408
2095 1 0.157245 0.982714 0.497173
357 1 0.186861 0.999291 0.496171
494 1 0.175727 0.997848 0.494854
227 1 0.170949 0.983048 0.495023
2727 1 0.184983 0.986371 0.494419
2582 1 0.200561 0.983062 0.493337
344 1 0.213872 0.998693 0.493868
2515 1 0.199774 0.995577 0.49471
59 1 0.213323 0.984599 0.494006
2441 1 0.233923 0.982527 0.492605
140 1 0.22399 0.992082 0.494675
2399 1 0.258314 0.9797 0.493533
2728 1 0.245494 0.987757 0.493354
81 1 0.255498 0.995385 0.49443
67 1 0.268436 0.999648 0.494348
2595 1 0.280208 0.995422 0.495816
144 1 0.284267 0.982155 0.492995
372 1 0.269478 0.985186 0.494207
309 1 0.297048 0.984479 0.495211
355 1 0.293147 0.997486 0.4944
171 1 0.328711 0.988309 0.495594
2731 1 0.318033 0.993738 0.493257
105 1 0.310092 0.981821 0.494666
2618 1 0.351102 0.996376 0.497484
304 1 0.352002 0.980653 0.495894
2737 1 0.34189 0.987254 0.496977
2547 1 0.370264 0.984298 0.497045
168 1 0.364609 0.996312 0.496702
2735 1 0.381545 0.993305 0.497579
2611 1 0.417494 0.991339 0.499126
2541 1 0.427839 0.97981 0.499045
2550 1 0.4151 0.979694 0.497588
2466 1 0.429703 0.995192 0.499602
2684 1 0.438929 0.98405 0.497807
231 1 0.451749 0.996224 0.499898
3160 1 0.468881 0.986831 0.499693
2805 1 0.465137 0.998148 0.499335
103 1 0.484747 0.991459 0.499214
27 1 0.487175 0.977842 0.499891
4190 1 0.00713714 0.516246 0.500611
4547 1 0.016677 0.504849 0.502687
4530 1 0.021275 0.515949 0.501568
4400 1 0.00474966 0.50061 0.50362
4226 1 0.0325772 0.509108 0.503437
3905 1 0.0470434 0.513782 0.501524
4040 1 0.0344097 0.520391 0.500012
3914 1 0.0713132 0.506486 0.502662
1578 1 0.0568574 0.502862 0.50222
4112 1 0.0600699 0.515642 0.501808
1509 1 0.0943427 0.517126 0.501685
3840 1 0.0804687 0.519358 0.502028
3981 1 0.0864562 0.505276 0.50333
4051 1 0.116377 0.500583 0.503114
1658 1 0.105149 0.508347 0.502798
4128 1 0.114523 0.518988 0.501667
4053 1 0.123917 0.510539 0.502109
1663 1 0.136963 0.511585 0.502528
1380 1 0.127806 0.522615 0.502062
1513 1 0.151395 0.511933 0.503959
1163 1 0.162474 0.506731 0.506464
1447 1 0.144212 0.50118 0.504355
1389 1 0.173885 0.502987 0.5049
975 1 0.169422 0.519883 0.502438
1444 1 0.184717 0.514535 0.502153
1180 1 0.210205 0.505825 0.501231
1443 1 0.196595 0.507771 0.501136
1587 1 0.206463 0.518697 0.500819
4750 1 0.0451494 0.527102 0.500585
3758 1 0.027954 0.54006 0.500266
4169 1 0.0423966 0.540135 0.500092
4318 1 0.0564183 0.529718 0.50024
3918 1 0.0687796 0.524346 0.500092
4269 1 0.0666253 0.538894 0.500235
4198 1 0.0790154 0.533508 0.500405
4267 1 0.0901719 0.529787 0.50205
1508 1 0.104753 0.527016 0.500588
3845 1 0.117744 0.531533 0.501377
1087 1 0.142377 0.524451 0.502353
1086 1 0.15578 0.524492 0.501946
2248 1 0.464893 0.684315 0.50038
1910 1 0.380667 0.707926 0.500108
2182 1 0.454636 0.694909 0.5009
5055 1 0.469933 0.697378 0.500469
2116 1 0.461963 0.707347 0.500898
4409 1 0.00477085 0.726683 0.501616
4681 1 0.0166472 0.732848 0.500854
1611 1 0.347606 0.730892 0.500025
1758 1 0.359989 0.731928 0.500325
1619 1 0.373639 0.731135 0.500443
1908 1 0.382754 0.722819 0.500366
1905 1 0.395224 0.734491 0.500603
2260 1 0.402987 0.724235 0.500023
1847 1 0.393326 0.715326 0.500094
2251 1 0.416147 0.726013 0.500143
2048 1 0.406775 0.737186 0.501938
2038 1 0.431693 0.729162 0.500906
1914 1 0.443498 0.736053 0.500566
2414 1 0.454429 0.734464 0.500689
4751 1 0.00629824 0.739744 0.501914
4685 1 0.0118454 0.752332 0.501976
2146 1 0.0206164 0.744387 0.500073
4760 1 0.000579321 0.759115 0.502369
1960 1 0.0291086 0.750597 0.501226
2141 1 0.0485437 0.761776 0.501119
2676 1 0.340202 0.754386 0.50008
2106 1 0.355564 0.747257 0.500564
4972 1 0.369263 0.741295 0.502187
1761 1 0.378432 0.754192 0.501411
2100 1 0.36521 0.757646 0.502472
1836 1 0.383205 0.73949 0.50111
2247 1 0.401549 0.755499 0.502837
2469 1 0.390901 0.748929 0.503213
2118 1 0.412556 0.75045 0.50206
2275 1 0.418905 0.738307 0.50118
4910 1 0.425132 0.754322 0.502543
5185 1 0.438424 0.761246 0.501623
2203 1 0.441672 0.749547 0.501786
2476 1 0.430412 0.742989 0.502211
2389 1 0.465599 0.742357 0.501562
5186 1 0.455523 0.751064 0.500499
2121 1 0.4693 0.756475 0.500038
5041 1 0.492101 0.745887 0.500998
5255 1 0.485753 0.759396 0.501374
2249 1 0.478206 0.747589 0.500592
5104 1 0.0199222 0.762143 0.502027
2214 1 0.00643648 0.77331 0.503535
4683 1 0.0219618 0.775094 0.50168
1996 1 0.0357863 0.775361 0.50145
2079 1 0.0479783 0.778017 0.500554
1660 1 0.0627775 0.78261 0.500063
1819 1 0.349751 0.762493 0.501127
2326 1 0.336899 0.783504 0.501446
2041 1 0.337269 0.769577 0.500202
1610 1 0.347122 0.775214 0.501459
2124 1 0.356571 0.783305 0.501666
2187 1 0.364007 0.769427 0.501749
4974 1 0.373096 0.77813 0.501266
2047 1 0.381205 0.767281 0.502548
2195 1 0.394514 0.765479 0.502721
2615 1 0.389466 0.778373 0.502899
2261 1 0.407092 0.772462 0.502228
2194 1 0.419804 0.783888 0.50328
5331 1 0.41569 0.76217 0.505138
2122 1 0.426553 0.772225 0.503067
2474 1 0.44059 0.775021 0.502433
5113 1 0.453551 0.764855 0.500352
4988 1 0.471379 0.782359 0.5003
2269 1 0.498117 0.78339 0.502441
2475 1 0.49456 0.769647 0.501389
5188 1 0.485986 0.783167 0.501018
1979 1 0.479604 0.772222 0.501191
2507 1 0.00213433 0.78744 0.502544
4752 1 0.0160554 0.788883 0.501814
1856 1 0.00568232 0.804406 0.502612
2148 1 0.0279568 0.802625 0.502448
5039 1 0.0294297 0.787616 0.500596
1699 1 0.322807 0.798829 0.501236
2240 1 0.311592 0.803748 0.501732
2328 1 0.351234 0.795851 0.502277
2037 1 0.338659 0.798106 0.500614
2034 1 0.34512 0.809331 0.500642
5123 1 0.36821 0.789983 0.501673
2036 1 0.369518 0.802387 0.501638
2312 1 0.357675 0.807077 0.502448
1894 1 0.401388 0.787232 0.502897
2176 1 0.384348 0.788559 0.501934
2539 1 0.38172 0.802511 0.501658
2517 1 0.395604 0.798681 0.501767
2113 1 0.404879 0.807335 0.501646
5195 1 0.416694 0.809397 0.500377
4914 1 0.414976 0.796369 0.502341
2117 1 0.432242 0.790092 0.503143
2179 1 0.42963 0.802678 0.501665
2171 1 0.44357 0.801051 0.501633
4976 1 0.444609 0.787619 0.502963
2123 1 0.458161 0.803665 0.50136
2342 1 0.469052 0.798023 0.503296
5115 1 0.457976 0.790126 0.501948
5117 1 0.480496 0.797023 0.501068
4846 1 0.4927 0.798249 0.500299
2403 1 0.482632 0.808822 0.501934
2283 1 0.0106194 0.815797 0.504504
2147 1 0.0128174 0.828513 0.504833
2505 1 0.024168 0.817785 0.504344
5529 1 0.0340767 0.828113 0.502549
2363 1 0.0373074 0.812322 0.501353
2366 1 0.0464843 0.829481 0.501178
2297 1 0.0519027 0.818556 0.501643
2152 1 0.0615802 0.826894 0.500544
2299 1 0.0711692 0.81433 0.501178
2536 1 0.303907 0.815913 0.501427
1764 1 0.319853 0.812777 0.5027
1899 1 0.333057 0.810443 0.501547
2394 1 0.321395 0.832963 0.501322
2390 1 0.31365 0.822977 0.500698
1969 1 0.329916 0.821756 0.501731
2396 1 0.341965 0.821863 0.501176
2313 1 0.363003 0.833002 0.500369
1967 1 0.368985 0.81833 0.501652
2407 1 0.38196 0.818635 0.5015
2532 1 0.392254 0.812718 0.502736
2412 1 0.423053 0.820067 0.500073
2690 1 0.415025 0.83327 0.500145
2189 1 0.407235 0.821095 0.500995
2265 1 0.445569 0.828928 0.50087
2542 1 0.436931 0.815227 0.501015
5111 1 0.430093 0.830367 0.501025
2273 1 0.468691 0.809745 0.500786
2329 1 0.458193 0.824839 0.502245
5129 1 0.474944 0.821329 0.501286
5336 1 0.470246 0.833048 0.501718
5047 1 0.497605 0.811532 0.501863
5399 1 0.488537 0.822648 0.501977
5243 1 0.00564798 0.841053 0.504084
5178 1 0.0186871 0.846442 0.502897
2567 1 0.0235176 0.835732 0.503196
2155 1 0.0108883 0.856769 0.502223
2711 1 0.0330489 0.851484 0.502216
5316 1 0.039804 0.841615 0.502263
2423 1 0.0660521 0.844436 0.50043
5318 1 0.0512552 0.85222 0.502517
5036 1 0.0538018 0.840468 0.503229
2569 1 0.0811868 0.847264 0.50113
2233 1 0.0741596 0.834249 0.500855
1945 1 0.105538 0.857118 0.500027
2319 1 0.301688 0.843917 0.500294
2310 1 0.347647 0.83396 0.500788
2473 1 0.334288 0.834942 0.500198
2462 1 0.356165 0.843526 0.500378
2597 1 0.399651 0.836899 0.500731
5330 1 0.44081 0.84001 0.50073
5471 1 0.453175 0.856073 0.500686
5192 1 0.454665 0.840754 0.501832
5002 1 0.465482 0.848962 0.501271
2192 1 0.489102 0.835802 0.50167
4980 1 0.494708 0.84702 0.502071
5112 1 0.481194 0.847421 0.500956
2717 1 0.0119656 0.870192 0.502235
2719 1 0.0228853 0.8632 0.500823
2560 1 0.0280569 0.880822 0.500831
2440 1 0.0418383 0.85917 0.500538
2644 1 0.0350967 0.871304 0.502128
2304 1 0.0703062 0.873576 0.500663
205 1 0.0612994 0.857989 0.50178
2432 1 0.0557883 0.86882 0.501753
2577 1 0.0836156 0.876276 0.501431
2077 1 0.0753991 0.859829 0.500227
2287 1 0.0882342 0.862233 0.500625
2367 1 0.108702 0.877186 0.501239
2451 1 0.097078 0.873256 0.50189
2226 1 0.117858 0.865202 0.500725
5267 1 0.475595 0.859643 0.500652
2325 1 0.465149 0.865264 0.500579
5118 1 0.468483 0.877993 0.501415
4908 1 0.453512 0.873813 0.500019
4850 1 0.492901 0.869477 0.502376
2193 1 0.488382 0.857711 0.502582
2266 1 0.480519 0.872511 0.501631
2709 1 0.0130507 0.884344 0.500937
2557 1 0.0110363 0.898187 0.500905
2371 1 0.0341749 0.902877 0.500059
2585 1 0.0519297 0.897887 0.501001
1954 1 0.0504173 0.881371 0.501268
2216 1 0.0633144 0.885954 0.500798
345 1 0.0654066 0.900073 0.501099
2656 1 0.0872719 0.900433 0.501855
1946 1 0.0913996 0.887272 0.501727
2558 1 0.0759732 0.889935 0.500663
2094 1 0.113729 0.887545 0.501311
2641 1 0.102449 0.894469 0.501646
2330 1 0.447261 0.896403 0.501762
2479 1 0.441827 0.882216 0.500404
4904 1 0.458782 0.889769 0.501706
2682 1 0.469346 0.90223 0.502252
5146 1 0.476697 0.889014 0.502652
2339 1 0.493519 0.895244 0.503818
4996 1 0.491089 0.881657 0.503567
56 1 0.00776951 0.911441 0.501161
2648 1 0.0200749 0.920267 0.500203
2627 1 0.00599659 0.924621 0.500391
2563 1 0.0215178 0.906337 0.500025
2587 1 0.0330407 0.915086 0.500256
2584 1 0.0565152 0.928379 0.501064
2373 1 0.0694151 0.924699 0.500491
51 1 0.0889744 0.914346 0.50028
2643 1 0.0757879 0.910099 0.500794
2443 1 0.0823192 0.925307 0.500839
2518 1 0.113694 0.916664 0.501871
2372 1 0.100444 0.922198 0.502048
2592 1 0.103149 0.907959 0.501716
143 1 0.122378 0.924854 0.502032
5262 1 0.455738 0.906694 0.50116
5184 1 0.46539 0.918038 0.500516
2686 1 0.485985 0.9067 0.501278
2765 1 0.491658 0.917946 0.50086
2343 1 0.478124 0.916805 0.501903
2703 1 0.00377831 0.939543 0.50003
2494 1 0.0158267 0.931915 0.500088
2564 1 0.0173486 0.946671 0.500144
2438 1 0.044068 0.935816 0.50059
2591 1 0.0707499 0.94052 0.500758
2715 1 0.0834746 0.938933 0.501291
2498 1 0.0952063 0.93344 0.501796
2375 1 0.108104 0.932832 0.50116
2657 1 0.096434 0.945801 0.500817
2729 1 0.11035 0.946846 0.500796
2725 1 0.121096 0.940015 0.501075
2332 1 0.471392 0.931886 0.500654
129 1 0.0359478 0.974256 0.500145
2645 1 0.0551933 0.954734 0.500034
77 1 0.048305 0.968241 0.500105
265 1 0.0939002 0.962306 0.500476
2535 1 0.0833815 0.953269 0.500499
2290 1 0.084158 0.972707 0.50059
2376 1 0.0974223 0.976164 0.500013
2625 1 0.462145 0.973641 0.500649
2750 1 0.477754 0.956756 0.500092
383 1 0.489299 0.962992 0.50045
188 1 0.0214939 0.986679 0.500754
2364 1 0.0366234 0.999514 0.501036
2514 1 0.0361073 0.987865 0.501299
2437 1 0.0516869 0.985546 0.501106
2658 1 0.0614577 0.976855 0.500027
2740 1 0.397931 0.987859 0.500171
452 1 0.452694 0.982523 0.500089
3011 1 0.500495 0.0123956 0.49981
2788 1 0.725905 0.0105524 0.499765
5366 1 0.755948 0.000811649 0.499792
5365 1 0.752181 0.0136013 0.499645
2854 1 0.778506 0.00423044 0.497552
2830 1 0.765185 0.00952274 0.498009
3205 1 0.775922 0.0162687 0.498517
5430 1 0.763747 0.0209588 0.499897
2967 1 0.793101 0.0107099 0.498222
5377 1 0.807092 0.0130689 0.497376
5218 1 0.78598 0.0235207 0.498743
5295 1 0.818847 0.00601677 0.494776
5497 1 0.825079 0.018031 0.494599
5518 1 0.834369 0.0107476 0.494258
2855 1 0.846782 0.0122567 0.495038
2699 1 0.857186 0.0213059 0.496956
5500 1 0.857927 0.00535205 0.495204
5450 1 0.873294 0.00843739 0.496509
3004 1 0.868767 0.0211784 0.497598
5222 1 0.884628 0.00165122 0.495711
2861 1 0.888544 0.0149649 0.497242
4942 1 0.89694 0.00343807 0.49709
5458 1 0.903037 0.01406 0.497059
2631 1 0.918597 0.0102381 0.498077
5171 1 0.909798 0.000344735 0.496835
5528 1 0.932506 0.0180293 0.498115
2276 1 0.932595 0.0047463 0.498509
46 1 0.944346 0.0116512 0.498632
5293 1 0.949999 0.0232221 0.498532
2716 1 0.953061 0.00160686 0.498945
5522 1 0.959086 0.0149052 0.499137
5319 1 0.967675 0.00162724 0.499883
3136 1 0.774218 0.0300071 0.499041
5235 1 0.783548 0.0416294 0.498522
5410 1 0.79756 0.0273614 0.497652
5301 1 0.80065 0.0387077 0.498594
2857 1 0.810513 0.0248893 0.496139
2785 1 0.817013 0.0365531 0.496699
5438 1 0.828451 0.0302997 0.495572
5516 1 0.827203 0.0474247 0.496296
5435 1 0.842701 0.0271563 0.496528
5492 1 0.839472 0.0442639 0.496177
2779 1 0.855149 0.0355444 0.496786
2936 1 0.869316 0.0344869 0.497802
2870 1 0.88069 0.0462475 0.497616
2799 1 0.867946 0.0476034 0.497189
5439 1 0.881669 0.0277479 0.496718
5448 1 0.896276 0.0274393 0.497684
3075 1 0.891707 0.0400529 0.49825
2939 1 0.909192 0.0264617 0.499471
2700 1 0.90664 0.0393206 0.498878
2933 1 0.921837 0.0270093 0.498803
2637 1 0.950223 0.0381512 0.499651
317 1 0.964768 0.0430275 0.499566
2886 1 0.516544 0.0648247 0.499551
2928 1 0.768509 0.0637361 0.499647
5155 1 0.780709 0.0591035 0.499137
5359 1 0.794265 0.0529696 0.498482
5237 1 0.802346 0.0609467 0.497928
2927 1 0.810688 0.0480609 0.498066
114 1 0.815274 0.0602025 0.498122
2931 1 0.827416 0.0608102 0.497345
2565 1 0.854173 0.0476758 0.496828
2704 1 0.834611 0.0699745 0.494721
106 1 0.848751 0.0669439 0.496545
386 1 0.840465 0.0581294 0.49507
2698 1 0.873656 0.0644506 0.497164
42 1 0.860356 0.0607625 0.495785
5428 1 0.885414 0.0618676 0.496902
3 1 0.894321 0.0704581 0.497806
3072 1 0.895434 0.0535663 0.496856
466 1 0.906833 0.0590837 0.498236
5525 1 0.928285 0.0536942 0.499808
5308 1 0.917157 0.0659612 0.497468
5446 1 0.917931 0.0476622 0.498374
5456 1 0.949187 0.0653479 0.498411
120 1 0.933731 0.06426 0.4983
2486 1 0.966904 0.0593535 0.499578
2798 1 0.954843 0.0505629 0.498903
38 1 0.974799 0.0511608 0.498862
2640 1 0.981291 0.0660728 0.499699
3019 1 0.522183 0.0877226 0.499783
101 1 0.511661 0.0887414 0.496937
2873 1 0.511984 0.0777818 0.498395
2807 1 0.536527 0.0832387 0.497655
3037 1 0.543873 0.0732966 0.499389
3165 1 0.526979 0.0740472 0.499406
2905 1 0.549484 0.0860296 0.499383
3237 1 0.568053 0.0910241 0.499857
3077 1 0.798538 0.0776022 0.498898
3141 1 0.822139 0.0744121 0.496517
3002 1 0.809652 0.0724848 0.496386
2864 1 0.823408 0.0866866 0.496108
5356 1 0.810924 0.0865664 0.498494
3149 1 0.848877 0.0783549 0.49574
110 1 0.837274 0.0847846 0.496309
36 1 0.85454 0.0885334 0.496835
5374 1 0.868949 0.0877153 0.497508
116 1 0.862752 0.074403 0.496547
3005 1 0.87584 0.0770968 0.496378
2633 1 0.90156 0.0902154 0.497561
320 1 0.885697 0.0838217 0.497137
5307 1 0.92337 0.0767986 0.499636
2863 1 0.916 0.0879843 0.498158
109 1 0.907359 0.0757984 0.499111
5236 1 0.936073 0.0781773 0.498685
5425 1 0.943551 0.0897231 0.497617
9 1 0.964506 0.0727258 0.498395
187 1 0.969192 0.0853364 0.499273
2705 1 0.95548 0.0919992 0.49886
5385 1 0.952909 0.0775053 0.499607
47 1 0.995363 0.0737248 0.498735
136 1 0.994994 0.0875943 0.499848
2561 1 0.982085 0.0773631 0.498511
118 1 0.980075 0.092398 0.498847
5325 1 0.501225 0.0994728 0.498345
3017 1 0.51075 0.115932 0.498314
3086 1 0.512408 0.103768 0.497088
2888 1 0.526697 0.100166 0.498045
3156 1 0.527126 0.113001 0.497205
3091 1 0.540622 0.113742 0.49684
3172 1 0.541064 0.100325 0.498056
3303 1 0.552499 0.112333 0.499424
5214 1 0.568076 0.111816 0.49914
3379 1 0.558216 0.0983116 0.499738
3006 1 0.817388 0.0992662 0.499972
2995 1 0.831092 0.096062 0.498053
2865 1 0.845226 0.0989615 0.497296
465 1 0.835709 0.108519 0.497694
3359 1 0.847724 0.112667 0.498128
458 1 0.86079 0.0999676 0.497097
321 1 0.877533 0.0986702 0.497675
690 1 0.866921 0.113277 0.498272
3499 1 0.891248 0.0976645 0.498458
3007 1 0.903141 0.105349 0.499825
5310 1 0.885629 0.111039 0.497282
3209 1 0.90001 0.118582 0.499399
113 1 0.919506 0.102063 0.499847
335 1 0.91416 0.113772 0.49965
181 1 0.92802 0.114129 0.498771
247 1 0.949876 0.102975 0.499762
50 1 0.93687 0.10205 0.499472
3080 1 0.961768 0.11048 0.498231
37 1 0.967423 0.0983043 0.499536
404 1 0.973892 0.111095 0.499763
117 1 0.985948 0.109095 0.499652
3513 1 0.511004 0.133464 0.49607
3227 1 0.520426 0.124306 0.49684
3378 1 0.524934 0.137238 0.4966
3090 1 0.538545 0.137177 0.498522
3244 1 0.533989 0.125358 0.494939
3373 1 0.548445 0.127524 0.497449
3173 1 0.560877 0.122386 0.498943
3795 1 0.572691 0.125541 0.499896
3076 1 0.834717 0.120657 0.498807
2997 1 0.847414 0.125531 0.498667
475 1 0.879761 0.135157 0.498879
3130 1 0.880392 0.122233 0.4995
3262 1 0.895075 0.132804 0.499261
66 1 0.912338 0.125722 0.498489
2868 1 0.907251 0.138933 0.497955
249 1 0.928157 0.127536 0.498522
125 1 0.920815 0.138129 0.496763
544 1 0.94048 0.126131 0.497748
3268 1 0.950034 0.133361 0.498771
469 1 0.937559 0.139185 0.498821
3214 1 0.958608 0.124078 0.49863
2937 1 0.960948 0.139417 0.498951
3286 1 0.973851 0.124728 0.499405
543 1 0.986606 0.135962 0.499191
3576 1 0.500273 0.161409 0.49825
2974 1 0.518978 0.148338 0.49809
2917 1 0.506431 0.148721 0.497422
3649 1 0.514518 0.163494 0.498995
3433 1 0.544466 0.161619 0.499625
3159 1 0.534271 0.149737 0.499504
3157 1 0.525618 0.160959 0.499245
3180 1 0.547819 0.146487 0.499334
3520 1 0.568466 0.165063 0.498327
5530 1 0.894792 0.146388 0.499642
3060 1 0.881121 0.150786 0.497895
107 1 0.906206 0.155242 0.498741
3211 1 0.924317 0.161475 0.497428
319 1 0.915279 0.149201 0.498706
5513 1 0.928932 0.149351 0.498015
3218 1 0.948352 0.146794 0.49803
526 1 0.93884 0.155869 0.498204
605 1 0.956699 0.159558 0.499438
473 1 0.966571 0.152377 0.498531
3087 1 0.507601 0.17581 0.498314
730 1 0.521686 0.178511 0.49858
3164 1 0.53623 0.172362 0.499398
3441 1 0.547882 0.179191 0.499918
2784 1 0.573392 0.176589 0.498678
3042 1 0.581605 0.185464 0.499489
2869 1 0.899693 0.167548 0.498672
5298 1 0.893282 0.179699 0.498931
40 1 0.913385 0.167693 0.498748
528 1 0.919095 0.180356 0.498665
1 1 0.942355 0.166817 0.498608
3204 1 0.928717 0.172797 0.498467
3279 1 0.945071 0.182019 0.498657
682 1 0.971192 0.176276 0.498429
459 1 0.957146 0.173571 0.49756
533 1 0.975882 0.190075 0.499476
248 1 0.983349 0.175719 0.499355
318 1 0.992774 0.186531 0.499317
8 1 0.998363 0.173497 0.499521
2847 1 0.522844 0.193828 0.499038
3660 1 0.51264 0.204503 0.499642
3092 1 0.509259 0.191862 0.498132
3372 1 0.567348 0.20618 0.498959
3309 1 0.555407 0.212051 0.49918
3302 1 0.568704 0.1923 0.499312
3085 1 0.55526 0.194603 0.499624
3110 1 0.579937 0.200224 0.498736
3874 1 0.592345 0.202802 0.497907
2982 1 0.859895 0.210723 0.499776
2800 1 0.882327 0.194575 0.498795
3220 1 0.90607 0.194828 0.49979
457 1 0.949209 0.195207 0.499015
5408 1 0.935582 0.198424 0.499492
3349 1 0.963224 0.191183 0.499019
456 1 0.960331 0.202692 0.498867
3381 1 0.520861 0.227955 0.49911
3300 1 0.507135 0.234829 0.499377
3583 1 0.540837 0.232672 0.49862
3241 1 0.545898 0.220834 0.499958
3858 1 0.567965 0.220587 0.498205
3094 1 0.557172 0.228233 0.499034
3581 1 0.599 0.215064 0.49901
3238 1 0.519938 0.248448 0.49947
3107 1 0.506446 0.247467 0.499408
3511 1 0.512791 0.260447 0.499831
942 1 0.539545 0.259142 0.497609
3257 1 0.540346 0.245618 0.497341
3461 1 0.527106 0.259661 0.499704
2980 1 0.529249 0.24137 0.497974
3643 1 0.55263 0.242366 0.497074
3656 1 0.567068 0.24229 0.498264
3295 1 0.559618 0.253987 0.497484
799 1 0.537874 0.274093 0.499024
1432 1 0.549595 0.265274 0.499109
2977 1 0.580012 0.264346 0.499977
3464 1 0.776314 0.307258 0.499038
3525 1 0.768592 0.298762 0.499985
3412 1 0.782725 0.296593 0.499442
3202 1 0.791828 0.307535 0.499047
2844 1 0.797808 0.297106 0.499907
3877 1 0.778636 0.319634 0.499102
3407 1 0.792826 0.322945 0.499265
3397 1 0.802246 0.313701 0.499507
3535 1 0.780381 0.334023 0.49914
3194 1 0.821738 0.347076 0.499182
3338 1 0.809794 0.338276 0.499621
3489 1 0.854587 0.353404 0.499675
3478 1 0.783215 0.380489 0.49943
3602 1 0.808469 0.376564 0.499749
3600 1 0.795957 0.386428 0.498986
3536 1 0.788008 0.398908 0.49957
3330 1 0.82524 0.393275 0.499012
3406 1 0.840982 0.399974 0.499605
3405 1 0.848789 0.3895 0.499771
3263 1 0.879894 0.397504 0.49966
3419 1 0.868156 0.404185 0.498366
3539 1 0.892806 0.402773 0.498646
3693 1 0.916626 0.40112 0.49959
4234 1 0.764461 0.424124 0.499838
3902 1 0.776485 0.418485 0.499616
3251 1 0.804107 0.416839 0.49827
3812 1 0.79215 0.426825 0.498721
4029 1 0.805183 0.428177 0.497644
3196 1 0.826082 0.405322 0.49926
3280 1 0.815842 0.420826 0.498369
3476 1 0.828595 0.417448 0.49714
250 1 0.813793 0.408434 0.498563
3741 1 0.851464 0.406273 0.499086
3477 1 0.839859 0.413515 0.49652
3887 1 0.851061 0.421634 0.494411
3816 1 0.838356 0.426157 0.494825
3400 1 0.878447 0.423747 0.496613
3198 1 0.860461 0.414602 0.496862
3680 1 0.879683 0.411241 0.497331
3480 1 0.86679 0.42487 0.495384
3408 1 0.89658 0.416218 0.498269
3416 1 0.908477 0.411012 0.499037
3409 1 0.916683 0.422503 0.499935
3360 1 0.930269 0.42631 0.499326
3798 1 0.756847 0.449259 0.498312
3543 1 0.744139 0.448825 0.499958
3537 1 0.750449 0.437414 0.499753
4036 1 0.777639 0.430553 0.497955
3890 1 0.766026 0.437738 0.498745
4165 1 0.778816 0.444978 0.497085
4171 1 0.790926 0.440808 0.497419
3888 1 0.803074 0.43927 0.49702
3458 1 0.824911 0.429681 0.494867
3669 1 0.810067 0.448449 0.495778
3466 1 0.815546 0.436047 0.498005
3475 1 0.820864 0.449753 0.495568
3601 1 0.832203 0.443401 0.494173
3619 1 0.843863 0.438178 0.492581
3677 1 0.855618 0.435188 0.494099
3404 1 0.865726 0.448505 0.492578
3403 1 0.872203 0.437026 0.49502
3670 1 0.880873 0.449545 0.493136
3893 1 0.891534 0.429431 0.49767
3415 1 0.884365 0.438075 0.495386
3829 1 0.898187 0.441941 0.496829
3685 1 0.905711 0.430249 0.497907
4447 1 0.915643 0.43906 0.498897
3754 1 0.916267 0.451118 0.497725
3481 1 0.942418 0.442587 0.498937
3757 1 0.930944 0.451329 0.499136
3558 1 0.928708 0.438648 0.499548
3390 1 0.952793 0.434018 0.499425
3976 1 0.954202 0.447316 0.499597
3809 1 0.733678 0.468275 0.499773
4148 1 0.760439 0.462404 0.49797
3955 1 0.746233 0.462263 0.499587
3418 1 0.767662 0.473962 0.496763
3548 1 0.779359 0.468089 0.497498
4028 1 0.77053 0.4525 0.498081
4021 1 0.799433 0.455575 0.497429
4041 1 0.787113 0.45367 0.496102
4158 1 0.796861 0.468802 0.496147
3898 1 0.810965 0.463597 0.493768
3894 1 0.827145 0.461 0.491611
3749 1 0.822028 0.473032 0.491357
3742 1 0.84123 0.453398 0.492887
3746 1 0.85627 0.458051 0.491318
3606 1 0.839206 0.466237 0.490885
3737 1 0.872943 0.460424 0.491563
3892 1 0.871503 0.472619 0.490053
3951 1 0.857818 0.471293 0.490809
4519 1 0.892539 0.454285 0.493651
3611 1 0.885897 0.464376 0.492171
3965 1 0.898873 0.470364 0.493622
3540 1 0.924642 0.464093 0.497213
4465 1 0.909722 0.46529 0.495844
3963 1 0.905781 0.45397 0.495014
3618 1 0.943261 0.455015 0.499235
1413 1 0.507498 0.493514 0.499722
4373 1 0.73501 0.49475 0.49918
4537 1 0.748994 0.493526 0.499544
4357 1 0.756932 0.47924 0.497854
3954 1 0.743064 0.480253 0.498422
4101 1 0.763823 0.491612 0.497179
3739 1 0.774527 0.488526 0.496533
3835 1 0.784426 0.479246 0.495681
3895 1 0.790915 0.499469 0.495878
4037 1 0.809088 0.490571 0.493018
4024 1 0.794903 0.486599 0.493968
3688 1 0.808647 0.477435 0.492329
3960 1 0.82279 0.485675 0.492009
3979 1 0.831587 0.49547 0.492868
4034 1 0.847495 0.47726 0.490309
3886 1 0.842112 0.489898 0.491461
4524 1 0.850613 0.499157 0.490413
3748 1 0.834954 0.478843 0.490984
3962 1 0.871884 0.483941 0.491418
3897 1 0.858254 0.486124 0.490094
4310 1 0.864659 0.497493 0.489483
4381 1 0.885829 0.476253 0.492016
4395 1 0.894557 0.485023 0.49324
4245 1 0.90473 0.496395 0.494068
4106 1 0.883157 0.49356 0.492363
4455 1 0.916019 0.491841 0.495583
4291 1 0.906433 0.480163 0.495062
4031 1 0.919976 0.48021 0.496787
3832 1 0.945126 0.480383 0.49909
4667 1 0.9326 0.489016 0.497909
4100 1 0.950989 0.490943 0.498767
3760 1 0.931342 0.476944 0.498399
102 1 0.508098 0.00217457 0.50088
3166 1 0.515066 0.0144702 0.501732
2764 1 0.539126 0.00628274 0.504271
3169 1 0.527523 0.0148731 0.502944
3036 1 0.545851 0.0182633 0.504696
2943 1 0.524928 0.00145779 0.502293
306 1 0.553421 0.00682122 0.503782
2872 1 0.560774 0.0169735 0.504452
5464 1 0.573476 0.010538 0.503558
3082 1 0.591593 0.0191944 0.501867
245 1 0.587215 0.00660036 0.502204
2838 1 0.614628 0.0223766 0.502725
3163 1 0.616756 0.00248711 0.502704
2825 1 0.608705 0.0123501 0.501566
2818 1 0.599927 0.00580186 0.501624
5475 1 0.628272 0.0145122 0.502182
2895 1 0.638882 0.0125573 0.50393
33 1 0.654071 0.00599261 0.502278
2828 1 0.650948 0.0191511 0.503485
3170 1 0.661706 0.0233838 0.50255
2814 1 0.669621 0.0109549 0.501765
2783 1 0.677283 0.0220236 0.502552
2957 1 0.686585 0.0139859 0.502214
5276 1 0.69353 0.00145257 0.500899
3052 1 0.701668 0.0101026 0.501764
5489 1 0.713452 0.011053 0.500927
3100 1 0.697119 0.023046 0.503832
5442 1 0.740049 0.00949727 0.500548
5508 1 0.740847 0.0237996 0.500224
2647 1 0.971988 0.0135856 0.500628
5523 1 0.992084 0.0205303 0.501399
2354 1 0.984738 0.0075937 0.500004
44 1 0.999328 0.00774958 0.501143
5392 1 0.512288 0.027149 0.502394
521 1 0.523131 0.0303966 0.501662
3439 1 0.511193 0.0389786 0.502465
454 1 0.543864 0.0345075 0.503347
5463 1 0.528867 0.0407972 0.501883
3081 1 0.534288 0.0262919 0.504013
384 1 0.540422 0.0463299 0.502015
2876 1 0.571095 0.0243914 0.501916
5004 1 0.555337 0.0297079 0.503186
2881 1 0.568281 0.0361561 0.503458
2947 1 0.556813 0.0440878 0.503246
3033 1 0.587071 0.0437693 0.502287
2692 1 0.586072 0.0309962 0.50218
2892 1 0.602121 0.0282529 0.502081
524 1 0.601445 0.0412595 0.502774
2813 1 0.615557 0.0352049 0.501576
2816 1 0.627458 0.027605 0.503263
5509 1 0.641633 0.0283187 0.502623
3225 1 0.632499 0.0393892 0.502856
5476 1 0.652188 0.0348494 0.503581
2845 1 0.661839 0.0437299 0.503298
2979 1 0.681537 0.0348577 0.505199
3023 1 0.668277 0.034453 0.503733
2836 1 0.687922 0.0473929 0.504446
3102 1 0.709049 0.0355236 0.503906
5495 1 0.696494 0.0365569 0.50509
5491 1 0.727334 0.0239937 0.50144
2826 1 0.714296 0.0248764 0.502835
2846 1 0.72321 0.0351559 0.502475
5479 1 0.73634 0.0377841 0.501741
5347 1 0.753584 0.0409171 0.50176
2849 1 0.753097 0.0280953 0.500642
5437 1 0.763717 0.0345941 0.501286
5368 1 0.771788 0.0469585 0.500832
5449 1 0.926779 0.0395149 0.500522
5526 1 0.937612 0.0316098 0.500047
5387 1 0.963946 0.029257 0.501251
5460 1 0.98059 0.0240338 0.500299
5180 1 0.977047 0.0361866 0.501036
5309 1 0.99558 0.0326582 0.501838
48 1 0.988037 0.0420238 0.501094
5453 1 0.999515 0.0475247 0.502017
3223 1 0.505984 0.054757 0.500548
3364 1 0.502966 0.067593 0.500268
3018 1 0.517825 0.049047 0.501779
2882 1 0.529073 0.0610429 0.501917
3013 1 0.540512 0.0616304 0.501955
3161 1 0.550387 0.0542506 0.502291
2871 1 0.564577 0.0578434 0.502376
3093 1 0.555621 0.0667666 0.501832
2811 1 0.574368 0.0477342 0.503036
3031 1 0.583451 0.0585054 0.502483
3224 1 0.594414 0.0687692 0.502453
3242 1 0.574329 0.0671448 0.503452
5401 1 0.61641 0.0487316 0.502159
3236 1 0.60093 0.0555016 0.501369
2899 1 0.613586 0.0607876 0.502486
2778 1 0.624877 0.066073 0.502883
5481 1 0.630497 0.054141 0.502841
3239 1 0.63989 0.0647728 0.504539
2968 1 0.644249 0.0484456 0.503602
2806 1 0.654921 0.0546731 0.504986
2833 1 0.651223 0.0662843 0.505176
3083 1 0.672768 0.048014 0.505309
3179 1 0.668261 0.0597986 0.504231
2840 1 0.681135 0.0629847 0.504446
2919 1 0.694002 0.05852 0.50475
2832 1 0.706973 0.049494 0.504178
2834 1 0.706149 0.0659871 0.503262
3168 1 0.693374 0.0706615 0.504604
5506 1 0.733364 0.05042 0.500787
2956 1 0.721048 0.0504974 0.501662
2973 1 0.719673 0.0633217 0.504052
5420 1 0.736161 0.0641121 0.501323
5312 1 0.748712 0.0688272 0.501225
2965 1 0.74547 0.0539884 0.501473
5445 1 0.759018 0.0576139 0.501224
3068 1 0.791229 0.0666131 0.500967
5379 1 0.94104 0.0493014 0.500082
49 1 0.991829 0.0573844 0.500783
2966 1 0.562381 0.0773746 0.50042
3376 1 0.589744 0.0812901 0.503551
3253 1 0.576206 0.0788053 0.50173
3025 1 0.581394 0.091301 0.500115
3647 1 0.594615 0.0927459 0.502996
2777 1 0.609835 0.0730412 0.503146
2902 1 0.603936 0.0847758 0.50282
3039 1 0.619493 0.0847695 0.502935
3177 1 0.629479 0.078455 0.504623
3158 1 0.636559 0.0922238 0.50621
2964 1 0.642466 0.0790821 0.506183
2986 1 0.654561 0.0788064 0.505608
2874 1 0.665127 0.0723785 0.505482
2976 1 0.664148 0.0882225 0.505373
2887 1 0.677088 0.0750764 0.503531
3024 1 0.677137 0.0877249 0.506135
3058 1 0.691087 0.0830898 0.505053
2985 1 0.704178 0.0783566 0.504586
3032 1 0.702157 0.092212 0.505399
5507 1 0.726083 0.073515 0.501328
5485 1 0.71481 0.0918299 0.505576
5422 1 0.717219 0.0801092 0.503863
3078 1 0.727791 0.0911437 0.504089
2824 1 0.7603 0.0749997 0.502088
5373 1 0.751067 0.0863515 0.501855
3069 1 0.738173 0.0793279 0.503501
2786 1 0.771361 0.0816628 0.501107
2776 1 0.765822 0.0908881 0.50131
3143 1 0.780828 0.0722599 0.50124
5081 1 0.78542 0.0856195 0.50149
2791 1 0.797936 0.0942146 0.500247
246 1 0.930747 0.0902333 0.500282
3254 1 0.579851 0.11586 0.500427
2835 1 0.574617 0.100847 0.501636
3232 1 0.586627 0.103096 0.502181
3108 1 0.592729 0.118717 0.502248
3022 1 0.610733 0.0977332 0.503474
3230 1 0.599596 0.106547 0.501348
3040 1 0.618323 0.108746 0.502621
3524 1 0.607751 0.117102 0.502512
3162 1 0.623989 0.0966722 0.504449
2890 1 0.633404 0.104472 0.503811
3109 1 0.651696 0.0959417 0.506098
3375 1 0.646055 0.110768 0.504756
2950 1 0.664299 0.103152 0.505655
5510 1 0.659149 0.116902 0.503609
3442 1 0.671157 0.113872 0.50571
2990 1 0.676417 0.100302 0.505614
3026 1 0.690302 0.0979079 0.505432
3059 1 0.685149 0.109501 0.507467
2975 1 0.712051 0.103284 0.506801
2960 1 0.69849 0.110726 0.507143
2953 1 0.726808 0.105247 0.505169
3034 1 0.721714 0.118025 0.506556
316 1 0.734848 0.117859 0.507494
5413 1 0.739265 0.0963661 0.503343
3043 1 0.754455 0.100387 0.503104
2955 1 0.743676 0.111251 0.502168
5515 1 0.756834 0.115804 0.504708
3057 1 0.765542 0.105709 0.502389
2792 1 0.780302 0.0993412 0.500824
5419 1 0.777283 0.110847 0.502144
3063 1 0.791944 0.110403 0.502697
3074 1 0.805331 0.103312 0.501412
3010 1 0.812369 0.116792 0.501774
3206 1 0.823727 0.111336 0.5008
604 1 0.947062 0.114716 0.500192
41 1 0.992246 0.0990582 0.500841
3255 1 0.556848 0.136836 0.500054
3301 1 0.584078 0.130145 0.501629
2992 1 0.589266 0.141071 0.50228
2971 1 0.571745 0.137312 0.501945
3449 1 0.60095 0.131216 0.502036
3174 1 0.615156 0.130686 0.503174
3457 1 0.603915 0.142765 0.503652
5466 1 0.626509 0.119427 0.502972
3226 1 0.630444 0.132475 0.502685
3229 1 0.639556 0.121869 0.502029
3035 1 0.650744 0.131396 0.503006
2910 1 0.6578 0.141163 0.503646
3112 1 0.667726 0.130377 0.505153
3051 1 0.678263 0.123732 0.506959
3261 1 0.674699 0.140602 0.505861
3045 1 0.686815 0.133948 0.507207
2900 1 0.690695 0.122492 0.507946
3015 1 0.700854 0.129166 0.509137
2925 1 0.709732 0.119594 0.506064
2860 1 0.702797 0.142037 0.506325
2987 1 0.714673 0.135247 0.505548
3064 1 0.72696 0.130311 0.506671
2894 1 0.729854 0.142091 0.506728
5517 1 0.740391 0.133267 0.506972
5512 1 0.751367 0.127653 0.504753
5436 1 0.75473 0.141202 0.506683
2921 1 0.765604 0.132433 0.504591
5433 1 0.771773 0.121253 0.503094
5499 1 0.784168 0.122954 0.503476
3137 1 0.779318 0.134257 0.504056
2850 1 0.799029 0.121144 0.502131
5521 1 0.796406 0.132216 0.503364
5370 1 0.78902 0.141841 0.504299
5215 1 0.810981 0.129311 0.502332
5360 1 0.818686 0.141995 0.502219
3145 1 0.825969 0.128672 0.50114
5520 1 0.850237 0.138444 0.501242
3127 1 0.836723 0.135852 0.500573
2556 1 0.867118 0.141315 0.500957
176 1 0.860193 0.128133 0.500062
672 1 0.973222 0.138036 0.500636
53 1 0.989599 0.123612 0.500568
3800 1 0.563104 0.151638 0.501203
3305 1 0.578639 0.150659 0.501322
3114 1 0.618741 0.14636 0.502505
3264 1 0.596478 0.153477 0.502716
2909 1 0.610032 0.156533 0.501973
2896 1 0.632973 0.14477 0.503693
3184 1 0.627981 0.155098 0.503234
3258 1 0.64286 0.160884 0.504579
2848 1 0.645191 0.143846 0.503684
2906 1 0.65545 0.154886 0.504378
3318 1 0.666257 0.149026 0.504755
2988 1 0.680299 0.151179 0.504331
2920 1 0.690275 0.145217 0.507555
3181 1 0.668263 0.162068 0.50467
3250 1 0.679807 0.165994 0.504477
3462 1 0.691889 0.158088 0.505489
2842 1 0.704934 0.158975 0.506427
5434 1 0.716319 0.147826 0.507213
2981 1 0.729046 0.155061 0.506773
3053 1 0.719173 0.162972 0.506709
2991 1 0.742108 0.144881 0.505819
2993 1 0.7404 0.159624 0.506537
3402 1 0.755327 0.155835 0.50622
3331 1 0.769728 0.144782 0.505465
3401 1 0.781804 0.153039 0.505738
3067 1 0.769112 0.162307 0.507099
2851 1 0.784839 0.166256 0.504756
2796 1 0.803986 0.144481 0.504722
5351 1 0.794473 0.154991 0.504477
3195 1 0.799048 0.166618 0.504943
3183 1 0.810381 0.155512 0.50424
3073 1 0.825074 0.154958 0.504287
2856 1 0.830863 0.166413 0.503115
2926 1 0.845658 0.16294 0.502619
5429 1 0.838174 0.149916 0.502373
3000 1 0.853743 0.151767 0.501746
178 1 0.859778 0.164086 0.501644
3065 1 0.869917 0.155471 0.500849
3207 1 0.889493 0.160507 0.501639
684 1 0.975019 0.163826 0.500044
415 1 0.987972 0.161602 0.500047
670 1 0.997135 0.151875 0.50062
3009 1 0.983328 0.149293 0.500654
3167 1 0.533713 0.186103 0.500492
2908 1 0.555158 0.166943 0.50055
3104 1 0.561976 0.18181 0.500131
3311 1 0.595215 0.166706 0.501559
3178 1 0.582481 0.16772 0.500758
3732 1 0.594583 0.178169 0.501582
3307 1 0.609826 0.171416 0.500924
3049 1 0.613676 0.185393 0.501691
2983 1 0.620873 0.169144 0.503737
5498 1 0.631854 0.184855 0.504277
3046 1 0.636102 0.172692 0.505088
3314 1 0.647196 0.179884 0.505354
2915 1 0.656149 0.169971 0.504573
3467 1 0.661355 0.184088 0.506027
2918 1 0.671629 0.178182 0.506377
3189 1 0.684782 0.184487 0.506451
3317 1 0.694979 0.170526 0.506117
3190 1 0.708771 0.172215 0.507023
5505 1 0.696599 0.183554 0.504324
3325 1 0.70942 0.188405 0.505682
3343 1 0.731157 0.169803 0.505201
2996 1 0.719727 0.179622 0.505714
2790 1 0.729235 0.190265 0.505672
3113 1 0.746752 0.171883 0.506289
3129 1 0.760094 0.17425 0.506472
3119 1 0.749442 0.183738 0.50505
5514 1 0.764571 0.18688 0.507653
3123 1 0.776552 0.180059 0.506752
3411 1 0.792744 0.177626 0.50683
3135 1 0.807142 0.177778 0.5062
2789 1 0.816457 0.167847 0.504351
3672 1 0.810913 0.190419 0.504741
3144 1 0.825443 0.17879 0.50407
2853 1 0.834035 0.189636 0.502956
2989 1 0.851492 0.173661 0.501735
3210 1 0.845984 0.188864 0.501514
3138 1 0.839275 0.17721 0.503132
3066 1 0.868747 0.174025 0.501358
2867 1 0.859389 0.183256 0.502347
3142 1 0.880506 0.181063 0.501261
675 1 0.870553 0.190397 0.501763
3215 1 0.878537 0.167727 0.500277
3133 1 0.906035 0.179614 0.500086
407 1 0.933667 0.186 0.500043
3374 1 0.528229 0.205741 0.501841
315 1 0.541371 0.209247 0.500543
3440 1 0.541696 0.196292 0.500225
3868 1 0.580343 0.21292 0.500022
3999 1 0.600625 0.190708 0.500385
3395 1 0.611119 0.20494 0.500534
3329 1 0.621692 0.197097 0.502079
3050 1 0.633467 0.197384 0.504123
3247 1 0.636458 0.209538 0.503309
2907 1 0.623046 0.212229 0.50335
3041 1 0.643985 0.192174 0.505707
2839 1 0.651555 0.206729 0.505189
2999 1 0.657199 0.195575 0.506062
3116 1 0.668444 0.205236 0.5063
3047 1 0.687738 0.196184 0.505642
5440 1 0.673222 0.192994 0.505281
5496 1 0.683428 0.210381 0.505646
2911 1 0.699347 0.1963 0.506714
2978 1 0.695384 0.212563 0.505413
3187 1 0.707219 0.207437 0.506069
3249 1 0.718786 0.197578 0.506366
3597 1 0.722144 0.213359 0.505522
2852 1 0.732982 0.205259 0.506822
3541 1 0.741385 0.194519 0.506183
3803 1 0.75473 0.196132 0.505935
3523 1 0.746486 0.209268 0.506258
3532 1 0.760584 0.212019 0.505614
3463 1 0.782117 0.194383 0.507862
3735 1 0.780239 0.207704 0.506017
3062 1 0.769609 0.200107 0.507144
3208 1 0.794299 0.205586 0.506893
2913 1 0.795473 0.192817 0.505901
39 1 0.807485 0.203041 0.504071
3061 1 0.822012 0.193105 0.503998
3201 1 0.822707 0.207651 0.503248
3001 1 0.834239 0.201103 0.503634
3118 1 0.837702 0.213474 0.501954
5511 1 0.847361 0.205325 0.502029
2898 1 0.857058 0.196055 0.500501
5431 1 0.870356 0.204385 0.500268
3356 1 0.893688 0.191842 0.501012
2859 1 0.893005 0.204909 0.500819
3273 1 0.884318 0.213123 0.501156
3427 1 0.904379 0.212078 0.502132
177 1 0.919137 0.1931 0.500668
2940 1 0.913574 0.204974 0.500773
3290 1 0.925735 0.202691 0.503223
3150 1 0.946164 0.209738 0.50089
3148 1 0.969613 0.208974 0.500694
749 1 0.986594 0.213467 0.501052
3216 1 0.980653 0.201874 0.500069
3283 1 0.992683 0.199459 0.500662
3020 1 0.520954 0.214383 0.50029
2843 1 0.507539 0.217368 0.50012
3857 1 0.533213 0.221105 0.500554
3106 1 0.587377 0.237766 0.500666
4203 1 0.587044 0.222835 0.500874
3507 1 0.574806 0.231205 0.500254
3044 1 0.614202 0.219862 0.501336
4018 1 0.60229 0.230673 0.503392
3182 1 0.619784 0.230631 0.504732
2912 1 0.633397 0.22434 0.504024
3399 1 0.64134 0.236173 0.505384
3265 1 0.646049 0.220335 0.504277
3598 1 0.65468 0.233379 0.505582
3320 1 0.659558 0.218398 0.506041
3310 1 0.668619 0.232315 0.50751
3199 1 0.673082 0.218369 0.506654
3603 1 0.681164 0.234982 0.507518
3240 1 0.686466 0.224239 0.50625
3459 1 0.711657 0.222036 0.505667
3175 1 0.699994 0.229031 0.50586
3319 1 0.71612 0.234046 0.505596
3456 1 0.729299 0.226494 0.505609
3591 1 0.738734 0.219826 0.505749
3865 1 0.754183 0.225504 0.505574
3389 1 0.742435 0.233492 0.506477
3391 1 0.776135 0.220173 0.505894
3453 1 0.765325 0.228511 0.505345
3185 1 0.784783 0.231623 0.505317
3131 1 0.80325 0.216413 0.505777
3665 1 0.789039 0.218017 0.504982
3729 1 0.797892 0.226962 0.504243
3070 1 0.815603 0.217218 0.505144
3008 1 0.813567 0.230912 0.503625
3276 1 0.827699 0.221477 0.502932
3308 1 0.831557 0.232367 0.503485
3139 1 0.845937 0.233898 0.501915
3538 1 0.848205 0.219635 0.501673
527 1 0.860729 0.22486 0.502611
3128 1 0.870506 0.216564 0.501517
3140 1 0.872088 0.231253 0.503197
2972 1 0.860643 0.23798 0.504209
3055 1 0.883807 0.226019 0.502446
43 1 0.895894 0.22922 0.503779
3054 1 0.9194 0.220278 0.502886
410 1 0.908729 0.226083 0.502743
394 1 0.917951 0.236913 0.503836
3569 1 0.93093 0.229141 0.504344
3217 1 0.931937 0.215238 0.50227
3340 1 0.944669 0.225345 0.501599
195 1 0.973906 0.221366 0.502675
3134 1 0.95763 0.221059 0.501283
467 1 0.954675 0.235971 0.502228
3288 1 0.967787 0.231203 0.501917
669 1 0.987494 0.2274 0.502193
3714 1 0.570648 0.256476 0.500985
802 1 0.581238 0.249617 0.500952
943 1 0.592 0.25708 0.501064
3385 1 0.611598 0.242364 0.504759
3259 1 0.618188 0.254432 0.50545
4011 1 0.605671 0.25632 0.504156
1015 1 0.598596 0.245731 0.502546
3186 1 0.629562 0.241138 0.506541
3454 1 0.631378 0.261862 0.504601
3646 1 0.64136 0.250282 0.506558
3197 1 0.653605 0.248592 0.506414
3115 1 0.653789 0.260982 0.509226
3530 1 0.668161 0.259726 0.509172
3313 1 0.666977 0.246507 0.508384
3334 1 0.6793 0.250426 0.50791
3117 1 0.693639 0.254196 0.506854
3120 1 0.707589 0.247303 0.507657
3322 1 0.695679 0.240399 0.505859
3671 1 0.71938 0.252083 0.505625
3048 1 0.72891 0.242517 0.505458
3794 1 0.731814 0.259919 0.505513
3810 1 0.739705 0.248215 0.505705
3316 1 0.75268 0.253808 0.505492
2984 1 0.75832 0.243147 0.505374
3260 1 0.76681 0.254799 0.504105
3743 1 0.773137 0.240397 0.505851
179 1 0.780152 0.252924 0.504316
3881 1 0.803203 0.240559 0.502831
3805 1 0.789074 0.243149 0.502814
3256 1 0.793376 0.257298 0.501978
2934 1 0.810036 0.254458 0.503002
3341 1 0.820144 0.240271 0.503386
3079 1 0.825675 0.251869 0.503241
3132 1 0.83612 0.243042 0.502878
2930 1 0.850624 0.245669 0.503684
3126 1 0.841548 0.254464 0.502944
3071 1 0.864083 0.250359 0.504243
2938 1 0.87394 0.258038 0.504832
468 1 0.877251 0.24417 0.50391
3146 1 0.902685 0.239794 0.502857
3342 1 0.890471 0.24348 0.502193
3353 1 0.887006 0.256685 0.503764
324 1 0.899059 0.25237 0.504039
3345 1 0.914525 0.249436 0.504828
673 1 0.923188 0.258541 0.504248
3147 1 0.9415 0.238154 0.502176
3203 1 0.929306 0.244141 0.502667
326 1 0.947346 0.248714 0.503579
535 1 0.93618 0.254487 0.504734
3213 1 0.962648 0.247845 0.502169
251 1 0.956544 0.259379 0.505491
3285 1 0.97756 0.239036 0.502837
668 1 0.992713 0.238576 0.504672
537 1 0.977855 0.255845 0.506462
539 1 0.99054 0.251524 0.505584
3579 1 0.520894 0.270208 0.501536
796 1 0.506057 0.280468 0.501996
3446 1 0.501969 0.267653 0.501279
4134 1 0.547341 0.281192 0.500934
1083 1 0.562979 0.281461 0.500854
4132 1 0.562259 0.267793 0.500058
3781 1 0.574922 0.274728 0.501655
3445 1 0.587254 0.281969 0.502626
2901 1 0.592186 0.271275 0.503661
3522 1 0.604045 0.268557 0.504664
3648 1 0.603538 0.281654 0.505556
934 1 0.617455 0.281825 0.507022
3596 1 0.616878 0.268649 0.506489
3455 1 0.633613 0.276703 0.506087
3723 1 0.643572 0.264832 0.507478
3246 1 0.646481 0.278432 0.507304
3377 1 0.659363 0.273393 0.508472
3243 1 0.681078 0.263861 0.507904
3460 1 0.670225 0.279075 0.507932
3944 1 0.681905 0.277788 0.507257
3387 1 0.706629 0.262757 0.506467
3936 1 0.692967 0.270457 0.504835
3306 1 0.6974 0.284566 0.505706
3872 1 0.707545 0.275462 0.506169
3111 1 0.720237 0.266124 0.506073
3796 1 0.723683 0.277876 0.505712
4013 1 0.737813 0.275828 0.505948
3802 1 0.743829 0.263128 0.507315
3323 1 0.758663 0.265772 0.505666
3328 1 0.74999 0.277253 0.504036
3593 1 0.767827 0.274806 0.503853
596 1 0.777433 0.266828 0.501993
389 1 0.775625 0.284721 0.501938
2922 1 0.78977 0.285083 0.501199
3335 1 0.788635 0.271112 0.5019
2923 1 0.800421 0.278324 0.501797
3188 1 0.805556 0.26599 0.501369
3271 1 0.821566 0.265515 0.503123
3470 1 0.815548 0.278357 0.502065
3191 1 0.828374 0.282617 0.50415
3193 1 0.834692 0.267121 0.504204
3344 1 0.852335 0.273688 0.504909
3125 1 0.842174 0.282519 0.504524
2866 1 0.857917 0.261926 0.50413
2914 1 0.863402 0.283361 0.505653
397 1 0.868803 0.269738 0.505186
3421 1 0.875014 0.28122 0.505199
3277 1 0.881628 0.26928 0.505273
3639 1 0.896196 0.267388 0.505082
330 1 0.887707 0.280068 0.504499
390 1 0.904337 0.277917 0.504582
396 1 0.907221 0.262553 0.504732
3498 1 0.91738 0.271642 0.506583
598 1 0.930464 0.268006 0.505972
398 1 0.945589 0.267048 0.506487
3570 1 0.941011 0.28101 0.507218
666 1 0.964358 0.271201 0.507403
393 1 0.953125 0.280589 0.507589
3701 1 0.96587 0.284038 0.509189
391 1 0.981079 0.272119 0.507551
881 1 0.993453 0.282603 0.508503
1034 1 0.99316 0.267371 0.507302
462 1 0.982052 0.285226 0.509389
1142 1 0.505956 0.294498 0.50144
3851 1 0.512406 0.306496 0.500966
3380 1 0.517096 0.287806 0.501735
805 1 0.530914 0.286045 0.500493
1085 1 0.525206 0.299316 0.501487
939 1 0.540279 0.296518 0.501566
3786 1 0.535901 0.307462 0.503733
3644 1 0.552267 0.295695 0.503376
3594 1 0.563768 0.296933 0.503074
1084 1 0.555222 0.307305 0.504264
3512 1 0.574075 0.289336 0.503873
3801 1 0.577443 0.300727 0.505404
3994 1 0.590154 0.296057 0.5054
3721 1 0.598239 0.307761 0.50447
3730 1 0.603528 0.294265 0.505465
3599 1 0.610463 0.305123 0.507375
3521 1 0.618757 0.294535 0.506432
3584 1 0.63534 0.288858 0.507174
4069 1 0.631203 0.301596 0.508407
3738 1 0.656454 0.287319 0.507744
3715 1 0.64534 0.298726 0.508598
3252 1 0.658173 0.299693 0.50765
3327 1 0.668292 0.291365 0.507105
3304 1 0.676612 0.30241 0.506246
3870 1 0.683674 0.291046 0.504785
3726 1 0.689628 0.308057 0.503852
4146 1 0.699915 0.300015 0.505748
3534 1 0.712717 0.287714 0.505606
3192 1 0.712913 0.300344 0.505032
3393 1 0.724281 0.291119 0.505561
3808 1 0.737752 0.288914 0.505083
3056 1 0.728832 0.302019 0.504114
3531 1 0.761183 0.286631 0.504092
3676 1 0.756479 0.305653 0.501382
108 1 0.750601 0.296375 0.504364
3122 1 0.741822 0.304662 0.503844
3935 1 0.806965 0.28918 0.501968
3121 1 0.821465 0.291678 0.500044
3339 1 0.823078 0.305919 0.500095
3873 1 0.810498 0.30422 0.501026
3607 1 0.853288 0.288913 0.50385
1019 1 0.851897 0.301378 0.504543
3284 1 0.83624 0.296001 0.501878
3289 1 0.87068 0.292973 0.503769
399 1 0.866767 0.305045 0.504904
3281 1 0.88056 0.307277 0.504606
3486 1 0.88312 0.292301 0.505459
3429 1 0.898929 0.290431 0.504801
3348 1 0.89147 0.303072 0.50474
736 1 0.918058 0.285874 0.506697
3493 1 0.908508 0.298358 0.505946
602 1 0.922991 0.297353 0.506694
693 1 0.930742 0.287879 0.508155
950 1 0.934436 0.301455 0.509512
3347 1 0.944236 0.293135 0.508358
883 1 0.952413 0.306849 0.510068
879 1 0.956668 0.294881 0.508398
822 1 0.974633 0.295604 0.510025
3426 1 0.966969 0.30855 0.509077
3638 1 0.987769 0.300303 0.508676
1363 1 0.508311 0.319064 0.501402
1365 1 0.52046 0.316174 0.501173
1154 1 0.509106 0.332775 0.503634
3592 1 0.521904 0.329433 0.503196
4135 1 0.532063 0.32026 0.504329
1221 1 0.545602 0.315317 0.504297
1077 1 0.539945 0.329832 0.50574
3645 1 0.567239 0.310656 0.506591
3371 1 0.552631 0.325785 0.505969
1425 1 0.566947 0.323909 0.504088
3859 1 0.581442 0.312274 0.504162
3724 1 0.591706 0.318821 0.504961
1011 1 0.580713 0.326487 0.505518
3176 1 0.602041 0.324974 0.506404
1224 1 0.612588 0.317929 0.507008
3655 1 0.613635 0.331664 0.50801
3804 1 0.622291 0.31019 0.507506
4352 1 0.623785 0.324095 0.508417
3384 1 0.635681 0.315637 0.508913
4211 1 0.634078 0.332957 0.509654
3515 1 0.64941 0.310603 0.508421
3736 1 0.646803 0.326256 0.509042
3346 1 0.657837 0.321008 0.507522
3867 1 0.666377 0.309598 0.506509
3799 1 0.668287 0.328639 0.507305
3731 1 0.677888 0.316724 0.506021
3386 1 0.681213 0.330296 0.506928
4071 1 0.706016 0.313278 0.504832
4083 1 0.694474 0.319841 0.504994
4081 1 0.706815 0.330458 0.504037
3878 1 0.720236 0.311315 0.506297
4010 1 0.722039 0.32488 0.504428
3752 1 0.732578 0.315615 0.503956
3324 1 0.74126 0.325334 0.503081
3727 1 0.749124 0.315973 0.502512
3352 1 0.753427 0.328802 0.502066
3326 1 0.762909 0.316119 0.500803
4091 1 0.766869 0.328937 0.500083
3398 1 0.798776 0.333269 0.500089
3471 1 0.822455 0.32147 0.500165
3351 1 0.809907 0.323428 0.50041
531 1 0.833837 0.312932 0.502177
3267 1 0.844613 0.31273 0.503943
3358 1 0.840023 0.330156 0.502011
3428 1 0.852714 0.331596 0.502825
392 1 0.856495 0.317773 0.503812
3200 1 0.865934 0.327912 0.505025
3630 1 0.872086 0.316528 0.504299
3487 1 0.880644 0.326887 0.504623
3500 1 0.890891 0.319175 0.506148
3555 1 0.902497 0.309725 0.506641
3629 1 0.900519 0.325201 0.503902
461 1 0.91505 0.310757 0.505188
880 1 0.927354 0.313599 0.506408
607 1 0.926964 0.325628 0.507426
463 1 0.914851 0.326751 0.505644
3424 1 0.942327 0.314793 0.508899
3272 1 0.942788 0.32932 0.507967
3430 1 0.972025 0.320726 0.509667
958 1 0.956906 0.320876 0.508204
460 1 0.980486 0.311107 0.510305
951 1 0.993355 0.312455 0.50997
3564 1 0.986982 0.323992 0.511083
3788 1 0.502523 0.343128 0.503414
3793 1 0.516015 0.34383 0.505052
3996 1 0.522876 0.352785 0.503181
3733 1 0.528071 0.339883 0.502342
3785 1 0.540506 0.343636 0.5041
1218 1 0.535512 0.354815 0.50417
3296 1 0.553589 0.337603 0.504878
3588 1 0.560592 0.347183 0.50638
3450 1 0.548418 0.354254 0.504139
4139 1 0.572094 0.342184 0.505956
3667 1 0.573862 0.354961 0.506717
3451 1 0.585037 0.340413 0.507688
4277 1 0.586695 0.353824 0.509214
4416 1 0.596318 0.337369 0.50754
3657 1 0.60804 0.343567 0.508332
3662 1 0.600828 0.356685 0.508587
3526 1 0.624155 0.341163 0.510363
4136 1 0.635563 0.349434 0.510918
4151 1 0.619073 0.354777 0.508294
3517 1 0.656191 0.336762 0.50875
3382 1 0.665608 0.346131 0.507162
3663 1 0.643506 0.340822 0.509934
4526 1 0.648556 0.351627 0.509505
3882 1 0.67962 0.342798 0.506922
4284 1 0.681481 0.357091 0.50507
3883 1 0.693258 0.334442 0.505696
4002 1 0.703529 0.344404 0.503353
3946 1 0.692269 0.347042 0.505264
4090 1 0.710801 0.355473 0.503058
4159 1 0.718827 0.336604 0.501704
3468 1 0.731276 0.334006 0.502614
3469 1 0.722495 0.349666 0.503457
3869 1 0.737295 0.345878 0.501738
3947 1 0.747886 0.339109 0.504246
3266 1 0.760161 0.354699 0.503001
3673 1 0.74799 0.35212 0.503353
3282 1 0.760084 0.340605 0.501761
3332 1 0.774438 0.343858 0.501144
3497 1 0.774045 0.355445 0.501358
3410 1 0.788849 0.343549 0.500192
3674 1 0.802202 0.350878 0.500133
3745 1 0.832028 0.357071 0.50156
3333 1 0.815732 0.355544 0.501379
3550 1 0.823438 0.334288 0.500197
3560 1 0.83429 0.342696 0.500918
2793 1 0.846416 0.34573 0.503076
3544 1 0.875108 0.33911 0.504317
322 1 0.86189 0.340357 0.503985
3420 1 0.86715 0.353317 0.503881
743 1 0.880504 0.350905 0.503547
3565 1 0.892016 0.336699 0.504161
3615 1 0.892276 0.348297 0.502522
3270 1 0.906895 0.354562 0.503329
3354 1 0.907795 0.338946 0.504091
3474 1 0.919995 0.341494 0.50457
3496 1 0.918384 0.354704 0.502776
3492 1 0.943895 0.345704 0.506719
3491 1 0.933826 0.337092 0.506362
3978 1 0.930567 0.350849 0.506588
892 1 0.967862 0.335335 0.508569
3627 1 0.954342 0.335527 0.507852
3768 1 0.955141 0.350208 0.508099
3488 1 0.967851 0.346834 0.507469
612 1 0.995249 0.334365 0.510966
3704 1 0.982935 0.350073 0.510218
3559 1 0.982487 0.335915 0.508753
3766 1 0.995868 0.348596 0.50912
3992 1 0.506554 0.357411 0.503117
3862 1 0.512749 0.368127 0.504106
3518 1 0.527054 0.365453 0.50382
3452 1 0.544202 0.367057 0.50644
1575 1 0.534369 0.37625 0.504905
3853 1 0.562516 0.361352 0.50749
3921 1 0.55498 0.373225 0.506308
3991 1 0.574096 0.369887 0.506954
3529 1 0.592412 0.369111 0.508109
4281 1 0.611428 0.37019 0.510286
3321 1 0.624971 0.373826 0.509654
4008 1 0.629934 0.363018 0.509418
3447 1 0.63611 0.380526 0.510134
3934 1 0.642501 0.363847 0.507815
3792 1 0.647824 0.374622 0.507531
3928 1 0.660068 0.379282 0.507183
3866 1 0.656305 0.362303 0.506709
4080 1 0.668922 0.358976 0.50636
4224 1 0.670766 0.373782 0.505615
3967 1 0.689422 0.367618 0.505179
3683 1 0.684532 0.379684 0.505484
4019 1 0.699885 0.357591 0.50447
3891 1 0.708804 0.371067 0.50455
4231 1 0.697872 0.380158 0.50439
3945 1 0.73284 0.358235 0.502788
3528 1 0.72167 0.364283 0.504375
3725 1 0.72253 0.37811 0.503808
3807 1 0.732766 0.370929 0.502889
3248 1 0.744765 0.364377 0.503148
4163 1 0.753416 0.375172 0.502425
3394 1 0.764085 0.366488 0.503355
3681 1 0.779671 0.367953 0.500824
3664 1 0.770283 0.379194 0.501169
530 1 0.804681 0.365117 0.50132
3884 1 0.788032 0.357614 0.500242
3275 1 0.793436 0.369934 0.501112
3823 1 0.833294 0.371583 0.501503
2916 1 0.820779 0.366396 0.500819
3465 1 0.845624 0.360116 0.502683
3388 1 0.846881 0.374381 0.500856
3697 1 0.85935 0.380912 0.501421
3626 1 0.860553 0.367139 0.500487
3479 1 0.875767 0.368161 0.500926
3825 1 0.891651 0.374256 0.502503
3278 1 0.890765 0.360856 0.502423
529 1 0.904422 0.366784 0.503222
3350 1 0.918098 0.368165 0.504089
3617 1 0.914891 0.379945 0.501409
3678 1 0.942241 0.358118 0.505644
3269 1 0.931312 0.36478 0.505053
3425 1 0.929872 0.379308 0.502067
3613 1 0.942465 0.373808 0.505424
806 1 0.96375 0.36076 0.508277
3553 1 0.952928 0.365359 0.507014
3959 1 0.963603 0.372964 0.50752
3545 1 0.953199 0.380513 0.505185
3473 1 0.974537 0.379792 0.507208
3972 1 0.976515 0.362399 0.509596
3124 1 0.98942 0.361841 0.508966
3756 1 0.983573 0.374002 0.50844
3926 1 0.510364 0.383905 0.503906
1570 1 0.521923 0.395628 0.504687
1222 1 0.506704 0.395232 0.502074
3653 1 0.523901 0.38136 0.504581
4219 1 0.534621 0.393734 0.505541
3931 1 0.545616 0.385986 0.505574
3719 1 0.565309 0.380954 0.508299
3711 1 0.558106 0.391042 0.506133
1074 1 0.55259 0.401236 0.506761
4630 1 0.565857 0.403991 0.508736
3661 1 0.573579 0.393794 0.508268
3245 1 0.581085 0.38145 0.508582
4341 1 0.586685 0.395374 0.509065
4068 1 0.596307 0.383724 0.510161
3590 1 0.612053 0.383678 0.508282
4087 1 0.601004 0.396354 0.508391
3871 1 0.615275 0.401336 0.508617
4023 1 0.624371 0.388694 0.509056
4077 1 0.638227 0.395287 0.50875
3235 1 0.627889 0.400747 0.510953
3658 1 0.657708 0.391501 0.506152
4099 1 0.647906 0.387556 0.508152
3585 1 0.654789 0.404479 0.508655
4157 1 0.673064 0.388169 0.506023
3993 1 0.66841 0.398648 0.506772
3941 1 0.681295 0.399642 0.50417
3815 1 0.713688 0.386232 0.503274
4086 1 0.692869 0.395641 0.503846
4160 1 0.704896 0.395558 0.502929
4385 1 0.719434 0.396317 0.502533
3937 1 0.731054 0.388072 0.502115
3952 1 0.73646 0.40073 0.501752
3806 1 0.760647 0.386469 0.500859
3604 1 0.741387 0.382078 0.501599
3876 1 0.749283 0.392968 0.500852
3337 1 0.766342 0.398282 0.50166
3747 1 0.777774 0.391394 0.500637
3396 1 0.802189 0.40331 0.50085
3212 1 0.807739 0.393105 0.500706
3357 1 0.820567 0.382288 0.502073
3692 1 0.837838 0.38675 0.500308
3392 1 0.860274 0.395006 0.500221
3274 1 0.874819 0.384054 0.50075
3546 1 0.902722 0.39387 0.501131
3414 1 0.889447 0.387952 0.500673
3691 1 0.902156 0.381142 0.501311
3775 1 0.921805 0.390831 0.502116
3689 1 0.940995 0.388576 0.503942
3827 1 0.943988 0.401306 0.501495
3831 1 0.931626 0.40111 0.501971
3844 1 0.955777 0.399254 0.501816
3764 1 0.970881 0.399557 0.502075
3682 1 0.963826 0.388356 0.504035
3563 1 0.993919 0.38293 0.508947
3542 1 0.983924 0.390364 0.505642
3900 1 0.993896 0.398798 0.505629
4004 1 0.514673 0.409965 0.503582
4344 1 0.502948 0.417627 0.503599
4208 1 0.516929 0.428392 0.505519
3927 1 0.526652 0.409511 0.506363
4205 1 0.541399 0.406195 0.506173
3587 1 0.527766 0.421636 0.504736
3998 1 0.540675 0.419866 0.506445
4014 1 0.553776 0.412454 0.5075
4144 1 0.567046 0.418515 0.507404
4078 1 0.553932 0.425682 0.506652
3668 1 0.584061 0.418556 0.508508
3728 1 0.578949 0.408025 0.50762
3659 1 0.591574 0.406445 0.509188
4427 1 0.57649 0.42827 0.506774
4143 1 0.597735 0.42201 0.509077
3948 1 0.603819 0.409139 0.510276
4075 1 0.615441 0.418043 0.509307
3966 1 0.64223 0.406519 0.508466
4076 1 0.628006 0.414114 0.508022
4299 1 0.641685 0.418859 0.509545
3797 1 0.652188 0.427172 0.507645
3813 1 0.660795 0.416921 0.509185
3863 1 0.672106 0.409698 0.508394
4349 1 0.675494 0.421972 0.507554
3790 1 0.684082 0.414124 0.504312
4437 1 0.688941 0.426515 0.50686
3875 1 0.711119 0.406837 0.502279
3938 1 0.697349 0.411687 0.503542
3861 1 0.707072 0.421113 0.503355
4082 1 0.718584 0.418219 0.501924
4020 1 0.725942 0.407437 0.503104
4383 1 0.731503 0.4194 0.501154
3885 1 0.741309 0.411619 0.500799
4223 1 0.751768 0.421351 0.500941
3612 1 0.753804 0.407528 0.500488
3880 1 0.764914 0.410229 0.500685
3949 1 0.777121 0.404961 0.501507
3533 1 0.790087 0.412588 0.500504
3417 1 0.925135 0.414454 0.5009
3484 1 0.942575 0.428431 0.501033
3828 1 0.93898 0.415062 0.500665
3287 1 0.964488 0.412685 0.500244
3609 1 0.952624 0.416314 0.500977
3549 1 0.966308 0.426773 0.501816
3684 1 0.982453 0.405645 0.503448
3336 1 0.978053 0.418346 0.502809
3889 1 0.992357 0.412024 0.504985
3780 1 0.993163 0.425099 0.504283
1364 1 0.523633 0.448656 0.504899
3734 1 0.505771 0.431425 0.504638
1346 1 0.513188 0.441349 0.506281
3718 1 0.526091 0.436277 0.504827
4280 1 0.535301 0.445232 0.504259
1641 1 0.541117 0.432209 0.506468
1715 1 0.549741 0.447003 0.505999
4201 1 0.563233 0.45046 0.50614
1435 1 0.561917 0.437414 0.506281
4209 1 0.574008 0.440561 0.506804
4003 1 0.590863 0.432306 0.508248
4206 1 0.588957 0.44479 0.506195
4345 1 0.601179 0.445028 0.509877
4012 1 0.606253 0.43218 0.509281
3943 1 0.634098 0.431727 0.50809
4079 1 0.620185 0.445102 0.509204
4433 1 0.620336 0.431284 0.511176
3814 1 0.632917 0.445782 0.508984
3939 1 0.644745 0.438552 0.507068
4085 1 0.647229 0.44971 0.508272
4313 1 0.665242 0.430701 0.506369
4015 1 0.656873 0.439359 0.50768
4142 1 0.66936 0.449476 0.505993
4016 1 0.677595 0.436233 0.507374
4025 1 0.685208 0.450867 0.504839
4027 1 0.691329 0.440084 0.506294
4371 1 0.699305 0.43035 0.503545
4300 1 0.71098 0.434892 0.504519
3953 1 0.702751 0.445802 0.503108
4237 1 0.733418 0.44278 0.502305
4098 1 0.722065 0.445306 0.502785
3740 1 0.723302 0.430847 0.50313
3879 1 0.739426 0.430314 0.502774
4174 1 0.97439 0.443956 0.502174
3913 1 0.96371 0.438391 0.502748
4033 1 0.999147 0.450822 0.503695
3765 1 0.982032 0.433657 0.5036
4105 1 0.995554 0.438441 0.504449
3896 1 0.986307 0.448563 0.504413
1920 1 0.522023 0.473546 0.504062
1625 1 0.508155 0.469343 0.502911
4481 1 0.510854 0.454828 0.503851
4273 1 0.538135 0.456928 0.504538
4292 1 0.53621 0.469012 0.505811
3860 1 0.524706 0.460657 0.50373
3791 1 0.566173 0.465205 0.50654
1563 1 0.550614 0.462917 0.505662
3789 1 0.55782 0.474924 0.505148
3950 1 0.589403 0.472588 0.507898
4417 1 0.576187 0.453606 0.506958
4412 1 0.588334 0.45879 0.508221
3514 1 0.577225 0.470579 0.507589
4149 1 0.615753 0.475726 0.508904
4207 1 0.616315 0.463515 0.508433
3961 1 0.61084 0.452532 0.511649
4353 1 0.603223 0.464625 0.508601
1495 1 0.628733 0.458484 0.508846
4346 1 0.640085 0.461545 0.507467
3940 1 0.629424 0.470369 0.509477
4505 1 0.665302 0.464766 0.506606
4145 1 0.658086 0.455371 0.508517
3932 1 0.65104 0.469228 0.507489
4217 1 0.677915 0.461674 0.508453
4295 1 0.688159 0.468936 0.504265
4093 1 0.708067 0.467071 0.503317
4102 1 0.713094 0.454344 0.503846
4026 1 0.695794 0.458469 0.505553
4289 1 0.731732 0.455196 0.501688
4369 1 0.721528 0.465582 0.502478
4042 1 0.935722 0.466171 0.500631
3903 1 0.966885 0.471858 0.500609
3472 1 0.963408 0.456031 0.502268
3675 1 0.95268 0.465948 0.500418
3977 1 0.998322 0.47011 0.503746
3899 1 0.976581 0.457872 0.502193
4054 1 0.98145 0.469615 0.502864
3974 1 0.990411 0.462068 0.50292
1636 1 0.519327 0.490273 0.502255
1284 1 0.510173 0.481153 0.501853
1779 1 0.544246 0.479806 0.504923
4622 1 0.531911 0.48338 0.504485
1642 1 0.5343 0.498413 0.503099
4494 1 0.570224 0.482118 0.506238
4271 1 0.558443 0.488776 0.505476
1713 1 0.571212 0.495374 0.50573
3864 1 0.548362 0.495487 0.504119
4414 1 0.584084 0.490208 0.507291
1503 1 0.606362 0.499279 0.50654
4067 1 0.615022 0.488631 0.507689
3995 1 0.604152 0.479414 0.507299
4213 1 0.596543 0.490286 0.50706
4230 1 0.64237 0.481442 0.507654
4007 1 0.634235 0.49371 0.508052
4454 1 0.628543 0.484135 0.506811
4441 1 0.648641 0.493511 0.508532
3942 1 0.660193 0.476233 0.506704
4287 1 0.66147 0.489634 0.505578
4382 1 0.683536 0.499659 0.503993
4305 1 0.672443 0.477452 0.505829
4657 1 0.685084 0.481019 0.504042
4662 1 0.673642 0.489999 0.50413
4367 1 0.711862 0.480532 0.502241
4017 1 0.698773 0.478928 0.501799
4233 1 0.694296 0.491039 0.503901
3819 1 0.708226 0.493585 0.502673
4089 1 0.723332 0.488409 0.501751
4518 1 0.72595 0.477294 0.500316
4319 1 0.96501 0.489388 0.502481
4241 1 0.955934 0.478512 0.501287
4032 1 0.979227 0.496398 0.501223
4669 1 0.977047 0.482585 0.503506
4035 1 0.989155 0.482001 0.502213
4177 1 0.992023 0.494189 0.503368
1706 1 0.502386 0.521328 0.498256
1631 1 0.517609 0.520912 0.499496
1560 1 0.532421 0.518925 0.499936
4084 1 0.740548 0.509223 0.499312
3744 1 0.75511 0.523273 0.497906
4227 1 0.743337 0.520571 0.499328
3751 1 0.754108 0.510787 0.497966
4368 1 0.769235 0.518759 0.498148
3818 1 0.764473 0.505353 0.497852
3958 1 0.77835 0.505182 0.49648
4316 1 0.784938 0.518765 0.497712
3614 1 0.803337 0.503256 0.494273
4366 1 0.796137 0.512254 0.496217
4092 1 0.809194 0.514552 0.494835
3679 1 0.817149 0.502292 0.493651
4095 1 0.822473 0.514917 0.494431
4650 1 0.834438 0.509002 0.493423
4314 1 0.837355 0.522096 0.493288
4522 1 0.84591 0.510975 0.492442
4581 1 0.850973 0.521979 0.493083
4225 1 0.858565 0.511961 0.491979
4722 1 0.871544 0.506504 0.492134
4578 1 0.869184 0.522306 0.492759
4634 1 0.880936 0.511626 0.495054
4814 1 0.892527 0.502617 0.494784
4392 1 0.902789 0.511673 0.493509
4096 1 0.896525 0.520634 0.494388
3901 1 0.917121 0.507535 0.495285
4246 1 0.924565 0.518091 0.496265
5125 1 0.912224 0.519954 0.495645
3821 1 0.928919 0.50126 0.497017
4332 1 0.93463 0.512915 0.497822
4232 1 0.95151 0.513544 0.499283
4324 1 0.943065 0.501155 0.498063
4593 1 0.965695 0.520556 0.499646
4451 1 0.960187 0.500713 0.498828
4374 1 0.986226 0.517981 0.499293
1561 1 0.50809 0.545702 0.497159
2204 1 0.521341 0.543051 0.498124
1424 1 0.513595 0.532606 0.496982
1993 1 0.527566 0.532552 0.499435
1358 1 0.552273 0.544338 0.499538
4925 1 0.748594 0.535103 0.498396
4164 1 0.760458 0.536169 0.499747
4658 1 0.752951 0.547085 0.499742
4097 1 0.776599 0.531725 0.497962
4240 1 0.778503 0.545852 0.498434
4167 1 0.799459 0.525666 0.4966
4168 1 0.789012 0.53262 0.497817
4457 1 0.803165 0.536845 0.498289
4862 1 0.791437 0.54602 0.497904
4221 1 0.813689 0.52714 0.49577
4229 1 0.826485 0.527322 0.495346
4220 1 0.815721 0.539689 0.497057
4715 1 0.826766 0.546422 0.496733
4178 1 0.833581 0.537384 0.493337
4521 1 0.845814 0.535605 0.494541
4809 1 0.840831 0.546089 0.494575
4446 1 0.858093 0.532405 0.493689
4473 1 0.875072 0.534229 0.495414
4528 1 0.865326 0.543746 0.495276
4176 1 0.887139 0.528335 0.49526
4452 1 0.891057 0.543946 0.495076
5067 1 0.902908 0.53243 0.494011
4608 1 0.903283 0.547297 0.495435
4577 1 0.916629 0.533543 0.495538
4239 1 0.916262 0.547184 0.495459
3547 1 0.942724 0.524645 0.498381
4432 1 0.934381 0.541804 0.496921
4323 1 0.931394 0.529094 0.499928
4312 1 0.945435 0.538888 0.498466
4453 1 0.955989 0.530315 0.499372
4523 1 0.973685 0.537403 0.49836
4162 1 0.958304 0.543387 0.497669
4173 1 0.976816 0.526591 0.499524
4304 1 0.998702 0.539563 0.497422
4308 1 0.987293 0.535094 0.49908
1984 1 0.503012 0.568809 0.497882
2133 1 0.513776 0.556307 0.498079
2057 1 0.514985 0.569982 0.496966
1634 1 0.524518 0.561657 0.49854
4834 1 0.537763 0.563173 0.498569
4342 1 0.531157 0.550386 0.497635
1988 1 0.549029 0.569958 0.499113
2119 1 0.568512 0.569742 0.499316
4631 1 0.598217 0.566954 0.498839
4065 1 0.611173 0.566237 0.498308
4150 1 0.62967 0.563287 0.499305
4440 1 0.643749 0.568643 0.498606
4377 1 0.747917 0.569174 0.499759
4600 1 0.771383 0.563417 0.499246
4236 1 0.784145 0.559556 0.498806
4152 1 0.800745 0.554246 0.497562
4503 1 0.795287 0.565922 0.497168
4721 1 0.81494 0.552159 0.497216
4307 1 0.810068 0.563856 0.49732
4588 1 0.828178 0.561928 0.495898
4466 1 0.853352 0.550766 0.496
4987 1 0.840152 0.55813 0.497882
4390 1 0.853915 0.56576 0.497075
4928 1 0.841599 0.56963 0.498726
4387 1 0.877531 0.548468 0.495405
4094 1 0.864613 0.557145 0.498201
4575 1 0.867585 0.570989 0.49746
4529 1 0.877967 0.56144 0.495786
4378 1 0.890352 0.559129 0.495321
4107 1 0.904146 0.561809 0.495707
4450 1 0.916035 0.564479 0.494965
4253 1 0.925744 0.554667 0.495793
4311 1 0.928132 0.570422 0.496443
4242 1 0.939047 0.554859 0.497595
4525 1 0.939556 0.567221 0.496263
4251 1 0.969426 0.55416 0.497831
4317 1 0.953305 0.556857 0.496125
4388 1 0.966421 0.567934 0.496473
4170 1 0.953505 0.569049 0.497388
4110 1 0.998077 0.554159 0.498061
4116 1 0.982924 0.547856 0.49807
4609 1 0.984871 0.563141 0.497822
1921 1 0.508503 0.580895 0.499709
2131 1 0.516963 0.58592 0.495791
1707 1 0.506269 0.594154 0.497519
4836 1 0.528674 0.575109 0.496523
4703 1 0.53117 0.59126 0.496042
4551 1 0.545265 0.589968 0.499342
4765 1 0.540683 0.579249 0.49637
4500 1 0.559724 0.582243 0.499405
4762 1 0.577352 0.580957 0.499189
4283 1 0.590423 0.58157 0.497423
4483 1 0.600974 0.594979 0.495796
4498 1 0.605492 0.581066 0.498442
1714 1 0.617427 0.58896 0.498095
4351 1 0.632959 0.581486 0.498994
3929 1 0.638098 0.593587 0.499745
4693 1 0.619197 0.576865 0.499482
4202 1 0.652008 0.594699 0.498773
4449 1 0.647144 0.582407 0.498987
4638 1 0.748133 0.58371 0.499362
5049 1 0.758817 0.59107 0.499392
4594 1 0.760135 0.572683 0.499852
4507 1 0.779529 0.574406 0.499363
4718 1 0.777433 0.590609 0.499395
4438 1 0.769983 0.580512 0.497659
4421 1 0.791057 0.579081 0.497868
4288 1 0.804426 0.576522 0.496377
4358 1 0.796938 0.590707 0.498342
4880 1 0.808521 0.587836 0.498026
4785 1 0.829292 0.573789 0.497467
4724 1 0.817038 0.577171 0.49685
4649 1 0.821825 0.591247 0.497112
4252 1 0.835215 0.584125 0.496793
4873 1 0.848823 0.582525 0.495958
4255 1 0.86087 0.581821 0.496284
4322 1 0.873295 0.58309 0.496398
4444 1 0.88482 0.572841 0.496153
4597 1 0.886671 0.587254 0.497581
4460 1 0.89772 0.574376 0.497159
4321 1 0.903939 0.58646 0.49623
4759 1 0.912732 0.578444 0.496541
4218 1 0.924482 0.584111 0.496227
4596 1 0.938191 0.580177 0.496094
4402 1 0.95115 0.583967 0.496704
4266 1 0.942478 0.594389 0.494877
4825 1 0.964885 0.584605 0.49798
4536 1 0.999506 0.586487 0.496133
4320 1 0.990528 0.578151 0.496001
4161 1 0.977618 0.578151 0.496383
3776 1 0.982084 0.591223 0.496472
1703 1 0.51141 0.610031 0.498671
2129 1 0.520924 0.599403 0.495004
1986 1 0.524789 0.612698 0.497041
2205 1 0.537789 0.602471 0.497538
2046 1 0.535101 0.617687 0.497095
4565 1 0.548696 0.613562 0.498513
2183 1 0.556112 0.601917 0.499672
2270 1 0.56137 0.613691 0.498465
2130 1 0.57405 0.597277 0.498397
2132 1 0.574079 0.613188 0.496027
4761 1 0.58644 0.596699 0.496747
1982 1 0.585926 0.610576 0.496347
4001 1 0.613815 0.60177 0.497919
4707 1 0.599521 0.608585 0.495895
4365 1 0.618436 0.613873 0.497965
4901 1 0.633493 0.611605 0.497831
1643 1 0.626826 0.597986 0.498553
4296 1 0.65546 0.611168 0.498751
4140 1 0.66615 0.618274 0.499482
4423 1 0.662966 0.598745 0.499233
4293 1 0.753671 0.606848 0.499535
4210 1 0.739974 0.610778 0.498447
4228 1 0.766833 0.601517 0.499061
5061 1 0.778945 0.609833 0.498912
4584 1 0.785654 0.59993 0.498104
4509 1 0.798757 0.604631 0.497454
4656 1 0.79047 0.617413 0.498225
4448 1 0.811673 0.604559 0.49618
5003 1 0.825274 0.603879 0.495656
4327 1 0.82031 0.61883 0.494226
4302 1 0.837908 0.597446 0.4959
4514 1 0.83408 0.617709 0.494015
4464 1 0.851628 0.596123 0.495606
4297 1 0.843594 0.608421 0.495234
4855 1 0.853236 0.61779 0.494264
4857 1 0.865252 0.595371 0.495604
4470 1 0.879915 0.596303 0.495846
4781 1 0.858703 0.607367 0.494591
4461 1 0.871395 0.605623 0.494027
4664 1 0.885423 0.606187 0.494647
4780 1 0.8968 0.597116 0.495814
3964 1 0.898909 0.610151 0.492931
4325 1 0.911617 0.596982 0.495416
4541 1 0.92377 0.612811 0.494979
4545 1 0.911973 0.610464 0.49576
4397 1 0.926739 0.599126 0.495226
4118 1 0.939926 0.608706 0.493947
1506 1 0.972194 0.598004 0.496075
4546 1 0.953018 0.610782 0.494148
4398 1 0.956193 0.599091 0.496133
4616 1 0.966583 0.60897 0.495356
1786 1 0.99436 0.598951 0.495812
4120 1 0.980567 0.607807 0.496023
4458 1 0.99905 0.612066 0.497204
4333 1 0.988122 0.618058 0.497619
1911 1 0.503044 0.62213 0.498363
1913 1 0.516679 0.624744 0.49761
1980 1 0.51182 0.636071 0.49641
1978 1 0.525561 0.631255 0.496226
1976 1 0.538331 0.635976 0.497699
1781 1 0.545232 0.625838 0.496956
4773 1 0.550449 0.638606 0.497828
1633 1 0.566448 0.636626 0.498129
1917 1 0.557824 0.625954 0.498851
4426 1 0.570615 0.624578 0.497041
4482 1 0.583493 0.628805 0.496436
4831 1 0.579799 0.642039 0.498505
4691 1 0.593282 0.638621 0.497454
4627 1 0.608321 0.621369 0.496599
2186 1 0.595913 0.621841 0.49673
4636 1 0.6051 0.633898 0.496631
4508 1 0.616666 0.631608 0.495941
4278 1 0.627086 0.625859 0.497843
4992 1 0.636326 0.64022 0.497349
4155 1 0.640637 0.629277 0.497888
4491 1 0.645599 0.619086 0.496847
4359 1 0.655248 0.627738 0.499855
4418 1 0.648479 0.640374 0.497927
4496 1 0.666646 0.632327 0.499797
4286 1 0.696739 0.628579 0.499667
4837 1 0.7536 0.621362 0.499179
4362 1 0.755994 0.636568 0.498522
4587 1 0.775614 0.621929 0.498544
4572 1 0.770399 0.632221 0.499298
4995 1 0.782559 0.642748 0.49754
4445 1 0.786614 0.629435 0.497567
4303 1 0.796887 0.640449 0.496242
4729 1 0.80238 0.619865 0.496477
4822 1 0.806951 0.634652 0.495331
4620 1 0.820195 0.633509 0.493521
4520 1 0.832333 0.632025 0.493928
4736 1 0.844666 0.625687 0.49456
4386 1 0.848682 0.638149 0.493626
1999 1 0.866853 0.619159 0.494265
4590 1 0.860947 0.631315 0.494156
4613 1 0.872955 0.632378 0.49288
4456 1 0.863803 0.642146 0.494243
4533 1 0.883916 0.61985 0.492628
1927 1 0.897824 0.623285 0.494395
4244 1 0.884932 0.633958 0.495681
4250 1 0.895326 0.640565 0.493479
4793 1 0.905606 0.634175 0.493611
4249 1 0.912417 0.624101 0.49349
4666 1 0.920787 0.635272 0.493444
4821 1 0.942124 0.622934 0.494669
3834 1 0.929762 0.624696 0.493936
4257 1 0.946337 0.633867 0.495674
4550 1 0.934614 0.641052 0.495035
4183 1 0.973284 0.620789 0.496352
4259 1 0.965852 0.633245 0.495225
4185 1 0.956807 0.623931 0.494617
1731 1 0.954623 0.642657 0.495512
1367 1 0.982418 0.631987 0.496496
4199 1 0.999094 0.626954 0.496597
4256 1 0.993661 0.638188 0.497256
2197 1 0.518901 0.645393 0.496572
1904 1 0.508751 0.654582 0.496466
2045 1 0.521538 0.659769 0.498077
2050 1 0.532063 0.648054 0.497069
4918 1 0.533863 0.660817 0.496991
2063 1 0.54505 0.664693 0.498591
1843 1 0.544116 0.651841 0.496493
4973 1 0.557109 0.649947 0.497551
4842 1 0.569197 0.648644 0.498374
4348 1 0.557913 0.666313 0.496944
4214 1 0.569089 0.662858 0.496995
1572 1 0.594614 0.653446 0.497352
4073 1 0.580488 0.657679 0.497351
4356 1 0.606657 0.646122 0.498044
4764 1 0.617993 0.657611 0.498131
4569 1 0.605502 0.660114 0.497688
4700 1 0.620187 0.644143 0.497391
4637 1 0.631873 0.665993 0.498782
4360 1 0.63153 0.651729 0.498189
4573 1 0.647391 0.652797 0.496578
4561 1 0.659169 0.643227 0.499556
4510 1 0.661081 0.656287 0.498618
4696 1 0.644565 0.664825 0.498497
2134 1 0.687334 0.655022 0.499435
4420 1 0.674644 0.656959 0.499849
4997 1 0.70223 0.64717 0.499224
4628 1 0.698501 0.663352 0.499956
5127 1 0.7138 0.658126 0.498885
4861 1 0.757747 0.650321 0.499947
5119 1 0.74567 0.646642 0.499228
5062 1 0.756088 0.664348 0.499939
5064 1 0.770865 0.646948 0.498928
4566 1 0.774257 0.660078 0.497907
4488 1 0.785708 0.655605 0.496227
4363 1 0.797458 0.651997 0.494349
4361 1 0.806713 0.662905 0.494644
4589 1 0.813529 0.651122 0.494239
4882 1 0.824989 0.64634 0.495269
5270 1 0.832905 0.658685 0.493093
4807 1 0.819109 0.6644 0.494622
4790 1 0.838299 0.646739 0.492688
4471 1 0.85382 0.649566 0.492032
4959 1 0.846275 0.659524 0.492684
4599 1 0.876727 0.645371 0.493181
4679 1 0.868301 0.6538 0.493123
4538 1 0.858227 0.661419 0.491918
4601 1 0.888054 0.653613 0.492278
4475 1 0.881651 0.663781 0.491163
4607 1 0.894719 0.665675 0.49242
4823 1 0.901817 0.65583 0.493405
4238 1 0.912424 0.645073 0.494695
4468 1 0.917658 0.657757 0.495109
4690 1 0.929183 0.652306 0.494973
2006 1 0.945348 0.651272 0.495754
4480 1 0.938533 0.666215 0.497245
4180 1 0.975326 0.643163 0.497222
3970 1 0.966161 0.651569 0.496292
4338 1 0.973141 0.662408 0.498912
2008 1 0.953264 0.661682 0.496748
4189 1 0.985815 0.652946 0.496464
4188 1 0.998368 0.657979 0.49742
2178 1 0.51275 0.668382 0.496484
2059 1 0.516757 0.685039 0.497417
1469 1 0.505908 0.678603 0.498383
4642 1 0.528239 0.673492 0.498059
4903 1 0.539499 0.680235 0.498381
2177 1 0.529533 0.689208 0.498963
1704 1 0.553204 0.677502 0.498853
4692 1 0.568251 0.675803 0.497036
1916 1 0.56345 0.687464 0.497606
4635 1 0.579718 0.67514 0.495999
4204 1 0.576598 0.689757 0.496056
4495 1 0.591338 0.684705 0.495184
4777 1 0.591137 0.66772 0.496998
2049 1 0.601866 0.685959 0.498287
2053 1 0.605945 0.674006 0.497607
5209 1 0.613413 0.689437 0.499126
2128 1 0.617852 0.669545 0.49828
4990 1 0.623259 0.681104 0.497415
4698 1 0.636409 0.67838 0.49856
4644 1 0.655593 0.672015 0.497986
2202 1 0.649513 0.683365 0.498124
4487 1 0.665883 0.679864 0.499745
4710 1 0.668468 0.668819 0.497588
4646 1 0.684054 0.668979 0.4987
4991 1 0.679553 0.683706 0.499705
5051 1 0.753137 0.678068 0.499415
4787 1 0.768278 0.683372 0.498836
5341 1 0.780194 0.674016 0.497902
4806 1 0.78152 0.690094 0.497451
5196 1 0.766652 0.670295 0.498372
4854 1 0.792017 0.668697 0.495733
5058 1 0.794012 0.684496 0.49655
4728 1 0.805475 0.679134 0.495033
4655 1 0.832373 0.672024 0.492968
4805 1 0.820956 0.679074 0.494469
5026 1 0.846118 0.672506 0.492704
4376 1 0.83739 0.685968 0.492877
4720 1 0.848965 0.688839 0.494194
4248 1 0.85612 0.678975 0.493777
4827 1 0.869276 0.673053 0.491825
4803 1 0.864567 0.690426 0.49376
4539 1 0.875586 0.685319 0.493127
4516 1 0.885616 0.677063 0.492311
4399 1 0.899869 0.678493 0.494334
4543 1 0.889505 0.689879 0.494942
1788 1 0.907216 0.66802 0.49529
4175 1 0.914266 0.679161 0.495745
4123 1 0.925762 0.668327 0.495528
2359 1 0.92813 0.680301 0.496972
4673 1 0.940202 0.684462 0.497864
4478 1 0.950242 0.676058 0.499478
4404 1 0.963048 0.671192 0.498826
1366 1 0.988086 0.670759 0.498549
4264 1 0.97773 0.677451 0.498899
1716 1 0.98895 0.686778 0.4991
4570 1 0.502399 0.69182 0.497827
4705 1 0.516747 0.71213 0.498245
5059 1 0.512993 0.700193 0.497866
4994 1 0.503541 0.713912 0.498005
2055 1 0.52788 0.703318 0.498933
2262 1 0.544502 0.709839 0.499371
1770 1 0.539706 0.69652 0.499548
4763 1 0.550791 0.690597 0.498901
2127 1 0.567398 0.702581 0.498972
2201 1 0.595164 0.697173 0.497392
4978 1 0.583034 0.701991 0.498085
4563 1 0.588005 0.71328 0.499731
1922 1 0.576017 0.71172 0.498509
1772 1 0.61593 0.700458 0.497571
2268 1 0.605079 0.707737 0.498183
4917 1 0.627817 0.693834 0.498965
4704 1 0.64168 0.691703 0.498544
4701 1 0.641762 0.705814 0.49915
5050 1 0.627573 0.706441 0.49934
4839 1 0.655092 0.700437 0.499403
2198 1 0.668089 0.706676 0.49928
4937 1 0.708751 0.70708 0.499776
4653 1 0.760488 0.694454 0.499731
4749 1 0.771403 0.698769 0.496445
4531 1 0.762706 0.709672 0.498178
4746 1 0.784806 0.705373 0.497181
4393 1 0.807781 0.691851 0.495439
4794 1 0.796954 0.698465 0.494649
4580 1 0.805455 0.710447 0.495468
4586 1 0.825017 0.691143 0.492497
4742 1 0.816998 0.702097 0.495015
4534 1 0.831156 0.709323 0.494489
4474 1 0.848734 0.713611 0.494779
4818 1 0.837339 0.697487 0.494576
4670 1 0.853023 0.700758 0.494964
4469 1 0.86669 0.706597 0.494984
4820 1 0.877615 0.699381 0.494853
4719 1 0.889004 0.710577 0.496031
4261 1 0.897333 0.699342 0.496522
4396 1 0.907242 0.691102 0.494571
1646 1 0.909855 0.705102 0.496544
4960 1 0.918291 0.69367 0.49764
4895 1 0.922227 0.705193 0.498593
4329 1 0.933948 0.696187 0.499822
4401 1 0.945819 0.705079 0.498843
4391 1 0.952334 0.692757 0.499751
4618 1 0.992565 0.701001 0.499295
4702 1 0.506726 0.727824 0.499418
2065 1 0.531913 0.715785 0.499797
4784 1 0.616714 0.714554 0.499326
2052 1 0.603251 0.7195 0.499433
5207 1 0.621371 0.725903 0.499846
4798 1 0.638112 0.733029 0.499259
5052 1 0.63373 0.720468 0.499403
4778 1 0.659474 0.723211 0.499756
5078 1 0.645744 0.720022 0.499507
4641 1 0.693418 0.716633 0.499632
4779 1 0.708023 0.734164 0.499685
5000 1 0.723361 0.737933 0.499606
4579 1 0.757468 0.721984 0.496963
5103 1 0.752628 0.733006 0.4979
2422 1 0.768177 0.729576 0.496082
1931 1 0.774203 0.717036 0.49598
2001 1 0.782229 0.729469 0.495777
4950 1 0.793302 0.718366 0.495034
5021 1 0.807764 0.723581 0.495754
4610 1 0.796428 0.732496 0.495351
4735 1 0.818366 0.715142 0.495964
4443 1 0.827467 0.725822 0.495589
4532 1 0.816269 0.733119 0.495684
4887 1 0.83968 0.721821 0.494788
4675 1 0.842477 0.73511 0.49501
4606 1 0.854954 0.732819 0.49766
4661 1 0.861166 0.718911 0.49641
4677 1 0.878422 0.718382 0.496357
4476 1 0.86854 0.732004 0.497195
4955 1 0.896855 0.727202 0.498225
4463 1 0.883599 0.731062 0.497611
4410 1 0.90202 0.714693 0.497302
4900 1 0.909575 0.732763 0.499937
4603 1 0.953812 0.716662 0.499635
5053 1 0.647074 0.750182 0.499785
4869 1 0.733341 0.746569 0.498827
4789 1 0.747188 0.743976 0.499584
4929 1 0.743179 0.755972 0.499744
4874 1 0.754136 0.754821 0.498611
4733 1 0.760179 0.740893 0.498795
5102 1 0.773624 0.743116 0.496616
4865 1 0.782269 0.754853 0.497662
4788 1 0.76624 0.751705 0.497084
4819 1 0.788349 0.744453 0.494859
4868 1 0.800815 0.751662 0.494952
5029 1 0.806453 0.741499 0.493715
4676 1 0.830326 0.740654 0.494948
4815 1 0.818647 0.752073 0.495582
4890 1 0.834643 0.753707 0.495724
4883 1 0.851586 0.747409 0.496656
4969 1 0.846178 0.760498 0.495277
2219 1 0.86486 0.744967 0.498627
2066 1 0.876058 0.755069 0.49884
2573 1 0.877737 0.742229 0.497937
2074 1 0.860704 0.758362 0.496896
4172 1 0.889061 0.758952 0.4996
2058 1 0.668208 0.770121 0.499813
5281 1 0.695448 0.781164 0.499156
4981 1 0.730693 0.773091 0.498471
4672 1 0.720952 0.783142 0.498796
5013 1 0.742769 0.782421 0.496769
4802 1 0.745739 0.770078 0.498297
5290 1 0.756727 0.778282 0.497842
5022 1 0.760777 0.765903 0.4973
5159 1 0.773605 0.763552 0.496115
4946 1 0.770349 0.778633 0.497082
4743 1 0.784658 0.773765 0.496967
4888 1 0.793894 0.762703 0.497064
2073 1 0.808618 0.763506 0.494856
4513 1 0.800529 0.773538 0.496015
4741 1 0.790868 0.783453 0.497754
5023 1 0.82065 0.766386 0.496407
4801 1 0.813901 0.782946 0.496227
4886 1 0.827585 0.779887 0.496077
4671 1 0.835481 0.768949 0.496439
2072 1 0.849365 0.773171 0.497612
2067 1 0.861868 0.77395 0.49676
4816 1 0.873186 0.767836 0.498232
4965 1 0.878941 0.781524 0.498618
4824 1 0.893663 0.781109 0.498987
4826 1 0.886057 0.772041 0.499619
4734 1 0.730657 0.791321 0.496061
5292 1 0.735034 0.804857 0.49671
4986 1 0.717969 0.797619 0.499626
4944 1 0.74501 0.795403 0.495873
4859 1 0.757316 0.791636 0.495912
5406 1 0.753964 0.806408 0.496404
4674 1 0.770293 0.797195 0.497377
4602 1 0.77919 0.786906 0.497055
5011 1 0.779347 0.805989 0.497585
4730 1 0.802361 0.789253 0.497571
4717 1 0.788344 0.796419 0.496862
5034 1 0.799515 0.801282 0.496952
5163 1 0.812117 0.801756 0.498807
4962 1 0.822704 0.792053 0.495688
4739 1 0.830813 0.802099 0.498183
4953 1 0.854495 0.786833 0.497778
4811 1 0.84072 0.788008 0.498422
4817 1 0.84673 0.79944 0.498128
4753 1 0.867349 0.78779 0.499027
5090 1 0.857976 0.799688 0.498276
4898 1 0.877446 0.795394 0.499556
4957 1 0.868776 0.808274 0.499636
2278 1 0.894558 0.803567 0.499461
4866 1 0.633438 0.827055 0.499836
4795 1 0.668529 0.828491 0.499015
4951 1 0.680319 0.817368 0.49948
5066 1 0.694416 0.826091 0.498642
5160 1 0.695897 0.811935 0.499212
5095 1 0.732019 0.818484 0.49663
5415 1 0.721206 0.8257 0.499164
2954 1 0.71746 0.812082 0.497959
5091 1 0.737292 0.830224 0.497845
4948 1 0.759139 0.819594 0.496493
4737 1 0.745597 0.816103 0.496896
4800 1 0.75147 0.83038 0.497079
4893 1 0.768153 0.830747 0.496517
5147 1 0.769268 0.813177 0.496235
5037 1 0.777889 0.824864 0.497437
4812 1 0.802242 0.814466 0.498484
4727 1 0.787888 0.814737 0.496715
5024 1 0.795667 0.82986 0.4982
4813 1 0.82159 0.811961 0.49949
5031 1 0.830604 0.823971 0.499194
4592 1 0.813693 0.823153 0.499916
1863 1 0.840316 0.812136 0.498457
5245 1 0.847324 0.824651 0.498584
4956 1 0.853904 0.813346 0.498748
2293 1 0.863065 0.82733 0.498817
2071 1 0.875114 0.822647 0.498133
2207 1 0.889349 0.821455 0.49825
4881 1 0.614093 0.840892 0.498986
5322 1 0.620938 0.854269 0.49801
2775 1 0.632007 0.843768 0.499086
4926 1 0.644845 0.835098 0.49945
4930 1 0.644602 0.849791 0.499829
5014 1 0.678366 0.855237 0.499406
5009 1 0.684531 0.834041 0.499328
5355 1 0.688613 0.847099 0.499011
5008 1 0.70323 0.850051 0.49965
5284 1 0.703996 0.836891 0.499454
5080 1 0.724223 0.837962 0.498224
5275 1 0.71576 0.847724 0.499916
5342 1 0.736023 0.843817 0.497664
5296 1 0.747879 0.844518 0.495634
5219 1 0.739111 0.85604 0.498986
4605 1 0.78388 0.835664 0.496568
5087 1 0.761933 0.843026 0.496275
5140 1 0.765511 0.855283 0.497495
4892 1 0.775595 0.846177 0.496727
5077 1 0.792139 0.846747 0.497642
5221 1 0.804997 0.845346 0.498451
5166 1 0.825445 0.835546 0.498297
5224 1 0.813849 0.83611 0.499444
4668 1 0.822004 0.848393 0.49778
4966 1 0.854555 0.836031 0.4965
4896 1 0.834073 0.848121 0.497667
4871 1 0.840341 0.836553 0.498109
1932 1 0.847465 0.848649 0.4972
2349 1 0.871241 0.856442 0.497359
2136 1 0.866381 0.844794 0.497263
4830 1 0.878477 0.837477 0.498337
5032 1 0.894102 0.836897 0.499883
5238 1 0.884131 0.851516 0.498188
1929 1 0.902814 0.846747 0.499508
5280 1 0.568305 0.872837 0.499524
5285 1 0.578546 0.862912 0.499508
5357 1 0.610989 0.865285 0.499613
5114 1 0.608153 0.880832 0.499499
5397 1 0.636557 0.878799 0.499082
2817 1 0.622804 0.87398 0.499091
2766 1 0.632205 0.861501 0.497853
5324 1 0.664741 0.878901 0.499358
5204 1 0.652326 0.875709 0.49867
5335 1 0.646327 0.86335 0.498883
5084 1 0.670586 0.865281 0.499996
2958 1 0.687699 0.879548 0.498786
4958 1 0.684434 0.865843 0.497532
5181 1 0.711655 0.862588 0.499401
5194 1 0.697857 0.861333 0.498636
5291 1 0.700627 0.874291 0.499147
5352 1 0.727064 0.858261 0.499616
4877 1 0.715462 0.873392 0.498634
4740 1 0.730224 0.874099 0.498732
4659 1 0.75257 0.857702 0.49677
4652 1 0.744503 0.869212 0.497649
5198 1 0.758607 0.870042 0.497935
4747 1 0.772439 0.865264 0.497486
4732 1 0.767922 0.879489 0.498656
4889 1 0.783325 0.857452 0.498487
2068 1 0.780264 0.876872 0.496874
5161 1 0.801829 0.859052 0.496609
2137 1 0.792379 0.866867 0.49751
5017 1 0.799041 0.876847 0.495632
5167 1 0.81512 0.859114 0.49725
4897 1 0.811181 0.87359 0.49597
4744 1 0.830563 0.859767 0.498329
2348 1 0.823191 0.870177 0.497031
5101 1 0.856129 0.858251 0.497336
5244 1 0.84284 0.861219 0.497084
4968 1 0.854702 0.869953 0.496574
4961 1 0.83917 0.874776 0.496417
2140 1 0.880777 0.864911 0.497744
5035 1 0.865123 0.880527 0.497078
5109 1 0.867423 0.867488 0.496603
2210 1 0.877555 0.878003 0.498449
4828 1 0.891448 0.870689 0.499054
5465 1 0.576679 0.885814 0.499573
5213 1 0.586569 0.895005 0.499731
5187 1 0.617236 0.902506 0.498576
5396 1 0.602151 0.895573 0.498734
5391 1 0.630509 0.90412 0.499257
5264 1 0.619592 0.887693 0.499028
2893 1 0.634956 0.890655 0.498167
5338 1 0.648735 0.888106 0.499058
5398 1 0.642893 0.901166 0.498803
2897 1 0.685647 0.892116 0.499108
2772 1 0.672801 0.890812 0.498558
5279 1 0.680113 0.90411 0.499052
4932 1 0.706937 0.897335 0.497486
5210 1 0.699333 0.887924 0.498779
5010 1 0.710603 0.884769 0.496708
2272 1 0.69473 0.901839 0.498527
5358 1 0.727835 0.885727 0.496498
5150 1 0.71865 0.895125 0.494899
5488 1 0.729682 0.900428 0.494619
4723 1 0.743059 0.882354 0.497102
5016 1 0.754537 0.881666 0.496712
5018 1 0.742746 0.896061 0.495614
4804 1 0.752462 0.903814 0.494302
5217 1 0.758604 0.893532 0.495572
5152 1 0.767933 0.903986 0.494073
5092 1 0.773573 0.891499 0.496485
4872 1 0.784099 0.899273 0.495296
4949 1 0.789454 0.884403 0.497283
5086 1 0.801023 0.892724 0.494635
5154 1 0.797471 0.904547 0.496203
5019 1 0.812891 0.903858 0.494934
5303 1 0.829288 0.881742 0.495681
4947 1 0.811493 0.885718 0.495838
5156 1 0.822948 0.892423 0.4959
5299 1 0.846839 0.899148 0.49675
5240 1 0.837871 0.890715 0.496871
2208 1 0.851105 0.882292 0.497448
5229 1 0.857925 0.89071 0.497078
2069 1 0.873655 0.890729 0.498689
4745 1 0.898041 0.894409 0.499192
2360 1 0.885056 0.895787 0.497835
5253 1 0.583689 0.910633 0.499165
166 1 0.61606 0.918517 0.499827
5327 1 0.60665 0.908404 0.498739
3030 1 0.628736 0.920506 0.499985
5487 1 0.652049 0.926325 0.499017
2623 1 0.654809 0.907084 0.499829
5208 1 0.675369 0.922277 0.498604
5283 1 0.688966 0.914734 0.49888
5346 1 0.686041 0.927793 0.496506
5206 1 0.703172 0.910051 0.496163
5350 1 0.711519 0.926276 0.495684
5297 1 0.698954 0.92256 0.497195
5504 1 0.716342 0.909656 0.495891
5483 1 0.73138 0.914005 0.494459
2787 1 0.725636 0.925618 0.495932
5486 1 0.742381 0.910906 0.494024
5361 1 0.75534 0.916908 0.493906
5212 1 0.753401 0.928288 0.492885
5020 1 0.739372 0.924593 0.494623
5074 1 0.766774 0.916727 0.494402
2781 1 0.779879 0.925417 0.492785
5274 1 0.779384 0.910936 0.494671
4894 1 0.791673 0.918536 0.494655
2351 1 0.801173 0.92787 0.494925
4964 1 0.811122 0.91773 0.495586
5345 1 0.824855 0.906174 0.496572
5223 1 0.824002 0.918033 0.496449
5302 1 0.838556 0.9225 0.494896
5099 1 0.851601 0.918945 0.496427
5369 1 0.838051 0.908352 0.496452
4954 1 0.856251 0.906807 0.497661
2935 1 0.868964 0.906101 0.497812
5172 1 0.866515 0.918343 0.49581
2139 1 0.87947 0.921708 0.497232
5028 1 0.90189 0.906775 0.499995
2209 1 0.895296 0.918517 0.498906
5175 1 0.883866 0.908038 0.498512
2277 1 0.924129 0.923098 0.498315
2696 1 0.913252 0.916457 0.49925
5231 1 0.908262 0.928062 0.496994
5239 1 0.936974 0.921524 0.499529
5148 1 0.663157 0.948368 0.499993
5144 1 0.662404 0.934424 0.499404
5409 1 0.677321 0.935634 0.498008
2823 1 0.686958 0.944415 0.497785
5493 1 0.697376 0.936267 0.496535
4952 1 0.707965 0.943317 0.496871
5153 1 0.718112 0.949764 0.496786
5353 1 0.718031 0.935743 0.49565
5288 1 0.735306 0.937663 0.494747
5426 1 0.729674 0.950066 0.497226
5015 1 0.752511 0.939623 0.494247
5225 1 0.74315 0.947355 0.494795
4884 1 0.767031 0.929662 0.493462
5294 1 0.777304 0.940403 0.492826
5158 1 0.764751 0.94382 0.492721
2963 1 0.789002 0.947973 0.493852
5306 1 0.789727 0.93354 0.494151
3003 1 0.800904 0.941501 0.493397
5220 1 0.812695 0.933837 0.495393
5143 1 0.826988 0.930308 0.495018
2961 1 0.823519 0.946304 0.497481
5094 1 0.850353 0.932646 0.496045
5093 1 0.837442 0.940282 0.497464
2797 1 0.851157 0.947538 0.495796
5241 1 0.864123 0.930564 0.499004
4876 1 0.863324 0.942952 0.495382
5083 1 0.873761 0.949334 0.496095
5372 1 0.878219 0.93494 0.495572
5108 1 0.892389 0.930469 0.496282
5378 1 0.899281 0.940897 0.494763
5228 1 0.885193 0.946267 0.49369
5100 1 0.91402 0.940067 0.495848
5170 1 0.925819 0.938622 0.497592
5177 1 0.925734 0.951677 0.496673
5384 1 0.939206 0.93511 0.499597
5451 1 0.935962 0.948006 0.498683
2718 1 0.998551 0.950424 0.499507
2368 1 0.986409 0.951187 0.499912
2580 1 0.982989 0.939156 0.499777
2802 1 0.685885 0.962994 0.498938
5269 1 0.698312 0.967092 0.497869
5412 1 0.696268 0.953606 0.497393
2962 1 0.710402 0.960782 0.496402
5503 1 0.715121 0.9714 0.497744
2815 1 0.730069 0.964974 0.495234
4945 1 0.756268 0.953559 0.494743
3038 1 0.73908 0.973755 0.496512
5416 1 0.742862 0.959773 0.495846
4943 1 0.756884 0.965956 0.494771
5025 1 0.774855 0.956042 0.493628
5082 1 0.771247 0.968187 0.495301
5088 1 0.782682 0.974826 0.495208
5226 1 0.808776 0.969424 0.496105
2891 1 0.796529 0.9721 0.49433
5105 1 0.786866 0.962543 0.493959
4810 1 0.800295 0.958546 0.495258
5349 1 0.827889 0.961035 0.49667
5286 1 0.820878 0.97475 0.496917
5423 1 0.811456 0.953391 0.497227
2932 1 0.85669 0.974228 0.494909
2837 1 0.837367 0.973633 0.4966
5230 1 0.847058 0.966842 0.495277
5362 1 0.8402 0.954925 0.495418
2626 1 0.869372 0.967181 0.494261
5030 1 0.859029 0.959279 0.495397
5107 1 0.881882 0.959573 0.494908
5233 1 0.889586 0.969401 0.494433
5168 1 0.893624 0.955579 0.494416
2929 1 0.902013 0.964666 0.494516
5371 1 0.908516 0.976021 0.495089
5452 1 0.917315 0.964172 0.495925
5096 1 0.909365 0.953294 0.495549
5300 1 0.947515 0.95518 0.499481
5424 1 0.945499 0.969844 0.498618
2279 1 0.934021 0.960477 0.498322
5354 1 0.959848 0.968364 0.499519
5459 1 0.997935 0.966719 0.499801
2512 1 0.983894 0.964972 0.499923
5289 1 0.674495 0.986966 0.499652
5071 1 0.686822 0.977586 0.498428
2904 1 0.712179 0.984003 0.499753
2827 1 0.711186 0.999765 0.4998
5405 1 0.700005 0.982925 0.498412
5348 1 0.722594 0.992572 0.49953
5501 1 0.732265 0.998105 0.499616
5502 1 0.728859 0.979355 0.498134
2831 1 0.751275 0.977681 0.496881
2924 1 0.759502 0.987235 0.498266
2903 1 0.740323 0.985751 0.498558
2858 1 0.745908 0.995783 0.499345
5079 1 0.779478 0.98939 0.494869
2782 1 0.770897 0.995223 0.498201
5344 1 0.770232 0.980071 0.49657
5234 1 0.788975 0.996392 0.496418
5443 1 0.791727 0.98379 0.495134
5089 1 0.806648 0.983738 0.495141
2821 1 0.803745 0.999121 0.495398
5444 1 0.827807 0.985224 0.494885
5151 1 0.815955 0.993033 0.494619
2994 1 0.831811 0.99828 0.494748
5367 1 0.846652 0.997453 0.493902
5432 1 0.843315 0.986343 0.495462
5364 1 0.856846 0.989438 0.496458
5164 1 0.867539 0.997551 0.495535
2795 1 0.879048 0.989873 0.495362
5427 1 0.86797 0.982028 0.49459
5232 1 0.903499 0.990027 0.495273
186 1 0.892173 0.991961 0.495821
5313 1 0.895239 0.980201 0.493661
400 1 0.881334 0.978509 0.494871
2702 1 0.925891 0.977132 0.495947
5441 1 0.917686 0.99 0.496177
5380 1 0.945402 0.991705 0.496872
2998 1 0.936762 0.980701 0.498113
5375 1 0.930391 0.992202 0.498063
5162 1 0.953279 0.978502 0.497687
2862 1 0.959475 0.990108 0.498581
2706 1 0.967891 0.982696 0.498977
12 1 0.985441 0.97999 0.499955
4 1 0.997608 0.979938 0.498169
5027 1 0.978613 0.99124 0.499172
1711 1 0.509927 0.507451 0.501146
4272 1 0.542824 0.508476 0.50173
1434 1 0.525142 0.507414 0.501172
4767 1 0.545303 0.522725 0.501101
1565 1 0.55559 0.512465 0.503224
4347 1 0.56397 0.521362 0.502431
3713 1 0.562673 0.503155 0.504826
4553 1 0.589579 0.517899 0.505511
4147 1 0.582045 0.505534 0.506081
4639 1 0.594436 0.506425 0.505744
3652 1 0.573768 0.51575 0.505242
3933 1 0.607903 0.513308 0.505941
4063 1 0.622713 0.502225 0.507175
4428 1 0.620344 0.516476 0.506221
4375 1 0.632427 0.513409 0.506669
4088 1 0.641497 0.504845 0.50578
4567 1 0.651388 0.521563 0.505158
4492 1 0.653842 0.506711 0.504857
4154 1 0.665471 0.501885 0.507017
4585 1 0.66633 0.51804 0.503891
4372 1 0.676515 0.508885 0.504414
3811 1 0.686455 0.513694 0.501954
4716 1 0.677554 0.52329 0.502719
4499 1 0.699141 0.515521 0.501158
4212 1 0.698209 0.503567 0.50264
4301 1 0.713007 0.517718 0.50109
4598 1 0.713076 0.50457 0.502556
4429 1 0.728981 0.518205 0.500731
3753 1 0.72581 0.506401 0.500625
4039 1 0.970656 0.507092 0.500169
4331 1 0.996613 0.509119 0.502929
3666 1 0.983399 0.507253 0.501966
4243 1 0.997373 0.522957 0.500404
4632 1 0.538711 0.53597 0.500617
4770 1 0.55836 0.533155 0.500462
4624 1 0.566815 0.546645 0.500782
1494 1 0.572448 0.530729 0.502535
4415 1 0.583789 0.526717 0.503521
4768 1 0.591925 0.536691 0.502798
4413 1 0.579159 0.541474 0.502824
4486 1 0.601326 0.525211 0.504895
4422 1 0.614901 0.527673 0.504031
3997 1 0.603689 0.539811 0.502592
3930 1 0.616457 0.543896 0.504182
3654 1 0.639244 0.526297 0.505444
4216 1 0.626356 0.528447 0.505398
4156 1 0.639385 0.539341 0.50384
4364 1 0.629353 0.547151 0.502163
4215 1 0.661377 0.530347 0.502727
3957 1 0.652718 0.542315 0.503941
4591 1 0.664278 0.547292 0.502445
4298 1 0.671324 0.535914 0.503696
4665 1 0.684996 0.53521 0.50205
4000 1 0.693036 0.526266 0.502407
4571 1 0.705758 0.52769 0.502638
4350 1 0.696622 0.538982 0.50296
4595 1 0.711794 0.538794 0.502229
4379 1 0.722397 0.529235 0.501177
4354 1 0.736809 0.530886 0.500003
4384 1 0.728461 0.539863 0.500553
4640 1 0.741465 0.545108 0.500185
4695 1 0.543905 0.551668 0.500439
4419 1 0.55769 0.559096 0.500286
4485 1 0.591584 0.550526 0.501327
4490 1 0.578129 0.555802 0.501121
4489 1 0.586564 0.567556 0.501566
4279 1 0.603474 0.553757 0.501381
4511 1 0.616836 0.555683 0.500887
4738 1 0.643851 0.552506 0.501866
4235 1 0.655747 0.557218 0.502296
4006 1 0.656846 0.570907 0.500538
4582 1 0.676896 0.547974 0.501779
4493 1 0.68991 0.54945 0.501673
4009 1 0.683404 0.563335 0.501024
1994 1 0.667451 0.563195 0.500743
4502 1 0.709075 0.564673 0.501728
3956 1 0.696156 0.566669 0.50126
4439 1 0.702858 0.554427 0.502997
4380 1 0.716434 0.549518 0.50092
4517 1 0.720825 0.563509 0.500825
4166 1 0.730492 0.552831 0.500061
4643 1 0.733196 0.564941 0.501974
4583 1 0.74352 0.556717 0.500983
4856 1 0.75836 0.559523 0.500335
4022 1 0.767107 0.550633 0.500154
4276 1 0.661931 0.584298 0.500514
1782 1 0.687571 0.577689 0.50106
4430 1 0.687451 0.591041 0.501603
4370 1 0.675849 0.588374 0.501029
4074 1 0.675021 0.574429 0.500761
4783 1 0.711445 0.577688 0.501547
4504 1 0.699041 0.584121 0.50172
4434 1 0.727066 0.587094 0.501429
4512 1 0.722641 0.575664 0.501734
4290 1 0.715349 0.593488 0.500999
4435 1 0.736683 0.576683 0.501169
4030 1 0.644132 0.605107 0.500039
4153 1 0.675408 0.601846 0.500836
4506 1 0.677208 0.615206 0.501624
4285 1 0.690044 0.617908 0.502458
4711 1 0.703039 0.60985 0.500457
4501 1 0.702431 0.596022 0.501904
4355 1 0.690575 0.603871 0.502098
4838 1 0.726767 0.603395 0.501432
4568 1 0.714691 0.607281 0.500511
4294 1 0.721765 0.616191 0.500276
4497 1 0.740497 0.595324 0.500973
5138 1 0.765957 0.614509 0.500021
4694 1 0.680125 0.629373 0.500573
4782 1 0.68915 0.640998 0.50058
5056 1 0.709753 0.635601 0.500602
4436 1 0.710133 0.623155 0.500742
5120 1 0.734388 0.623149 0.500296
4564 1 0.722022 0.631744 0.501641
4714 1 0.732218 0.639461 0.501685
4786 1 0.743267 0.632212 0.500566
4574 1 0.673788 0.643834 0.500489
4425 1 0.717498 0.645836 0.500973
5135 1 0.728972 0.652838 0.50081
4697 1 0.730591 0.666439 0.500298
5157 1 0.742303 0.658219 0.502163
5199 1 0.70898 0.674574 0.500508
4920 1 0.695363 0.680742 0.500455
4853 1 0.715284 0.687308 0.50158
5070 1 0.729985 0.680412 0.500836
4791 1 0.720304 0.671049 0.500068
4576 1 0.742119 0.670908 0.500403
4808 1 0.741688 0.686183 0.500705
4115 1 0.963982 0.687859 0.500129
4769 1 0.555331 0.703274 0.501411
4424 1 0.653172 0.711327 0.500425
4554 1 0.66474 0.693552 0.500497
4713 1 0.681633 0.710505 0.500053
4484 1 0.677726 0.697117 0.500999
4699 1 0.694858 0.704787 0.500822
4796 1 0.691069 0.692752 0.500563
4933 1 0.704497 0.69401 0.500171
4799 1 0.720826 0.700175 0.50079
4515 1 0.73438 0.696531 0.501096
4931 1 0.735906 0.709182 0.502342
5060 1 0.721103 0.714007 0.50211
4645 1 0.749617 0.709397 0.500949
4442 1 0.749356 0.696371 0.500508
1647 1 0.93301 0.709427 0.500927
4117 1 0.964143 0.70113 0.500624
2002 1 0.977214 0.708519 0.50111
4527 1 0.978209 0.694641 0.501163
4913 1 0.522128 0.723404 0.500175
4562 1 0.517559 0.735434 0.500836
2409 1 0.546049 0.736445 0.500416
2250 1 0.536842 0.726709 0.501457
4626 1 0.561742 0.715664 0.500605
5057 1 0.549668 0.721985 0.50046
2111 1 0.560419 0.736317 0.500714
2125 1 0.574906 0.723559 0.500732
4845 1 0.591618 0.725102 0.500897
4832 1 0.578557 0.736716 0.501365
5257 1 0.591127 0.736228 0.502473
4852 1 0.608375 0.729943 0.501567
4999 1 0.625741 0.736224 0.501191
4971 1 0.650392 0.735357 0.500185
5132 1 0.670844 0.732569 0.500523
5121 1 0.6837 0.726698 0.501892
4916 1 0.671778 0.719137 0.500103
4936 1 0.696304 0.729883 0.500548
4706 1 0.708344 0.719979 0.500304
4963 1 0.733554 0.721465 0.501099
5203 1 0.721031 0.725721 0.501786
4878 1 0.736837 0.734484 0.500129
5216 1 0.747372 0.723264 0.500725
4544 1 0.925484 0.722919 0.500532
4879 1 0.92376 0.736644 0.501254
4604 1 0.913664 0.716693 0.500504
4891 1 0.940428 0.721699 0.501303
4899 1 0.936228 0.73449 0.500181
4686 1 0.952557 0.729525 0.501025
2362 1 0.964622 0.733297 0.501171
4614 1 0.966557 0.717079 0.500339
1936 1 0.977164 0.726451 0.500127
2003 1 0.988573 0.716459 0.500699
1648 1 0.991198 0.731889 0.503522
5263 1 0.513836 0.759491 0.502886
2263 1 0.519337 0.747743 0.50019
4922 1 0.502231 0.75589 0.500483
4911 1 0.507086 0.74416 0.501026
5259 1 0.529691 0.738709 0.500492
2406 1 0.538903 0.752061 0.502652
2191 1 0.527972 0.757656 0.501667
4909 1 0.549738 0.749728 0.502916
5044 1 0.56804 0.749363 0.502574
5048 1 0.557226 0.761061 0.503207
4708 1 0.585863 0.74737 0.501368
4924 1 0.57523 0.760031 0.502577
4912 1 0.589019 0.760987 0.502976
4993 1 0.600703 0.745183 0.502735
2185 1 0.615088 0.74051 0.501985
5139 1 0.602404 0.758252 0.502528
5261 1 0.619389 0.752367 0.502096
4774 1 0.631393 0.749725 0.501138
5124 1 0.636367 0.761655 0.503421
4984 1 0.661471 0.742547 0.500986
4840 1 0.662552 0.758599 0.500861
4647 1 0.684238 0.740499 0.500819
4709 1 0.673403 0.7473 0.501
4940 1 0.679611 0.758452 0.501281
4633 1 0.708669 0.747655 0.502185
5145 1 0.692445 0.753315 0.501827
4725 1 0.70606 0.760522 0.501523
5001 1 0.69727 0.742022 0.501575
5073 1 0.719744 0.751616 0.500069
4731 1 0.732598 0.760312 0.500181
2280 1 0.902054 0.75961 0.50063
4328 1 0.903932 0.746824 0.500186
4970 1 0.89169 0.743376 0.500238
4758 1 0.917144 0.748024 0.501258
1928 1 0.927427 0.759282 0.500864
1858 1 0.932731 0.747229 0.502369
1791 1 0.944538 0.753249 0.501666
2288 1 0.947573 0.740333 0.502313
1937 1 0.961566 0.746662 0.503715
4548 1 0.954553 0.758728 0.505394
4829 1 0.967049 0.761196 0.506105
4124 1 0.976288 0.739125 0.502916
5098 1 0.976911 0.75285 0.505005
4403 1 0.9937 0.743797 0.503271
4678 1 0.98876 0.760288 0.504919
4989 1 0.506616 0.772046 0.502559
4841 1 0.519527 0.772021 0.502328
5046 1 0.510861 0.784639 0.502892
5054 1 0.531735 0.770321 0.50388
5260 1 0.543544 0.763682 0.503417
4977 1 0.540002 0.780328 0.505827
2271 1 0.525092 0.783086 0.504052
5069 1 0.551207 0.774561 0.504399
5343 1 0.56493 0.772424 0.505571
4851 1 0.573231 0.782307 0.505053
4651 1 0.582945 0.773256 0.504383
4919 1 0.612112 0.767262 0.503311
4726 1 0.598473 0.772049 0.501928
5133 1 0.610054 0.780316 0.503875
5065 1 0.596758 0.785463 0.504153
4939 1 0.624712 0.76783 0.503405
4660 1 0.623019 0.782027 0.503468
4844 1 0.634624 0.775805 0.503333
5265 1 0.649053 0.763971 0.502249
4843 1 0.657305 0.776102 0.501422
4648 1 0.64694 0.782492 0.503264
4923 1 0.669733 0.78492 0.501376
4921 1 0.681375 0.771966 0.501197
4654 1 0.709919 0.777785 0.500139
4934 1 0.692879 0.769268 0.501085
4998 1 0.719192 0.767479 0.501032
1861 1 0.904445 0.773096 0.500671
4542 1 0.915974 0.762738 0.501906
5097 1 0.925504 0.774018 0.502189
2070 1 0.914602 0.780329 0.500413
2142 1 0.93724 0.766659 0.503697
5314 1 0.941746 0.779397 0.504094
2289 1 0.952315 0.771303 0.505354
2286 1 0.95228 0.784974 0.505754
2223 1 0.965168 0.776941 0.505253
4549 1 0.978585 0.770048 0.505492
2487 1 0.993615 0.773212 0.504393
2156 1 0.981982 0.78452 0.505666
2267 1 0.504644 0.794242 0.502507
5136 1 0.517544 0.79626 0.502479
4849 1 0.510814 0.806865 0.500698
2200 1 0.525218 0.808118 0.503151
5332 1 0.537887 0.80681 0.502715
5042 1 0.532571 0.794296 0.504064
5005 1 0.546718 0.791976 0.505267
5063 1 0.559388 0.788228 0.506205
5469 1 0.553987 0.80365 0.504778
5131 1 0.571813 0.796361 0.505743
5278 1 0.584892 0.793198 0.505276
5072 1 0.589729 0.806848 0.504423
5128 1 0.574865 0.808664 0.504471
2478 1 0.600998 0.796613 0.504027
5211 1 0.616788 0.792473 0.50237
4867 1 0.611497 0.804434 0.502487
5116 1 0.633015 0.789882 0.504131
4792 1 0.624402 0.803474 0.503838
4712 1 0.637514 0.801249 0.503145
4860 1 0.648037 0.795025 0.50145
4858 1 0.658886 0.797575 0.502225
5414 1 0.681197 0.786914 0.501075
5484 1 0.683604 0.801894 0.501539
4935 1 0.670738 0.800054 0.500939
4864 1 0.705185 0.804129 0.500548
4797 1 0.704765 0.789149 0.500121
5339 1 0.69253 0.793489 0.502134
1930 1 0.888717 0.791895 0.500592
5106 1 0.882334 0.807819 0.50044
2000 1 0.906919 0.802348 0.500263
2281 1 0.921631 0.793234 0.501477
4612 1 0.918194 0.808948 0.502111
5305 1 0.905093 0.789443 0.50062
2144 1 0.932611 0.80515 0.501548
2215 1 0.930011 0.786019 0.502442
2138 1 0.942812 0.794846 0.504076
2356 1 0.971287 0.788975 0.505329
2296 1 0.959169 0.795279 0.506177
1947 1 0.967054 0.805338 0.503605
5173 1 0.954111 0.80943 0.502799
2090 1 0.97933 0.797278 0.504486
4748 1 0.991926 0.792396 0.504515
2149 1 0.986903 0.807554 0.503389
2624 1 0.500298 0.824851 0.501505
5400 1 0.513012 0.821474 0.50055
5268 1 0.528497 0.820345 0.502161
5190 1 0.542284 0.827563 0.502135
5130 1 0.5462 0.81468 0.502779
5126 1 0.555629 0.830532 0.504386
5326 1 0.56208 0.816637 0.503073
4863 1 0.583254 0.818038 0.503232
5189 1 0.571924 0.825918 0.50455
5205 1 0.58452 0.830633 0.501982
2822 1 0.601723 0.812339 0.502912
5266 1 0.608642 0.825911 0.501743
4772 1 0.596795 0.825022 0.50188
5012 1 0.633819 0.813522 0.502927
5085 1 0.619393 0.816606 0.502531
4870 1 0.621114 0.830383 0.501267
4875 1 0.648966 0.810719 0.501985
4985 1 0.657124 0.820887 0.500589
5149 1 0.644372 0.819341 0.500178
5417 1 0.667811 0.813652 0.500174
5141 1 0.707955 0.822092 0.500325
2282 1 0.901849 0.816464 0.500213
2292 1 0.90769 0.830219 0.500921
5227 1 0.918498 0.828084 0.500397
2285 1 0.942387 0.81389 0.50262
2212 1 0.928586 0.817489 0.500893
2572 1 0.932558 0.828962 0.501121
5455 1 0.945318 0.826374 0.500778
2154 1 0.959608 0.821107 0.505011
2229 1 0.974929 0.814924 0.50397
2206 1 0.955071 0.832352 0.503039
2429 1 0.970441 0.827879 0.504507
1862 1 0.997668 0.830677 0.504001
2430 1 0.98414 0.827407 0.503349
5386 1 0.995607 0.818626 0.503523
5202 1 0.507061 0.851039 0.503187
5197 1 0.517922 0.836881 0.502962
4927 1 0.50428 0.836997 0.502349
2405 1 0.520005 0.850582 0.502412
3028 1 0.531528 0.837024 0.502311
2809 1 0.538568 0.849983 0.502891
4771 1 0.548122 0.840907 0.502292
5137 1 0.553847 0.852636 0.503457
5402 1 0.560146 0.841187 0.503941
5340 1 0.567079 0.855179 0.502346
5478 1 0.57182 0.838385 0.503256
5142 1 0.578491 0.849417 0.50211
5333 1 0.590956 0.842788 0.502532
4982 1 0.591244 0.854885 0.500895
5363 1 0.602729 0.837139 0.50022
5272 1 0.605597 0.853195 0.500502
5490 1 0.657984 0.833869 0.500795
5411 1 0.659541 0.847861 0.500034
4941 1 0.672215 0.842373 0.50004
5311 1 0.913915 0.855385 0.500948
2350 1 0.915182 0.842349 0.500817
5169 1 0.925032 0.852342 0.50503
2217 1 0.933453 0.841485 0.501999
5246 1 0.940584 0.852889 0.504246
5242 1 0.949592 0.843279 0.503317
2420 1 0.965164 0.840601 0.504453
5176 1 0.959948 0.852948 0.504855
4684 1 0.992738 0.846658 0.503871
5315 1 0.981233 0.839202 0.504894
2502 1 0.977466 0.851652 0.504055
32 1 0.505024 0.876685 0.50394
4979 1 0.503102 0.862735 0.504577
5134 1 0.51782 0.864565 0.503124
2482 1 0.5175 0.877599 0.504467
5183 1 0.545424 0.874691 0.504341
5482 1 0.546491 0.862141 0.502731
5200 1 0.531818 0.862148 0.503112
2256 1 0.533011 0.87792 0.50417
2410 1 0.55788 0.864918 0.50179
2768 1 0.558988 0.880617 0.500577
5467 1 0.583715 0.87387 0.500309
5254 1 0.595572 0.868233 0.500568
5404 1 0.658888 0.861894 0.500756
5468 1 0.676828 0.877353 0.500695
2794 1 0.895088 0.857679 0.500549
5165 1 0.904176 0.86571 0.502117
5447 1 0.915036 0.873468 0.501256
5038 1 0.925218 0.867788 0.502345
2428 1 0.932566 0.880546 0.506573
4967 1 0.950639 0.863326 0.50507
2571 1 0.943604 0.875299 0.504104
5179 1 0.935302 0.862562 0.505136
2500 1 0.960152 0.870877 0.504587
2490 1 0.969719 0.863742 0.506542
2284 1 0.997718 0.859126 0.504212
2496 1 0.999625 0.873431 0.503656
2495 1 0.97798 0.873926 0.505136
5248 1 0.98466 0.862338 0.506295
2413 1 0.504726 0.888772 0.504004
2773 1 0.520354 0.890993 0.505072
5321 1 0.51331 0.900639 0.501407
4938 1 0.5368 0.892615 0.503905
2546 1 0.527795 0.901526 0.503375
2481 1 0.549608 0.888842 0.502737
5182 1 0.551357 0.90325 0.502174
5193 1 0.565426 0.894712 0.500419
5329 1 0.594712 0.881875 0.500465
5461 1 0.659468 0.893403 0.501353
4885 1 0.891784 0.883257 0.501115
5381 1 0.903611 0.881742 0.501059
5033 1 0.915726 0.902602 0.501018
2421 1 0.911621 0.891061 0.501802
2346 1 0.922998 0.886008 0.501814
5304 1 0.940493 0.89301 0.503795
2417 1 0.929306 0.897705 0.503974
5382 1 0.951766 0.901155 0.502146
2588 1 0.968743 0.882981 0.504875
2361 1 0.961764 0.89443 0.503829
5524 1 0.952853 0.885433 0.503225
2211 1 0.974661 0.903629 0.503739
2347 1 0.997641 0.891694 0.503911
5376 1 0.977772 0.892074 0.503728
2701 1 0.987097 0.898933 0.504045
2493 1 0.988852 0.88152 0.504945
2426 1 0.99866 0.903507 0.501205
2549 1 0.50108 0.908247 0.501601
5462 1 0.51884 0.913636 0.503642
4902 1 0.507683 0.920146 0.5013
88 1 0.518788 0.928062 0.501351
2812 1 0.530638 0.92216 0.502588
5122 1 0.535388 0.91048 0.501977
2946 1 0.547639 0.919256 0.503807
2767 1 0.557908 0.926639 0.503991
3021 1 0.560172 0.914952 0.500062
5470 1 0.571328 0.905712 0.501723
2619 1 0.57347 0.920979 0.501207
2274 1 0.588482 0.924273 0.500995
2694 1 0.595658 0.907958 0.502
5474 1 0.601814 0.920769 0.501536
5393 1 0.645854 0.916321 0.501105
5076 1 0.663356 0.91925 0.500769
5282 1 0.667624 0.904782 0.500092
5454 1 0.927866 0.912149 0.501791
2352 1 0.940269 0.90577 0.501924
2710 1 0.948354 0.914775 0.501667
5320 1 0.971187 0.919098 0.502995
2629 1 0.959844 0.923242 0.502229
112 1 0.962117 0.910167 0.503164
10 1 0.984618 0.925822 0.50223
5249 1 0.995994 0.917233 0.50137
5388 1 0.983992 0.912598 0.502867
522 1 0.514593 0.950848 0.501236
5337 1 0.523665 0.940246 0.503274
2335 1 0.507216 0.939024 0.500402
30 1 0.531478 0.950691 0.502606
2551 1 0.535341 0.934934 0.502812
2763 1 0.546554 0.939524 0.503495
2337 1 0.56827 0.934668 0.502076
170 1 0.558021 0.944742 0.503711
2959 1 0.570434 0.948332 0.505348
5328 1 0.594675 0.950652 0.504784
2770 1 0.582048 0.945911 0.504432
2760 1 0.580753 0.933656 0.503626
5323 1 0.59351 0.934847 0.502647
2880 1 0.606246 0.944836 0.504269
3029 1 0.607384 0.931277 0.503674
2949 1 0.620851 0.948884 0.503715
2883 1 0.621251 0.93269 0.501851
2808 1 0.634503 0.944712 0.502469
5334 1 0.640405 0.932063 0.501527
5418 1 0.650631 0.941022 0.501293
5110 1 0.949098 0.94221 0.500968
5390 1 0.950812 0.929422 0.50025
2713 1 0.970895 0.943552 0.502164
2 1 0.961198 0.936408 0.501841
2697 1 0.973292 0.930611 0.500651
2511 1 0.99349 0.932832 0.500347
385 1 0.501892 0.953695 0.50113
2689 1 0.507073 0.966845 0.502131
3504 1 0.522531 0.960796 0.501456
2755 1 0.529532 0.972149 0.500865
2769 1 0.539354 0.963341 0.503164
3095 1 0.546738 0.952641 0.504022
449 1 0.562559 0.960075 0.506076
2544 1 0.560705 0.974621 0.504419
2411 1 0.551429 0.964956 0.503502
5394 1 0.57475 0.969517 0.503908
5256 1 0.582555 0.958389 0.506743
244 1 0.589396 0.968025 0.503905
5395 1 0.601044 0.966017 0.505195
2885 1 0.611516 0.956323 0.505603
5007 1 0.618765 0.967424 0.505123
2829 1 0.640629 0.955871 0.504335
5287 1 0.628423 0.961578 0.504133
5075 1 0.641921 0.969203 0.50536
2879 1 0.652564 0.954144 0.502763
5068 1 0.655347 0.970955 0.502808
5421 1 0.668482 0.962834 0.501198
5271 1 0.674528 0.974501 0.500604
3099 1 0.678294 0.953386 0.500441
5247 1 0.961002 0.954439 0.501078
5383 1 0.974222 0.956168 0.501616
5527 1 0.971823 0.970381 0.501254
312 1 0.501501 0.99294 0.500207
2749 1 0.500159 0.977923 0.501063
594 1 0.519986 0.988222 0.501875
2952 1 0.516467 0.976377 0.500727
2688 1 0.545779 0.978186 0.503537
5477 1 0.545823 0.994979 0.503938
2774 1 0.531416 0.986201 0.501606
2801 1 0.570476 0.985771 0.50417
3097 1 0.557492 0.989074 0.503152
2555 1 0.56354 0.999911 0.503394
2875 1 0.583635 0.98163 0.503919
5407 1 0.591465 0.995078 0.504016
2804 1 0.578271 0.995671 0.503053
2780 1 0.617272 0.989402 0.503553
5273 1 0.597541 0.982624 0.503884
2969 1 0.604243 0.993479 0.503667
5403 1 0.609174 0.976542 0.505823
3101 1 0.642773 0.999452 0.502437
314 1 0.628758 0.999334 0.503106
5201 1 0.635886 0.988884 0.504737
5480 1 0.627124 0.979869 0.504323
104 1 0.652935 0.989983 0.502104
2951 1 0.663543 0.98056 0.502397
2771 1 0.64531 0.980337 0.503139
5277 1 0.680099 0.99952 0.502234
2841 1 0.666686 0.997168 0.501549
5494 1 0.687682 0.990613 0.500349
2819 1 0.703225 0.993075 0.500505
5174 1 0.997466 0.995004 0.500421
ITEM: TIMESTEP
400000
ITEM: NUMBER OF ATOMS
5530
ITEM: BOX BOUNDS pp pp pp
-3.3634999999999991e+01 3.3634999999999991e+01
-3.3290016521473788e+01 3.3290016521473788e+01
-5.7659999999999989e+01 5.7659999999999989e+01
ITEM: ATOMS id type xs ys zs
45 1 0.00932021 0.00254283 0.499304
2491 1 0.0437243 0.0135001 0.500534
2510 1 0.0305207 0.0127929 0.500362
131 1 0.0709229 0.0172787 0.500977
266 1 0.0773843 -0.000888755 0.500932
2661 1 0.0832065 0.0111921 0.499319
13 1 0.107099 0.00552919 0.498483
264 1 0.0979291 0.0161072 0.499498
134 1 0.112677 0.0198036 0.49977
431 1 0.120517 0.00568675 0.499181
491 1 0.142673 0.0178058 0.496401
2667 1 0.130589 0.0112491 0.49846
360 1 0.151059 0.00295486 0.497012
221 1 0.163168 0.0062203 0.496609
133 1 0.158428 0.0181169 0.495477
142 1 0.176159 0.0109898 0.495536
425 1 0.184748 0.0242931 0.496786
210 1 0.188153 0.0110942 0.495809
2463 1 0.212199 0.0143029 0.495512
75 1 0.201108 0.0101448 0.494145
197 1 0.202822 0.0229681 0.496425
558 1 0.224767 0.00819088 0.495197
55 1 0.235401 0.00110835 0.494286
213 1 0.224481 0.0209124 0.497227
2391 1 0.238823 0.0144983 0.495049
212 1 0.248363 0.00554421 0.495314
2461 1 0.260111 0.0102507 0.495737
2455 1 0.252618 0.0210048 0.495156
2324 1 0.27171 0.0126121 0.49729
74 1 0.279717 0.0231729 0.496179
437 1 0.284589 0.00918196 0.496732
2733 1 0.307508 0.00139337 0.495871
375 1 0.293052 0.0237191 0.497354
21 1 0.297184 0.010204 0.495682
211 1 0.315396 0.0130599 0.494443
236 1 0.325292 0.00423607 0.496776
287 1 0.332895 0.0172385 0.497416
148 1 0.33699 0.00229345 0.496616
26 1 0.346284 0.0106534 0.498468
2604 1 0.359603 0.00909221 0.497791
158 1 0.371335 0.0175312 0.498621
2753 1 0.373419 0.00494208 0.497513
2617 1 0.394744 0.00450599 0.500025
2945 1 0.384934 0.0135582 0.497835
2258 1 0.40841 0.00326741 0.49861
2691 1 0.4182 0.0233477 0.499551
2877 1 0.424866 0.0112514 0.497959
520 1 0.450533 0.0206156 0.499179
307 1 0.435434 0.0198119 0.498764
230 1 0.444746 0.00785574 0.497448
664 1 0.460168 0.0119459 0.49955
3438 1 0.486628 0.0184431 0.499655
207 1 0.0442294 0.0263304 0.499555
2630 1 0.0369803 0.0383073 0.500596
185 1 0.0864391 0.0250691 0.500329
495 1 0.10163 0.0295417 0.499629
149 1 0.100661 0.0425431 0.499028
2586 1 0.114899 0.0384428 0.497834
135 1 0.124104 0.0273439 0.49773
340 1 0.132547 0.0410394 0.498099
2388 1 0.143054 0.0303408 0.498058
2501 1 0.157801 0.0331162 0.496418
269 1 0.148423 0.0415553 0.496885
283 1 0.162944 0.0462226 0.496145
565 1 0.170657 0.0252103 0.49669
424 1 0.175933 0.0403048 0.497342
403 1 0.192256 0.034552 0.497632
281 1 0.20206 0.0420421 0.496925
225 1 0.21378 0.0292163 0.497451
215 1 0.21684 0.0408424 0.496271
564 1 0.23587 0.0428265 0.496188
2662 1 0.227299 0.0333067 0.496296
2525 1 0.238981 0.0286383 0.495249
2665 1 0.247959 0.0367018 0.496984
377 1 0.261533 0.0394032 0.497278
99 1 0.266671 0.0241881 0.496643
2743 1 0.273856 0.0354297 0.497104
89 1 0.280285 0.0459165 0.495883
2683 1 0.305957 0.0237815 0.495922
574 1 0.287572 0.0347301 0.496994
2526 1 0.30571 0.0381532 0.497611
288 1 0.294277 0.0464669 0.497916
2655 1 0.319864 0.0245154 0.49612
364 1 0.317228 0.0369619 0.495664
203 1 0.331642 0.0410005 0.497557
2734 1 0.346645 0.0238309 0.497796
2457 1 0.334298 0.0292633 0.497785
224 1 0.347146 0.0376995 0.497702
19 1 0.361859 0.0271403 0.498266
2941 1 0.375234 0.0293128 0.499254
2757 1 0.362615 0.0398677 0.498507
163 1 0.376958 0.0432463 0.499151
516 1 0.388777 0.0388915 0.499514
2622 1 0.400177 0.0269131 0.499013
97 1 0.403624 0.0391933 0.499977
5251 1 0.430945 0.0364122 0.499147
175 1 0.444224 0.0329751 0.498663
173 1 0.463142 0.0247434 0.49962
2948 1 0.47613 0.0272937 0.500304
2693 1 0.484756 0.0357504 0.500124
336 1 0.00614978 0.0616568 0.499654
5317 1 0.0427206 0.0636525 0.498441
64 1 0.0255681 0.0538879 0.499036
121 1 0.0604931 0.0672226 0.499205
489 1 0.110788 0.0663024 0.49951
263 1 0.0962437 0.0624526 0.499275
2513 1 0.139594 0.0518725 0.497648
119 1 0.122478 0.0502775 0.49927
417 1 0.125924 0.062994 0.498472
208 1 0.139794 0.0646509 0.497785
413 1 0.151908 0.0564522 0.496622
354 1 0.167831 0.0607469 0.497558
483 1 0.153606 0.0675672 0.497761
367 1 0.179645 0.0559288 0.498376
572 1 0.189755 0.0469202 0.497057
365 1 0.185551 0.0660213 0.496308
422 1 0.207427 0.0552476 0.498552
374 1 0.194807 0.0577238 0.497272
641 1 0.198602 0.0700181 0.497233
634 1 0.213051 0.0659086 0.498575
2724 1 0.222923 0.0515608 0.498456
291 1 0.232676 0.0626364 0.497754
146 1 0.243831 0.0541498 0.497569
352 1 0.245885 0.0704235 0.497673
435 1 0.254948 0.0499799 0.49679
82 1 0.257348 0.0609722 0.498458
443 1 0.268637 0.0500014 0.498048
216 1 0.271347 0.0632501 0.498018
219 1 0.283526 0.0721288 0.498329
2761 1 0.304207 0.0548126 0.497018
2726 1 0.284756 0.0578089 0.497659
563 1 0.296114 0.0650265 0.495588
79 1 0.316276 0.0496647 0.497094
2754 1 0.313545 0.0632485 0.495945
289 1 0.326446 0.0691425 0.496853
300 1 0.326749 0.0563262 0.496662
243 1 0.340762 0.049829 0.497197
498 1 0.340303 0.0619686 0.496352
2721 1 0.354045 0.0499157 0.497498
447 1 0.358788 0.0613909 0.497897
232 1 0.368323 0.0516695 0.498164
92 1 0.374897 0.0632062 0.498833
2751 1 0.387525 0.0526859 0.499051
100 1 0.394204 0.0672302 0.498515
237 1 0.399954 0.0508089 0.49938
439 1 0.4067 0.0647562 0.499546
138 1 0.420455 0.0617911 0.4995
2810 1 0.462752 0.0679065 0.500113
2695 1 0.481919 0.0495315 0.499776
2653 1 0.0204554 0.0798787 0.500514
818 1 0.0373743 0.0925228 0.499277
189 1 0.050925 0.091461 0.500879
328 1 0.0883563 0.0782439 0.499302
194 1 0.092219 0.092499 0.499572
677 1 0.106884 0.0879173 0.498379
182 1 0.116193 0.0774693 0.498298
419 1 0.117492 0.0955143 0.497642
60 1 0.12909 0.0740114 0.49715
337 1 0.138384 0.0859604 0.497773
111 1 0.126409 0.0870084 0.497532
496 1 0.144532 0.0759208 0.496133
61 1 0.155108 0.0825647 0.495847
401 1 0.164111 0.0900382 0.497898
637 1 0.153226 0.0940524 0.497527
366 1 0.166786 0.0744967 0.49631
472 1 0.178345 0.0789475 0.496614
559 1 0.188096 0.0862416 0.497651
486 1 0.202695 0.0824292 0.497915
650 1 0.211518 0.0929946 0.498713
562 1 0.218212 0.0786139 0.499284
779 1 0.229142 0.0876662 0.499188
349 1 0.231619 0.0756206 0.497045
506 1 0.243086 0.0859262 0.498832
229 1 0.253707 0.0812696 0.497769
2452 1 0.263763 0.0738807 0.498039
502 1 0.262567 0.0902533 0.498827
575 1 0.282836 0.089935 0.498754
141 1 0.274137 0.0813556 0.498696
235 1 0.298683 0.0782551 0.497599
589 1 0.295597 0.090553 0.498582
359 1 0.309744 0.089296 0.496418
152 1 0.30959 0.0751731 0.495527
84 1 0.321662 0.0823091 0.496052
223 1 0.330623 0.0911172 0.496089
160 1 0.33471 0.0777372 0.495622
583 1 0.34426 0.0871297 0.495857
726 1 0.347558 0.0709483 0.496184
285 1 0.356261 0.0806671 0.49699
451 1 0.366447 0.0714456 0.496843
153 1 0.369997 0.0843362 0.497234
937 1 0.360904 0.0940524 0.496553
507 1 0.402779 0.076798 0.497749
313 1 0.382066 0.0742486 0.496925
2616 1 0.382894 0.0886403 0.496842
444 1 0.396591 0.0947431 0.497758
35 1 0.392777 0.082484 0.498346
2762 1 0.423166 0.0830428 0.499087
513 1 0.415614 0.0736686 0.498878
2944 1 0.410867 0.0869707 0.49854
3027 1 0.444642 0.0952753 0.498765
591 1 0.458845 0.0905942 0.500225
3222 1 0.469114 0.0810233 0.499688
172 1 0.453239 0.0794835 0.499398
3221 1 0.483989 0.0786089 0.498828
3366 1 0.498441 0.0822735 0.499604
662 1 0.477482 0.0892709 0.50017
126 1 0.0469637 0.117666 0.499651
201 1 0.0333571 0.108144 0.499155
395 1 0.0945513 0.111107 0.499383
192 1 0.0741971 0.11489 0.500699
2714 1 0.11855 0.107281 0.498221
476 1 0.101022 0.101177 0.498193
534 1 0.107695 0.113427 0.497718
273 1 0.128506 0.101024 0.498423
14 1 0.13607 0.114868 0.498814
427 1 0.141483 0.0979607 0.496823
547 1 0.160727 0.104073 0.496685
2434 1 0.159433 0.117239 0.496169
571 1 0.148748 0.107798 0.497998
402 1 0.173658 0.0968969 0.496219
761 1 0.186345 0.0985703 0.498005
549 1 0.186226 0.11218 0.498344
293 1 0.172836 0.108622 0.497268
701 1 0.198591 0.0972451 0.49913
568 1 0.198548 0.110077 0.498496
550 1 0.232203 0.112722 0.498824
636 1 0.222814 0.100281 0.498576
479 1 0.219897 0.116113 0.499152
356 1 0.238241 0.0982961 0.500613
191 1 0.251751 0.0977486 0.498983
567 1 0.246658 0.110411 0.498395
371 1 0.257845 0.119361 0.498246
2742 1 0.271958 0.0974364 0.498989
155 1 0.27126 0.112876 0.498675
218 1 0.302507 0.113729 0.499264
90 1 0.296241 0.102025 0.499556
368 1 0.322829 0.101255 0.497052
734 1 0.309671 0.101809 0.498261
433 1 0.333228 0.106598 0.497101
865 1 0.314969 0.112708 0.497747
83 1 0.343306 0.0991007 0.495773
302 1 0.353892 0.105716 0.496184
290 1 0.339513 0.117153 0.496888
239 1 0.373365 0.096787 0.497396
659 1 0.36453 0.113979 0.496669
298 1 0.37638 0.108388 0.498146
234 1 0.388205 0.103745 0.496803
446 1 0.401476 0.113096 0.49836
505 1 0.388504 0.117521 0.498442
241 1 0.406524 0.101732 0.498115
373 1 0.415878 0.108205 0.497681
440 1 0.418289 0.0963198 0.499623
3367 1 0.42697 0.11663 0.498267
3432 1 0.429909 0.105516 0.499463
453 1 0.442753 0.109524 0.499039
3152 1 0.468146 0.099861 0.499061
3016 1 0.488553 0.096479 0.497996
2820 1 0.477007 0.107759 0.498572
3502 1 0.491908 0.110905 0.498487
257 1 0.00500755 0.128376 0.500355
545 1 0.0140363 0.138111 0.500339
327 1 0.0167986 0.119682 0.499634
416 1 0.0284762 0.122835 0.498478
339 1 0.0388487 0.129024 0.499101
190 1 0.0646924 0.135126 0.500269
279 1 0.0865296 0.11991 0.499388
254 1 0.0772666 0.129437 0.498685
206 1 0.0941005 0.128133 0.498
333 1 0.0878141 0.140299 0.497948
1044 1 0.109235 0.127942 0.499448
546 1 0.102772 0.140664 0.500252
341 1 0.134305 0.128066 0.498173
817 1 0.122477 0.12098 0.498339
275 1 0.120885 0.134136 0.498768
643 1 0.134088 0.141812 0.498322
353 1 0.161665 0.128197 0.499228
409 1 0.147785 0.121922 0.498683
642 1 0.146951 0.133926 0.498156
679 1 0.174665 0.122311 0.497171
338 1 0.175421 0.136253 0.49828
646 1 0.189522 0.125972 0.499053
708 1 0.187059 0.140707 0.498776
481 1 0.207648 0.122818 0.49923
556 1 0.197843 0.134361 0.498709
157 1 0.209634 0.138702 0.498209
420 1 0.220424 0.130349 0.49904
775 1 0.245207 0.125289 0.498894
566 1 0.265981 0.129784 0.500119
706 1 0.323412 0.132576 0.499147
652 1 0.327445 0.119787 0.499055
921 1 0.313047 0.124277 0.498454
793 1 0.353095 0.122871 0.496146
167 1 0.337735 0.143904 0.496122
584 1 0.338271 0.130139 0.497005
238 1 0.349153 0.137207 0.496134
655 1 0.363305 0.130019 0.496764
588 1 0.372952 0.139295 0.495954
595 1 0.374585 0.12248 0.496752
859 1 0.387422 0.130955 0.496949
525 1 0.398638 0.125505 0.497408
523 1 0.397703 0.140954 0.498582
303 1 0.414942 0.121847 0.49843
445 1 0.408968 0.132808 0.498468
3362 1 0.426579 0.130086 0.498785
3650 1 0.422086 0.141293 0.497671
587 1 0.438234 0.121942 0.49887
310 1 0.441832 0.135047 0.499893
381 1 0.455228 0.131793 0.499533
3578 1 0.498477 0.12065 0.497879
3012 1 0.477601 0.122672 0.499758
382 1 0.481817 0.142324 0.498371
3365 1 0.497351 0.139845 0.497311
3434 1 0.489454 0.130463 0.496459
262 1 0.0211967 0.160721 0.498993
405 1 0.0507453 0.143394 0.499744
760 1 0.0620223 0.163916 0.498513
259 1 0.0613137 0.151367 0.498743
712 1 0.0745236 0.145351 0.499383
617 1 0.0967775 0.151921 0.499666
577 1 0.14648 0.146596 0.499257
687 1 0.181608 0.153407 0.498113
585 1 0.171866 0.163767 0.499359
499 1 0.202172 0.147932 0.498496
569 1 0.214261 0.1539 0.500068
267 1 0.193347 0.156185 0.498965
477 1 0.223506 0.144504 0.499762
296 1 0.231172 0.154309 0.50012
638 1 0.246733 0.150456 0.500419
233 1 0.319618 0.146845 0.499907
503 1 0.334117 0.154882 0.497949
992 1 0.347969 0.154402 0.496893
654 1 0.340803 0.166983 0.498538
648 1 0.357783 0.145409 0.495946
732 1 0.369289 0.15331 0.495606
379 1 0.358089 0.162519 0.496214
724 1 0.386852 0.143975 0.496629
944 1 0.383973 0.158362 0.496456
3580 1 0.398369 0.153327 0.498027
3505 1 0.396099 0.165659 0.496152
1290 1 0.408999 0.16249 0.497102
1000 1 0.409905 0.148702 0.49662
3437 1 0.421554 0.166057 0.497467
872 1 0.424887 0.153333 0.497256
862 1 0.43794 0.147623 0.497075
663 1 0.4358 0.161678 0.496583
3784 1 0.449635 0.157371 0.496019
3231 1 0.452034 0.143725 0.496927
3443 1 0.464343 0.146368 0.498684
512 1 0.466318 0.161117 0.49756
3508 1 0.476099 0.154726 0.49678
3228 1 0.491795 0.151974 0.496342
455 1 0.485039 0.163552 0.498855
3423 1 0.0231937 0.18623 0.498591
678 1 0.0149967 0.173876 0.498526
676 1 0.0377035 0.178755 0.498427
484 1 0.0300998 0.169659 0.49749
618 1 0.0550027 0.187177 0.498381
750 1 0.0482557 0.170801 0.497496
536 1 0.0746151 0.169915 0.501137
570 1 0.182161 0.17011 0.499306
442 1 0.329998 0.173723 0.499621
1062 1 0.335861 0.185975 0.498571
930 1 0.349594 0.176342 0.497655
580 1 0.375042 0.181789 0.495149
436 1 0.362605 0.185182 0.494955
789 1 0.363167 0.174145 0.496878
731 1 0.375426 0.16855 0.494807
795 1 0.38965 0.175143 0.495916
3641 1 0.405201 0.176291 0.496759
1073 1 0.417919 0.180034 0.496368
3448 1 0.429222 0.188792 0.496365
450 1 0.433552 0.175324 0.496286
3369 1 0.44857 0.171259 0.496136
3925 1 0.451099 0.18615 0.496818
3589 1 0.461202 0.172743 0.496666
3151 1 0.465952 0.183167 0.498592
3506 1 0.477083 0.173319 0.497421
800 1 0.494145 0.173576 0.499887
3153 1 0.484886 0.184103 0.500662
256 1 0.00547356 0.198897 0.499895
408 1 0.042733 0.191816 0.498619
260 1 0.0309391 0.199625 0.498013
474 1 0.0419378 0.207185 0.499446
956 1 0.0541545 0.200592 0.499625
941 1 0.331362 0.20791 0.498549
653 1 0.344155 0.213661 0.498769
794 1 0.349232 0.189401 0.496636
3292 1 0.340736 0.199274 0.499446
854 1 0.359448 0.212879 0.498597
311 1 0.358906 0.199713 0.496514
294 1 0.37421 0.194357 0.496343
573 1 0.371609 0.207376 0.496261
727 1 0.384443 0.208905 0.497303
3435 1 0.397509 0.204976 0.498326
592 1 0.386292 0.192417 0.495425
441 1 0.399938 0.18804 0.498642
376 1 0.414135 0.194389 0.498251
3501 1 0.413078 0.207604 0.500261
3519 1 0.426245 0.201254 0.499043
3088 1 0.440646 0.193013 0.497053
3503 1 0.440887 0.204954 0.499142
725 1 0.452869 0.200923 0.497884
3572 1 0.462622 0.210423 0.497608
3444 1 0.464859 0.195499 0.498652
3370 1 0.475605 0.210007 0.49877
1014 1 0.481828 0.19786 0.499722
870 1 0.337986 0.225106 0.49902
853 1 0.351596 0.226143 0.499281
925 1 0.365519 0.225645 0.49921
869 1 0.376381 0.219321 0.500446
792 1 0.402142 0.217533 0.500081
1004 1 0.41833 0.220694 0.501275
3098 1 0.441046 0.235604 0.499665
3233 1 0.437781 0.224221 0.50054
3294 1 0.448911 0.214097 0.498891
3312 1 0.456028 0.224194 0.497738
3383 1 0.470945 0.222814 0.499022
3582 1 0.496432 0.228671 0.498702
3171 1 0.488341 0.214099 0.499372
3642 1 0.462624 0.249838 0.499368
1273 1 0.423754 0.37436 0.499379
1637 1 0.410097 0.373229 0.498244
1489 1 0.436698 0.371753 0.500682
1362 1 0.387145 0.393904 0.499803
3716 1 0.397991 0.384166 0.498152
1343 1 0.399052 0.396031 0.499289
3924 1 0.412116 0.387814 0.498482
1573 1 0.412027 0.399589 0.49891
1410 1 0.42557 0.387769 0.499381
1285 1 0.452531 0.386049 0.501026
1280 1 0.366518 0.424301 0.499206
1332 1 0.36618 0.409192 0.499197
1206 1 0.3815 0.422185 0.499152
1339 1 0.397685 0.421956 0.498916
1429 1 0.39421 0.408187 0.498385
1056 1 0.409039 0.413624 0.499549
1155 1 0.40991 0.426719 0.499259
823 1 0.25903 0.439177 0.49976
1236 1 0.267362 0.448923 0.50008
1072 1 0.3442 0.43057 0.501149
1078 1 0.3521 0.447881 0.499003
1482 1 0.357437 0.435794 0.500538
1132 1 0.368074 0.442986 0.498524
1692 1 0.389032 0.433404 0.497545
1483 1 0.3831 0.445273 0.497784
1291 1 0.399495 0.450019 0.497121
1187 1 0.402672 0.437256 0.498224
1501 1 0.420881 0.433627 0.498839
1360 1 0.412884 0.444874 0.497787
1462 1 0.242836 0.460531 0.499674
1101 1 0.239834 0.474706 0.499932
1272 1 0.253463 0.473999 0.49969
1095 1 0.268239 0.466519 0.498441
919 1 0.279442 0.457134 0.498414
1574 1 0.323549 0.470782 0.499539
1201 1 0.339483 0.472115 0.497823
1419 1 0.342016 0.459335 0.499265
1420 1 0.354877 0.461952 0.499416
1260 1 0.364743 0.469671 0.496117
1644 1 0.365016 0.454275 0.497993
1638 1 0.376159 0.460592 0.497181
1276 1 0.389409 0.458093 0.496309
1499 1 0.399669 0.466747 0.495439
1488 1 0.384173 0.471154 0.495707
4282 1 0.415733 0.468214 0.497103
1264 1 0.42425 0.454695 0.497996
1286 1 0.409923 0.458118 0.498932
1645 1 0.439152 0.475211 0.497895
1504 1 0.43119 0.465608 0.498673
1007 1 0.471491 0.474301 0.500535
4559 1 0.453871 0.473748 0.498617
1176 1 0.223068 0.500711 0.499904
1526 1 0.249881 0.49296 0.498344
909 1 0.237149 0.487715 0.49962
1659 1 0.271556 0.496947 0.496273
1195 1 0.284239 0.488058 0.495927
1103 1 0.263167 0.48554 0.49857
1108 1 0.275579 0.480722 0.498911
1412 1 0.292949 0.477119 0.498722
1270 1 0.299752 0.491989 0.495276
1349 1 0.303911 0.480765 0.497293
1153 1 0.330401 0.48293 0.497716
1196 1 0.31271 0.494601 0.494028
4133 1 0.316721 0.484371 0.497653
1355 1 0.326692 0.495397 0.495352
1259 1 0.34438 0.489427 0.497645
1414 1 0.350214 0.477766 0.498919
4138 1 0.361883 0.485805 0.496226
1840 1 0.374922 0.491854 0.496299
1422 1 0.37503 0.479349 0.496139
1283 1 0.357252 0.49652 0.496733
4275 1 0.391361 0.495611 0.495985
1430 1 0.385723 0.48538 0.495738
1266 1 0.397966 0.479822 0.495614
1632 1 0.419013 0.49051 0.496375
1490 1 0.404125 0.491447 0.495433
1197 1 0.426072 0.476736 0.495774
4621 1 0.41198 0.480622 0.496265
1497 1 0.449972 0.484785 0.497368
1775 1 0.445411 0.50123 0.49757
1773 1 0.435129 0.4885 0.496792
1568 1 0.459798 0.495889 0.497959
1219 1 0.46327 0.483428 0.498639
1710 1 0.474258 0.490486 0.496173
1566 1 0.485081 0.49681 0.497978
1293 1 0.483215 0.481242 0.499131
2291 1 0.00466187 0.0228521 0.500568
2570 1 0.0137902 0.0134639 0.501469
7 1 0.0216019 0.0017896 0.500054
258 1 0.0573482 0.0181859 0.501144
351 1 0.0494422 0.00051858 0.501696
196 1 0.0620273 0.00601418 0.500722
15 1 0.0925066 0.00239522 0.499749
162 1 0.404807 0.0147714 0.498983
380 1 0.474725 0.0129646 0.499366
2408 1 0.477027 0.00162139 0.500428
308 1 0.491607 0.00522776 0.501453
5389 1 0.0222517 0.0386221 0.500703
2639 1 0.00879127 0.0359927 0.501233
5457 1 0.0162656 0.0261258 0.500326
2562 1 0.0311734 0.0263313 0.501174
115 1 0.0492906 0.0436495 0.499329
253 1 0.055786 0.0314797 0.501104
280 1 0.0631037 0.0428927 0.501167
199 1 0.0716938 0.0310932 0.501163
332 1 0.0873312 0.0385375 0.500804
448 1 0.388678 0.0243797 0.499693
31 1 0.417077 0.0363192 0.499657
91 1 0.441958 0.0467087 0.500501
2752 1 0.471371 0.0387368 0.500398
2620 1 0.458019 0.036151 0.500772
3096 1 0.497466 0.039162 0.50038
3084 1 0.498372 0.0257469 0.501526
139 1 0.0130039 0.0500308 0.501009
132 1 0.0183156 0.0654843 0.499949
2708 1 0.0373883 0.050991 0.500705
2635 1 0.031964 0.0692508 0.500782
493 1 0.0564009 0.0552756 0.499729
3219 1 0.0717152 0.0585478 0.499798
6 1 0.0759832 0.0466244 0.502244
329 1 0.0827314 0.0658824 0.499995
2634 1 0.090485 0.0518342 0.500888
202 1 0.109162 0.0514169 0.500056
370 1 0.41271 0.0517557 0.500233
2485 1 0.424083 0.0498551 0.500404
96 1 0.449849 0.0646163 0.500187
2756 1 0.436774 0.0592635 0.500938
93 1 0.430407 0.0699403 0.500629
2687 1 0.455356 0.0481115 0.500923
2884 1 0.469314 0.051281 0.500516
3155 1 0.47747 0.063601 0.499673
2878 1 0.49377 0.053639 0.500672
5472 1 0.489983 0.0674211 0.500905
5 1 0.00867779 0.0735897 0.500569
610 1 0.00735341 0.0897311 0.501625
2712 1 0.0399411 0.0801626 0.499922
128 1 0.0247871 0.0934433 0.500086
180 1 0.0527732 0.0763631 0.49981
127 1 0.0643869 0.0890019 0.500053
183 1 0.0716762 0.0762592 0.50098
130 1 0.0794831 0.0905414 0.500131
613 1 0.100603 0.075542 0.499888
242 1 0.43953 0.0807449 0.499427
519 1 0.431893 0.093279 0.501148
124 1 0.00552893 0.103643 0.500164
406 1 0.000189855 0.115513 0.501289
667 1 0.0205334 0.105029 0.500275
323 1 0.046316 0.102868 0.500757
700 1 0.0698562 0.102231 0.50132
261 1 0.0589259 0.108055 0.502087
277 1 0.0829233 0.103083 0.499714
1042 1 0.210632 0.106468 0.499514
343 1 0.260601 0.106036 0.499993
151 1 0.282199 0.105145 0.500342
220 1 0.290375 0.115342 0.501026
2612 1 0.452683 0.119277 0.499947
733 1 0.456106 0.104874 0.499761
174 1 0.465405 0.11403 0.500745
3566 1 0.000467279 0.140306 0.501017
692 1 0.027458 0.135193 0.499562
624 1 0.0387386 0.143717 0.500121
540 1 0.0629727 0.121404 0.500855
3568 1 0.0507967 0.130701 0.500281
723 1 0.159801 0.14115 0.50028
711 1 0.237113 0.139458 0.500292
423 1 0.231335 0.127699 0.499667
154 1 0.25382 0.137673 0.500506
226 1 0.279404 0.123934 0.501554
783 1 0.276371 0.139232 0.501759
240 1 0.300148 0.125615 0.500663
504 1 0.289291 0.13284 0.500923
432 1 0.310526 0.136896 0.50176
2942 1 0.468235 0.133475 0.49849
418 1 0.00794463 0.162295 0.500867
255 1 0.0114594 0.150182 0.500681
603 1 0.0352849 0.160263 0.499944
184 1 0.0232824 0.148481 0.500843
816 1 0.0486217 0.156854 0.499605
608 1 0.0828948 0.154776 0.50054
753 1 0.109558 0.156913 0.498732
626 1 0.122782 0.157708 0.501626
200 1 0.136059 0.155749 0.500773
412 1 0.119831 0.145971 0.500109
480 1 0.146417 0.162328 0.499605
490 1 0.158473 0.168056 0.500937
557 1 0.156865 0.153397 0.501666
193 1 0.171299 0.149076 0.500092
358 1 0.204768 0.163739 0.500237
159 1 0.24241 0.162316 0.50033
510 1 0.258437 0.157421 0.500841
369 1 0.263132 0.146693 0.502215
362 1 0.274645 0.157257 0.500757
434 1 0.284565 0.163092 0.503652
2675 1 0.300424 0.143727 0.500093
297 1 0.286724 0.146235 0.501914
286 1 0.296912 0.155415 0.502074
560 1 0.310922 0.155654 0.50098
586 1 0.325029 0.162017 0.501329
331 1 0.0074741 0.184653 0.499977
834 1 0.0698817 0.184222 0.500041
334 1 0.0604394 0.176152 0.499413
614 1 0.081864 0.179958 0.500287
974 1 0.0904927 0.190067 0.501383
622 1 0.0888555 0.167311 0.500755
914 1 0.0968313 0.179042 0.50038
471 1 0.109447 0.183067 0.501956
122 1 0.118736 0.170694 0.501561
509 1 0.103762 0.168021 0.499673
619 1 0.133573 0.169655 0.501504
973 1 0.136741 0.182928 0.502736
780 1 0.123515 0.181414 0.503175
688 1 0.163379 0.179059 0.500001
497 1 0.14704 0.178112 0.500496
630 1 0.177833 0.181533 0.500109
764 1 0.189093 0.186973 0.501146
411 1 0.202531 0.181452 0.501956
832 1 0.193867 0.169618 0.500904
639 1 0.228088 0.167298 0.501599
350 1 0.215253 0.166995 0.500143
470 1 0.215493 0.183056 0.501684
492 1 0.229467 0.180671 0.501898
715 1 0.252925 0.169368 0.500068
717 1 0.241537 0.175295 0.50109
581 1 0.244553 0.188503 0.501653
3363 1 0.253872 0.180409 0.502905
920 1 0.26602 0.168112 0.500941
430 1 0.278072 0.176051 0.5042
718 1 0.266577 0.179431 0.502337
87 1 0.272547 0.189272 0.505209
515 1 0.290469 0.175472 0.505173
295 1 0.296334 0.185568 0.503512
508 1 0.304135 0.167773 0.503363
222 1 0.308381 0.184724 0.503004
271 1 0.316478 0.173092 0.501123
299 1 0.322414 0.183143 0.502864
3103 1 0.496213 0.191415 0.499908
600 1 0.000365051 0.211738 0.50164
3635 1 0.0169736 0.200661 0.499786
745 1 0.0283319 0.212271 0.500258
548 1 0.0684653 0.201159 0.500703
746 1 0.0751234 0.211637 0.502231
685 1 0.0775215 0.192944 0.501046
695 1 0.0857851 0.202659 0.501576
542 1 0.114107 0.195279 0.50333
561 1 0.099448 0.199506 0.503299
1133 1 0.111683 0.208386 0.503506
867 1 0.139884 0.196529 0.501999
611 1 0.12661 0.208546 0.502841
843 1 0.127211 0.195385 0.50297
829 1 0.139021 0.209097 0.502301
487 1 0.162225 0.19109 0.500804
704 1 0.14981 0.190747 0.502172
606 1 0.15165 0.20554 0.502365
797 1 0.16426 0.204245 0.500061
981 1 0.174472 0.194456 0.501539
786 1 0.178025 0.208061 0.503293
698 1 0.187135 0.199613 0.502005
635 1 0.191981 0.211398 0.503361
485 1 0.201676 0.195598 0.502512
765 1 0.205221 0.210948 0.502997
1061 1 0.216215 0.20027 0.503484
927 1 0.223954 0.192611 0.502986
847 1 0.218556 0.212124 0.504533
716 1 0.237274 0.197503 0.504638
989 1 0.229947 0.207411 0.506221
713 1 0.250561 0.198053 0.504292
517 1 0.261104 0.192458 0.505142
590 1 0.242738 0.208353 0.50476
514 1 0.261587 0.204479 0.505715
576 1 0.278302 0.201752 0.505545
798 1 0.284049 0.189585 0.505168
719 1 0.292215 0.208438 0.505209
72 1 0.293669 0.197495 0.503895
864 1 0.306492 0.211873 0.504144
985 1 0.307723 0.197658 0.502694
511 1 0.318054 0.209318 0.500925
228 1 0.32406 0.195414 0.49995
803 1 0.429688 0.215426 0.499496
3154 1 0.496068 0.20442 0.500485
388 1 0.000237166 0.225437 0.50305
674 1 0.0117284 0.217571 0.501677
599 1 0.00888094 0.234187 0.503731
815 1 0.0204709 0.226492 0.502901
812 1 0.0324409 0.232018 0.503603
3567 1 0.0374447 0.220816 0.502175
478 1 0.0496011 0.225927 0.501116
1096 1 0.053917 0.213904 0.500707
691 1 0.0600977 0.233994 0.502669
633 1 0.0649364 0.218387 0.502407
844 1 0.0872615 0.215338 0.502859
964 1 0.0828589 0.227605 0.501761
628 1 0.0712889 0.228551 0.503736
840 1 0.0952027 0.228598 0.503149
488 1 0.100004 0.211568 0.502409
848 1 0.108199 0.226022 0.504814
770 1 0.120147 0.220116 0.502853
621 1 0.119543 0.233008 0.503606
821 1 0.135254 0.224812 0.50253
697 1 0.147238 0.233861 0.501993
625 1 0.146642 0.220856 0.50235
551 1 0.160282 0.218701 0.501174
912 1 0.167825 0.232356 0.500652
651 1 0.174913 0.220482 0.501376
1198 1 0.182258 0.237255 0.502612
776 1 0.188972 0.223424 0.502657
649 1 0.194744 0.237671 0.501734
647 1 0.20131 0.223871 0.503348
363 1 0.215179 0.225857 0.505883
804 1 0.227676 0.236284 0.506002
860 1 0.226366 0.221004 0.50545
785 1 0.254302 0.216507 0.505343
3509 1 0.238755 0.220767 0.505349
846 1 0.252139 0.231137 0.504742
1064 1 0.240035 0.233085 0.505092
990 1 0.26778 0.219795 0.50485
714 1 0.28062 0.213246 0.504941
994 1 0.263441 0.236706 0.506837
426 1 0.282915 0.225901 0.504776
1129 1 0.296037 0.221893 0.504074
578 1 0.302668 0.232572 0.504785
721 1 0.326531 0.21929 0.501316
1344 1 0.313288 0.222747 0.504444
3293 1 0.316626 0.237265 0.504383
1055 1 0.329601 0.232383 0.502136
582 1 0.372225 0.236509 0.500958
849 1 0.384899 0.234321 0.500231
932 1 0.390165 0.220821 0.499648
935 1 0.398518 0.23158 0.501155
656 1 0.412535 0.234411 0.500743
501 1 0.426802 0.231849 0.500713
1001 1 0.453058 0.234919 0.499608
3510 1 0.466537 0.236305 0.500116
3014 1 0.483656 0.230933 0.501657
748 1 0.00379432 0.246771 0.504391
541 1 0.0208813 0.237888 0.504534
888 1 0.0172857 0.252029 0.504672
3628 1 0.00221858 0.260059 0.506588
325 1 0.0438458 0.236253 0.503609
629 1 0.0290567 0.248857 0.503817
827 1 0.0414633 0.250378 0.50429
552 1 0.0546427 0.257589 0.505529
609 1 0.0534357 0.244858 0.503329
768 1 0.066593 0.243676 0.505016
616 1 0.0713042 0.259372 0.504366
699 1 0.0825533 0.256047 0.503471
482 1 0.0787366 0.241316 0.503741
769 1 0.0929232 0.243056 0.502818
767 1 0.0969115 0.255049 0.50383
620 1 0.103829 0.237419 0.502602
694 1 0.109691 0.250832 0.502381
908 1 0.134305 0.237659 0.503202
771 1 0.122879 0.260471 0.502933
845 1 0.121388 0.245792 0.504646
696 1 0.131928 0.252742 0.50321
632 1 0.158551 0.239593 0.501378
837 1 0.144947 0.249464 0.502683
710 1 0.158737 0.253135 0.502458
916 1 0.170287 0.245218 0.500636
554 1 0.173011 0.259811 0.501902
918 1 0.18111 0.250308 0.500785
982 1 0.210318 0.23684 0.504192
707 1 0.193882 0.249687 0.501242
923 1 0.206631 0.2527 0.502452
917 1 0.220293 0.249152 0.505671
1063 1 0.235221 0.245808 0.504597
913 1 0.232039 0.259201 0.503611
645 1 0.248649 0.245465 0.506689
791 1 0.246055 0.261746 0.50567
984 1 0.259869 0.264014 0.50573
292 1 0.261677 0.24903 0.505902
788 1 0.27252 0.255504 0.505858
428 1 0.276171 0.239293 0.506515
579 1 0.288467 0.240316 0.503904
931 1 0.302189 0.246 0.505019
500 1 0.286934 0.251822 0.506293
660 1 0.297593 0.258368 0.502329
729 1 0.321791 0.249475 0.504506
1075 1 0.309985 0.256145 0.504513
857 1 0.33475 0.243652 0.501406
1054 1 0.347225 0.237713 0.501957
928 1 0.348374 0.254377 0.502667
1003 1 0.336044 0.258054 0.503353
518 1 0.376962 0.250452 0.503332
1071 1 0.361305 0.250215 0.502545
378 1 0.36994 0.262501 0.504473
3783 1 0.359383 0.236002 0.501963
1070 1 0.38835 0.258959 0.503661
866 1 0.402342 0.258623 0.503786
1149 1 0.39162 0.247237 0.50235
1006 1 0.4041 0.244347 0.501865
3431 1 0.423594 0.243899 0.501045
1134 1 0.415122 0.253419 0.502534
3573 1 0.427437 0.25814 0.503871
1213 1 0.436133 0.247593 0.501409
1005 1 0.441439 0.258862 0.501327
1139 1 0.449613 0.250191 0.500326
3105 1 0.492688 0.242322 0.500961
3298 1 0.493993 0.25621 0.50033
3595 1 0.480156 0.258172 0.499452
2970 1 0.477122 0.246209 0.500686
3561 1 0.0158301 0.26411 0.505479
597 1 0.00711472 0.276056 0.507454
3703 1 0.0204067 0.278097 0.506714
464 1 0.0296653 0.263331 0.504719
887 1 0.042691 0.262177 0.504566
752 1 0.035169 0.276816 0.507247
890 1 0.0473143 0.275833 0.50673
627 1 0.059345 0.272182 0.505597
744 1 0.0706135 0.276471 0.506278
747 1 0.0802189 0.26737 0.50642
763 1 0.0928968 0.271317 0.505604
3774 1 0.0823857 0.283713 0.505891
755 1 0.10356 0.267065 0.501924
689 1 0.107127 0.280509 0.504031
965 1 0.114574 0.269959 0.503888
828 1 0.095201 0.284914 0.504372
702 1 0.135557 0.267029 0.502619
987 1 0.123598 0.279234 0.501489
3636 1 0.135751 0.284372 0.502813
766 1 0.149579 0.262748 0.502926
553 1 0.162941 0.26692 0.502512
962 1 0.146742 0.27709 0.502369
814 1 0.168289 0.282464 0.502534
922 1 0.179511 0.277302 0.501744
657 1 0.187117 0.266357 0.501342
640 1 0.200991 0.269228 0.502083
705 1 0.1925 0.280532 0.502062
778 1 0.208983 0.28093 0.504512
1059 1 0.214688 0.264512 0.503739
906 1 0.221493 0.276039 0.502987
871 1 0.234991 0.272674 0.504509
1050 1 0.235231 0.285926 0.506713
593 1 0.246964 0.276225 0.507723
978 1 0.264692 0.276992 0.504481
1210 1 0.276717 0.269454 0.505898
1207 1 0.284202 0.280408 0.503877
858 1 0.289067 0.267172 0.504781
1336 1 0.296917 0.278212 0.502618
924 1 0.306062 0.26888 0.502275
991 1 0.306428 0.285104 0.503588
1002 1 0.315101 0.276716 0.502213
929 1 0.322698 0.26176 0.503826
868 1 0.328357 0.272065 0.503558
1215 1 0.355969 0.263759 0.505191
1080 1 0.342502 0.27202 0.504851
1137 1 0.340656 0.283602 0.504385
3574 1 0.352464 0.286641 0.505279
801 1 0.370368 0.276957 0.504488
1223 1 0.357807 0.275271 0.505903
1138 1 0.380787 0.270086 0.504301
1145 1 0.390089 0.280731 0.50271
3361 1 0.397632 0.271 0.502825
722 1 0.417157 0.266346 0.504175
1220 1 0.408925 0.277886 0.504589
301 1 0.42092 0.279388 0.504316
3315 1 0.430551 0.270118 0.502801
3717 1 0.44406 0.272521 0.501823
3571 1 0.436491 0.282555 0.502123
728 1 0.453365 0.26394 0.501452
665 1 0.46806 0.262408 0.500389
3651 1 0.46122 0.274135 0.502206
3586 1 0.47367 0.274523 0.500476
1081 1 0.45186 0.28328 0.501448
3722 1 0.487291 0.271671 0.500526
3089 1 0.479594 0.285041 0.501156
3422 1 0.0187021 0.300123 0.508128
3633 1 0.013974 0.288513 0.506899
758 1 0.00919375 0.3101 0.509308
387 1 0.00127811 0.295465 0.508481
830 1 0.0399823 0.290922 0.506973
739 1 0.028957 0.291747 0.507166
3355 1 0.0330037 0.307212 0.506832
741 1 0.0478723 0.304534 0.50767
960 1 0.051297 0.289402 0.506767
807 1 0.0605318 0.301336 0.507416
623 1 0.0661659 0.289695 0.507632
671 1 0.0750261 0.295385 0.506524
680 1 0.077823 0.308719 0.507193
896 1 0.0892058 0.298916 0.505833
3917 1 0.115739 0.289692 0.502574
759 1 0.100285 0.296679 0.503725
820 1 0.111667 0.30228 0.502356
3700 1 0.127387 0.297373 0.502136
787 1 0.138244 0.302095 0.503818
703 1 0.15655 0.285638 0.502959
882 1 0.144759 0.292028 0.502366
899 1 0.15134 0.304769 0.504976
1118 1 0.161662 0.298971 0.503801
772 1 0.173225 0.294519 0.504943
782 1 0.185465 0.291808 0.503544
988 1 0.180208 0.304748 0.504178
1041 1 0.168202 0.309399 0.504598
980 1 0.194213 0.304363 0.505192
910 1 0.202558 0.291251 0.504933
1110 1 0.213807 0.298722 0.505856
850 1 0.223239 0.286885 0.505891
1040 1 0.229448 0.298518 0.506377
841 1 0.222496 0.309188 0.505972
839 1 0.255251 0.287727 0.506039
644 1 0.244897 0.295065 0.505618
968 1 0.254921 0.306183 0.505398
781 1 0.239849 0.30609 0.505526
1116 1 0.274658 0.287631 0.506216
784 1 0.265828 0.295466 0.504102
926 1 0.279636 0.299997 0.503602
709 1 0.268036 0.308927 0.50475
995 1 0.291937 0.304142 0.503645
998 1 0.291928 0.289714 0.504146
856 1 0.303505 0.296442 0.5034
1135 1 0.318058 0.293393 0.501788
1058 1 0.327654 0.285506 0.503204
1204 1 0.326954 0.305244 0.503733
901 1 0.314312 0.30503 0.501499
1140 1 0.33685 0.295691 0.503382
863 1 0.350089 0.297247 0.503525
1067 1 0.365438 0.292077 0.503851
1208 1 0.36416 0.30579 0.504127
3516 1 0.377903 0.288801 0.502906
1146 1 0.378684 0.302983 0.502817
3299 1 0.391639 0.298028 0.502941
3436 1 0.400902 0.287845 0.502551
3575 1 0.400843 0.307674 0.503156
3297 1 0.423584 0.293662 0.503675
3291 1 0.415917 0.307849 0.501466
1348 1 0.41125 0.294303 0.505123
873 1 0.437579 0.296673 0.502438
735 1 0.449324 0.297406 0.501918
661 1 0.465547 0.286689 0.501649
1082 1 0.475115 0.298604 0.500077
1013 1 0.461217 0.300768 0.501695
3234 1 0.491616 0.285056 0.501421
3712 1 0.498562 0.304243 0.501347
1354 1 0.486703 0.297837 0.501483
3608 1 0.00782842 0.324692 0.509871
898 1 0.019818 0.325584 0.511962
947 1 0.0224547 0.313924 0.507667
681 1 0.0423995 0.317505 0.507007
683 1 0.0311418 0.321776 0.509503
969 1 0.0532399 0.322407 0.509576
3690 1 0.0641964 0.314581 0.506884
615 1 0.0650311 0.329415 0.509059
1170 1 0.0744313 0.320078 0.50804
686 1 0.0886267 0.311603 0.504815
886 1 0.0870338 0.324213 0.505537
904 1 0.102679 0.312855 0.503849
601 1 0.0998415 0.324787 0.503609
900 1 0.113632 0.323156 0.504196
836 1 0.122898 0.310967 0.503136
3495 1 0.132122 0.321811 0.505176
952 1 0.143846 0.316167 0.505149
3907 1 0.125399 0.331416 0.505219
3707 1 0.144788 0.328917 0.505667
1090 1 0.155204 0.31726 0.50289
754 1 0.158151 0.33188 0.502688
1165 1 0.167994 0.322343 0.503778
855 1 0.18406 0.318321 0.504962
3634 1 0.185627 0.332794 0.504473
1128 1 0.207101 0.311981 0.504737
773 1 0.197828 0.320558 0.504562
897 1 0.21644 0.321305 0.504982
1113 1 0.230283 0.316632 0.504479
1164 1 0.227409 0.328663 0.506697
1190 1 0.255919 0.319712 0.505541
1292 1 0.244486 0.321401 0.505551
895 1 0.260774 0.335142 0.504691
1052 1 0.239192 0.331786 0.505662
963 1 0.269021 0.324922 0.504622
996 1 0.280903 0.312462 0.504844
1104 1 0.281048 0.329316 0.504587
1032 1 0.29149 0.318441 0.503472
1115 1 0.29395 0.331093 0.503592
1141 1 0.30503 0.315323 0.502702
915 1 0.322188 0.320187 0.502
1124 1 0.308095 0.327033 0.503389
790 1 0.338376 0.311364 0.502418
861 1 0.336703 0.324972 0.501732
983 1 0.350533 0.324868 0.503768
1130 1 0.351375 0.312101 0.502894
1214 1 0.376565 0.316052 0.502747
993 1 0.363872 0.318477 0.501818
1147 1 0.372439 0.329937 0.503156
1288 1 0.387866 0.315123 0.503202
1212 1 0.388624 0.327888 0.501787
1114 1 0.400908 0.334485 0.502157
940 1 0.403062 0.319566 0.502873
3368 1 0.419026 0.323259 0.500969
3852 1 0.43038 0.310737 0.502153
874 1 0.432183 0.32482 0.500832
999 1 0.442713 0.311152 0.502544
1131 1 0.448375 0.32213 0.500325
1148 1 0.44306 0.335021 0.500092
933 1 0.4704 0.310985 0.501738
1069 1 0.457145 0.312428 0.501408
1294 1 0.465251 0.325479 0.501994
4070 1 0.494171 0.318163 0.501628
938 1 0.497975 0.330745 0.503127
1136 1 0.480179 0.322856 0.502409
1012 1 0.484816 0.311787 0.502797
1017 1 0.0124516 0.336635 0.511236
3759 1 0.00723258 0.348667 0.512061
3702 1 0.0181455 0.354499 0.509297
811 1 0.0250537 0.337717 0.510325
3494 1 0.0412887 0.331333 0.510398
532 1 0.0326177 0.349605 0.510823
751 1 0.0449649 0.345068 0.509662
810 1 0.0558715 0.354203 0.510305
3817 1 0.0554619 0.338105 0.509809
1088 1 0.0671512 0.345762 0.509066
555 1 0.0769156 0.334084 0.509499
949 1 0.0803505 0.346995 0.508492
878 1 0.0969299 0.349981 0.507833
3708 1 0.0925224 0.335645 0.507858
3909 1 0.108137 0.338045 0.506096
3551 1 0.11058 0.349983 0.507556
893 1 0.121245 0.343493 0.506554
3687 1 0.134982 0.351323 0.506961
1386 1 0.137825 0.339921 0.504622
948 1 0.153276 0.342248 0.505977
742 1 0.164267 0.349993 0.503897
1099 1 0.149943 0.353554 0.50524
3625 1 0.170496 0.335842 0.504513
1029 1 0.176596 0.347709 0.503308
1107 1 0.198648 0.333615 0.504048
954 1 0.192239 0.3489 0.504626
889 1 0.212097 0.332859 0.504195
959 1 0.205702 0.344329 0.505884
1240 1 0.211052 0.356083 0.504965
877 1 0.219177 0.346315 0.505261
3637 1 0.229642 0.35463 0.50468
1097 1 0.229153 0.340133 0.50453
824 1 0.240675 0.348039 0.504441
835 1 0.250277 0.338711 0.504994
1392 1 0.258942 0.350347 0.503402
1327 1 0.271839 0.340381 0.504055
1120 1 0.285116 0.347175 0.50314
1184 1 0.271635 0.354522 0.502397
1038 1 0.298078 0.342895 0.503416
903 1 0.298686 0.357087 0.501511
831 1 0.310578 0.340874 0.502725
1480 1 0.324778 0.334075 0.50212
967 1 0.311309 0.355509 0.500898
1065 1 0.326511 0.347942 0.501998
1185 1 0.34088 0.336049 0.503304
842 1 0.351244 0.343937 0.503031
720 1 0.338847 0.350461 0.502585
1211 1 0.363791 0.35023 0.501667
1122 1 0.360466 0.335683 0.502029
1202 1 0.377287 0.342165 0.50277
1351 1 0.388505 0.341854 0.501326
1361 1 0.399874 0.34701 0.499854
1068 1 0.389867 0.354987 0.499957
972 1 0.414248 0.337325 0.500669
1079 1 0.412158 0.349418 0.501375
1143 1 0.425415 0.349448 0.500168
1281 1 0.429798 0.336944 0.499329
1144 1 0.438548 0.347987 0.499783
1295 1 0.453529 0.346402 0.501051
658 1 0.455027 0.333895 0.501394
1217 1 0.473724 0.334432 0.502386
1010 1 0.469148 0.344725 0.502373
1066 1 0.486729 0.335209 0.50219
3854 1 0.480048 0.352542 0.500606
4131 1 0.490012 0.34809 0.504098
740 1 0.0031637 0.360992 0.511142
3557 1 0.015057 0.367234 0.509795
3562 1 0.00238585 0.372924 0.508792
3485 1 0.0424964 0.3608 0.510828
3837 1 0.0300091 0.364809 0.510148
808 1 0.0417762 0.373721 0.510058
3709 1 0.0270819 0.378731 0.508389
3846 1 0.0682598 0.357967 0.51105
3490 1 0.0546555 0.367258 0.510505
3631 1 0.0642571 0.376204 0.51059
1092 1 0.0828368 0.358041 0.510136
3836 1 0.0762348 0.369345 0.511219
3911 1 0.0912716 0.367972 0.510271
3552 1 0.0884615 0.380533 0.510976
3767 1 0.103971 0.367216 0.509152
3906 1 0.103491 0.380631 0.509781
3698 1 0.115148 0.37676 0.508115
1033 1 0.116654 0.36223 0.509491
1022 1 0.127264 0.364461 0.506876
3620 1 0.139281 0.363661 0.505977
3706 1 0.128501 0.378233 0.507169
1016 1 0.140847 0.376631 0.506445
3910 1 0.164849 0.365431 0.506447
3916 1 0.151678 0.36666 0.505165
891 1 0.166718 0.377319 0.505987
3843 1 0.186438 0.362758 0.504569
738 1 0.178546 0.381167 0.506621
946 1 0.198594 0.362188 0.505322
1319 1 0.191004 0.378591 0.506784
825 1 0.209271 0.368894 0.505551
762 1 0.224793 0.36747 0.504253
3920 1 0.229617 0.379503 0.503741
966 1 0.238049 0.367092 0.504364
1037 1 0.24806 0.362064 0.504393
1030 1 0.245181 0.3783 0.504459
1326 1 0.262192 0.365382 0.502754
826 1 0.257325 0.379669 0.50311
1049 1 0.274173 0.368478 0.503051
961 1 0.284139 0.359966 0.503594
1252 1 0.289442 0.371736 0.501344
1271 1 0.305631 0.380099 0.50124
977 1 0.301494 0.368752 0.500269
979 1 0.329492 0.362879 0.501705
1045 1 0.315765 0.368665 0.50034
838 1 0.332881 0.376644 0.502622
986 1 0.320452 0.380246 0.502905
1250 1 0.343428 0.365723 0.503007
911 1 0.352205 0.356425 0.502343
1205 1 0.344175 0.380123 0.503616
1150 1 0.359575 0.368328 0.503168
936 1 0.371161 0.370077 0.500148
3923 1 0.374772 0.356925 0.501193
1289 1 0.401734 0.360411 0.499171
1350 1 0.383437 0.367991 0.499574
1428 1 0.395095 0.371712 0.501199
1639 1 0.415393 0.362626 0.500826
1008 1 0.450883 0.372213 0.500718
852 1 0.431439 0.361095 0.500531
875 1 0.445344 0.360308 0.501446
1555 1 0.457739 0.360037 0.501826
3782 1 0.471209 0.362403 0.502379
1076 1 0.474198 0.378747 0.502342
4137 1 0.462455 0.377494 0.502437
1152 1 0.499163 0.372255 0.502692
3787 1 0.492413 0.360623 0.503124
1009 1 0.484206 0.369735 0.503167
3413 1 0.0129416 0.379677 0.508645
3483 1 0.00469764 0.392597 0.508282
4052 1 0.0152168 0.40156 0.50789
3624 1 0.025055 0.391995 0.508634
885 1 0.0372387 0.385877 0.510187
4038 1 0.039597 0.398901 0.508534
3820 1 0.0525289 0.383403 0.509895
3616 1 0.0510412 0.396984 0.510338
3822 1 0.0651641 0.389808 0.510884
3699 1 0.0668791 0.403612 0.51083
737 1 0.0769507 0.382297 0.510672
3830 1 0.0791031 0.396507 0.511103
3968 1 0.0911015 0.39443 0.509848
3772 1 0.104246 0.393493 0.509407
3623 1 0.113792 0.401081 0.508726
813 1 0.120122 0.390132 0.508794
3919 1 0.134049 0.390345 0.509082
757 1 0.129714 0.404369 0.50886
3842 1 0.154907 0.38016 0.506778
3773 1 0.166241 0.393523 0.507325
3770 1 0.147008 0.391355 0.506804
1162 1 0.147203 0.404273 0.509466
3849 1 0.182743 0.39357 0.507885
3695 1 0.196665 0.39132 0.50755
631 1 0.203786 0.381393 0.504819
3839 1 0.192754 0.404979 0.507089
4049 1 0.20806 0.394044 0.50716
1023 1 0.217172 0.38025 0.504664
1026 1 0.223645 0.393448 0.504469
1245 1 0.237551 0.388643 0.504519
1021 1 0.249186 0.390982 0.503267
955 1 0.260657 0.394178 0.502928
971 1 0.268532 0.382198 0.502308
1105 1 0.275796 0.394378 0.503188
1418 1 0.281616 0.383071 0.502785
774 1 0.288317 0.399897 0.502598
1175 1 0.301763 0.398996 0.503288
1256 1 0.293592 0.387404 0.500807
1046 1 0.313051 0.392162 0.501324
1047 1 0.319811 0.404193 0.502
1186 1 0.327791 0.390357 0.501567
1057 1 0.345753 0.393198 0.500918
1125 1 0.356647 0.383169 0.502666
1111 1 0.371953 0.383415 0.501454
851 1 0.362737 0.392489 0.500726
1051 1 0.374825 0.395891 0.499716
1277 1 0.386973 0.380483 0.499354
945 1 0.425417 0.404001 0.499758
1279 1 0.439008 0.385992 0.49997
1282 1 0.442385 0.400087 0.501042
4005 1 0.460468 0.397226 0.501581
3527 1 0.470347 0.390949 0.503192
3577 1 0.497924 0.386146 0.503252
4557 1 0.485127 0.382977 0.504318
4066 1 0.483952 0.39575 0.503466
4274 1 0.495532 0.402896 0.50278
3696 1 0.00595053 0.412297 0.506604
3824 1 0.00536035 0.426779 0.5053
3686 1 0.0167952 0.41603 0.508512
3640 1 0.0278245 0.407613 0.508563
3622 1 0.0394456 0.414066 0.507952
3705 1 0.0290048 0.422323 0.509555
4181 1 0.0481785 0.42381 0.509202
3632 1 0.0534365 0.408297 0.510304
3969 1 0.0642961 0.417627 0.510443
876 1 0.0810362 0.408324 0.509593
3838 1 0.0767597 0.421837 0.50985
3621 1 0.0918577 0.417838 0.510336
3912 1 0.095439 0.406175 0.508785
3983 1 0.106942 0.411799 0.510057
4103 1 0.107283 0.425148 0.510225
1158 1 0.1197 0.411648 0.509918
1794 1 0.130836 0.420266 0.510044
884 1 0.162602 0.406226 0.508948
3915 1 0.143662 0.417438 0.510938
1093 1 0.158763 0.41931 0.510029
1020 1 0.171001 0.418458 0.509612
3769 1 0.180743 0.406687 0.509291
1511 1 0.188524 0.418397 0.509925
1232 1 0.200366 0.416309 0.507347
1234 1 0.208996 0.406086 0.505377
1321 1 0.211283 0.419691 0.506319
1089 1 0.236375 0.409395 0.502967
1441 1 0.222182 0.406018 0.505146
1199 1 0.223112 0.420336 0.503801
3777 1 0.244139 0.421015 0.50246
1106 1 0.249069 0.402603 0.504204
970 1 0.255169 0.414974 0.502917
1043 1 0.258598 0.428256 0.502316
1156 1 0.266785 0.405898 0.502962
1173 1 0.270066 0.418941 0.502107
1255 1 0.281742 0.422745 0.50265
1102 1 0.280192 0.409598 0.502837
1174 1 0.29513 0.422638 0.502747
1177 1 0.293411 0.410399 0.502249
1257 1 0.305579 0.410757 0.501024
1182 1 0.30791 0.425658 0.502572
1121 1 0.319674 0.417403 0.50191
1119 1 0.351783 0.41942 0.500607
1126 1 0.337453 0.406116 0.501341
833 1 0.35359 0.405397 0.499947
907 1 0.334117 0.420112 0.502087
1423 1 0.380502 0.408823 0.49929
3855 1 0.422596 0.417257 0.500091
4061 1 0.434313 0.42609 0.500273
4343 1 0.435371 0.412322 0.499905
1850 1 0.449715 0.412141 0.501705
4062 1 0.44861 0.423211 0.501152
1558 1 0.467544 0.406304 0.503226
1569 1 0.474652 0.419183 0.503244
1505 1 0.461866 0.419042 0.502093
2135 1 0.483824 0.40835 0.503367
3922 1 0.49002 0.420221 0.503453
4389 1 0.0157219 0.449499 0.507362
3971 1 0.00674033 0.439859 0.507805
3556 1 0.0174378 0.431842 0.507084
3694 1 0.0405407 0.433772 0.509028
3763 1 0.0261 0.441559 0.507976
3826 1 0.0487038 0.444559 0.507841
3848 1 0.0606458 0.44237 0.510013
4265 1 0.05983 0.429138 0.510287
4046 1 0.0867498 0.429994 0.510406
4407 1 0.0726752 0.43588 0.509524
3987 1 0.0856351 0.442876 0.507965
4309 1 0.0755542 0.45114 0.508662
4056 1 0.0982803 0.43695 0.508045
3982 1 0.111816 0.43989 0.5094
3778 1 0.119612 0.427657 0.508576
1226 1 0.0988219 0.451366 0.508239
3779 1 0.139312 0.449745 0.509814
1516 1 0.124951 0.446948 0.509711
3554 1 0.13031 0.435673 0.509391
4263 1 0.141498 0.432711 0.510441
1018 1 0.163165 0.452608 0.508056
1171 1 0.155422 0.429906 0.508364
1160 1 0.152068 0.443607 0.50974
1039 1 0.168496 0.438761 0.507963
1301 1 0.176712 0.449075 0.507961
1325 1 0.17881 0.429356 0.507667
4060 1 0.188979 0.445394 0.506535
1166 1 0.202441 0.445138 0.507547
1442 1 0.189997 0.433151 0.508567
1318 1 0.207268 0.432722 0.50604
1387 1 0.234505 0.430933 0.502373
1183 1 0.220053 0.432674 0.504836
1305 1 0.221042 0.446271 0.50468
1316 1 0.234093 0.444543 0.502064
1465 1 0.246399 0.447775 0.500748
905 1 0.246075 0.436575 0.500432
976 1 0.27205 0.433386 0.50147
1109 1 0.280214 0.443066 0.500129
777 1 0.289651 0.450932 0.501913
1320 1 0.304351 0.451996 0.501175
1329 1 0.301605 0.438736 0.501988
1100 1 0.290114 0.436246 0.502964
1209 1 0.32409 0.430279 0.500494
1060 1 0.31468 0.441793 0.502322
1189 1 0.325052 0.444224 0.500618
1053 1 0.338756 0.440899 0.501473
997 1 0.377088 0.434184 0.499833
1359 1 0.44887 0.44996 0.501383
1151 1 0.427555 0.443437 0.499069
3856 1 0.450876 0.435612 0.502455
3720 1 0.438997 0.437938 0.501339
1431 1 0.462289 0.449316 0.50306
1629 1 0.462725 0.432935 0.50201
1712 1 0.474306 0.445726 0.503898
4141 1 0.477446 0.432223 0.502901
4072 1 0.499376 0.445003 0.504137
1225 1 0.49132 0.434153 0.504725
1357 1 0.486052 0.452537 0.503186
3605 1 0.00712043 0.461108 0.505884
3833 1 0.0211213 0.461296 0.507275
4108 1 0.0149849 0.473791 0.504289
4222 1 0.0458875 0.470844 0.506427
3610 1 0.0357457 0.452791 0.507966
3750 1 0.0327559 0.468994 0.506207
4406 1 0.0644048 0.457655 0.508771
3841 1 0.0613747 0.471252 0.506745
4179 1 0.0489271 0.457902 0.508212
3755 1 0.0905479 0.466904 0.50716
3771 1 0.0739923 0.465635 0.506834
4045 1 0.0869056 0.455898 0.506823
1157 1 0.117001 0.474324 0.50614
4119 1 0.110615 0.455102 0.508599
4111 1 0.103751 0.465741 0.507223
1459 1 0.134865 0.47462 0.507404
809 1 0.137944 0.462438 0.508081
894 1 0.126939 0.460951 0.508781
1024 1 0.151292 0.459585 0.508639
1449 1 0.161451 0.468611 0.507766
1112 1 0.185365 0.459292 0.507448
1370 1 0.172503 0.462147 0.508495
1172 1 0.18414 0.471407 0.506669
1373 1 0.211745 0.454992 0.506279
1448 1 0.198922 0.458632 0.504805
4057 1 0.197039 0.474375 0.505242
1169 1 0.226864 0.469499 0.501066
1249 1 0.22989 0.45741 0.501711
957 1 0.214968 0.46643 0.502576
1025 1 0.256757 0.458737 0.499821
1246 1 0.284177 0.467568 0.501897
1203 1 0.309264 0.469647 0.49877
1278 1 0.297389 0.46404 0.501001
1127 1 0.316247 0.457312 0.500488
1426 1 0.330173 0.45712 0.500931
1353 1 0.4376 0.453862 0.499517
4064 1 0.446891 0.464803 0.499726
1411 1 0.46265 0.463208 0.500711
1567 1 0.474816 0.459243 0.503287
1347 1 0.496833 0.475768 0.501289
1705 1 0.500179 0.459619 0.50403
4552 1 0.486428 0.467374 0.501085
4462 1 0.0157441 0.492389 0.504007
4663 1 0.00570399 0.483692 0.503359
4192 1 0.0426353 0.497422 0.50438
4182 1 0.0386153 0.483844 0.504748
4337 1 0.0282229 0.494272 0.502764
4195 1 0.0271558 0.479411 0.503579
3985 1 0.064326 0.490648 0.503962
3761 1 0.0723741 0.481486 0.506146
4104 1 0.0513056 0.483391 0.504834
3482 1 0.0927435 0.484591 0.506578
3710 1 0.0838696 0.474851 0.505785
4125 1 0.079106 0.492244 0.504732
3908 1 0.103855 0.47883 0.506472
4058 1 0.109665 0.490764 0.504789
4127 1 0.096778 0.497342 0.503713
1299 1 0.140625 0.48772 0.505762
3990 1 0.12377 0.487123 0.504533
3986 1 0.129185 0.499734 0.503748
1235 1 0.163096 0.485094 0.507873
4109 1 0.156495 0.495037 0.506471
1242 1 0.15124 0.476672 0.507076
1599 1 0.186505 0.500209 0.504443
3847 1 0.186751 0.484762 0.504597
1237 1 0.17215 0.475508 0.508259
1036 1 0.17292 0.491241 0.506834
4047 1 0.210818 0.492592 0.502245
1330 1 0.197743 0.492762 0.504106
1233 1 0.209017 0.478465 0.504104
756 1 0.222506 0.483641 0.501599
4558 1 0.496343 0.488864 0.499286
1546 1 0.23266 0.516667 0.497516
902 1 0.219021 0.512333 0.49915
1098 1 0.257477 0.503702 0.497071
1253 1 0.237477 0.503184 0.497847
1263 1 0.247849 0.514262 0.497289
1117 1 0.266339 0.514039 0.496827
1388 1 0.277645 0.507994 0.494619
1345 1 0.279215 0.520563 0.494788
1251 1 0.293012 0.515067 0.493675
1031 1 0.304673 0.505885 0.49277
1194 1 0.291478 0.502066 0.494776
1028 1 0.314845 0.518921 0.491544
1178 1 0.319794 0.50439 0.492537
1417 1 0.33054 0.513554 0.492946
1477 1 0.343943 0.518162 0.493341
1433 1 0.339021 0.5014 0.49454
1248 1 0.350217 0.505353 0.495411
1564 1 0.357062 0.519594 0.494617
1265 1 0.372596 0.522223 0.495927
1479 1 0.369363 0.506725 0.494675
1496 1 0.385892 0.519538 0.495116
1342 1 0.39727 0.520629 0.496265
1622 1 0.381813 0.504595 0.496024
1338 1 0.397708 0.507026 0.495504
1553 1 0.409413 0.516814 0.496005
4625 1 0.411455 0.503688 0.496475
1987 1 0.422661 0.515739 0.497068
1406 1 0.426548 0.501229 0.496999
1785 1 0.434976 0.51223 0.497392
4629 1 0.447601 0.513961 0.497635
1559 1 0.459006 0.508689 0.498337
4411 1 0.473275 0.505963 0.498332
1415 1 0.471133 0.519523 0.496177
1708 1 0.496915 0.502842 0.499082
2184 1 0.486919 0.510748 0.498421
4315 1 0.0140127 0.541614 0.498719
3762 1 0.00776386 0.528049 0.498749
3904 1 0.0208766 0.529076 0.499991
4114 1 0.0546604 0.544166 0.498842
4340 1 0.0890088 0.542778 0.497675
4268 1 0.101834 0.539733 0.499402
1297 1 0.135857 0.546485 0.497669
1656 1 0.119909 0.540694 0.497911
1091 1 0.131764 0.534571 0.499107
1524 1 0.15711 0.535542 0.499837
1372 1 0.145007 0.537793 0.49891
1229 1 0.181821 0.543878 0.497512
1383 1 0.183981 0.529086 0.500053
1300 1 0.170147 0.535168 0.499469
1258 1 0.195521 0.524905 0.499047
1123 1 0.210024 0.532049 0.497563
819 1 0.19795 0.540368 0.497456
1402 1 0.223068 0.528303 0.49803
1274 1 0.234269 0.536637 0.497667
1544 1 0.219551 0.544131 0.497088
1331 1 0.243973 0.526155 0.497203
1241 1 0.260036 0.537142 0.495476
1323 1 0.247263 0.538064 0.495719
1394 1 0.262279 0.525164 0.494812
1400 1 0.274616 0.532994 0.494558
1267 1 0.273016 0.545052 0.494088
1486 1 0.285585 0.544074 0.493746
1181 1 0.304411 0.525407 0.493054
1244 1 0.289286 0.529999 0.494178
1536 1 0.298399 0.542081 0.494281
1548 1 0.326055 0.526579 0.493005
1275 1 0.313752 0.536337 0.49353
1269 1 0.325788 0.542589 0.49413
1352 1 0.354377 0.534865 0.493991
1549 1 0.341075 0.530907 0.493243
1709 1 0.339218 0.543915 0.493696
1341 1 0.372511 0.535497 0.494228
1784 1 0.365343 0.545454 0.49396
1851 1 0.381959 0.546755 0.495268
1216 1 0.386432 0.53248 0.495991
1607 1 0.397924 0.533399 0.495497
1635 1 0.395661 0.545198 0.496593
1493 1 0.416104 0.527959 0.495114
1550 1 0.407729 0.538077 0.496767
1340 1 0.419998 0.542432 0.498136
1192 1 0.430629 0.527085 0.496555
4556 1 0.442291 0.528383 0.497462
1995 1 0.448125 0.543623 0.497273
1854 1 0.433373 0.540052 0.496337
1421 1 0.457778 0.523281 0.496997
4833 1 0.458416 0.536107 0.498134
4907 1 0.472881 0.531804 0.49859
1484 1 0.483921 0.539779 0.496947
1640 1 0.487444 0.522517 0.496713
1783 1 0.499468 0.532575 0.496696
1919 1 0.495534 0.545015 0.498322
4687 1 0.000908048 0.566546 0.49676
4247 1 0.0190123 0.565542 0.497554
4326 1 0.0104051 0.556188 0.497682
4306 1 0.0341906 0.566809 0.498608
4757 1 0.0255218 0.552722 0.498904
4330 1 0.0397752 0.553602 0.497575
4335 1 0.0516866 0.5579 0.496855
4540 1 0.0640829 0.554453 0.498687
1790 1 0.0599013 0.568078 0.498615
3973 1 0.0481153 0.571485 0.497657
4187 1 0.0734792 0.563197 0.497776
4186 1 0.0766813 0.548296 0.498464
1437 1 0.0857627 0.559079 0.49813
1594 1 0.098607 0.55584 0.497904
1510 1 0.110399 0.56772 0.496566
1446 1 0.114215 0.554391 0.496894
4196 1 0.0972447 0.568682 0.496499
1313 1 0.13595 0.564961 0.495189
1302 1 0.126871 0.554941 0.497132
1308 1 0.122804 0.568084 0.49443
1796 1 0.157523 0.551287 0.496548
1382 1 0.164041 0.563249 0.494728
1528 1 0.150186 0.56664 0.493749
1243 1 0.145826 0.555199 0.496811
1227 1 0.170205 0.549801 0.496459
1391 1 0.180989 0.560468 0.495041
1314 1 0.172704 0.571786 0.493518
1247 1 0.191987 0.56609 0.494024
1168 1 0.207506 0.550483 0.496509
1035 1 0.191869 0.551947 0.497209
953 1 0.203784 0.56126 0.493263
1470 1 0.213483 0.568146 0.495487
1254 1 0.231048 0.548684 0.49708
1478 1 0.220588 0.558039 0.495304
1048 1 0.233851 0.560669 0.495146
1614 1 0.244996 0.551146 0.495488
1179 1 0.252886 0.56382 0.494931
1481 1 0.260163 0.55272 0.494663
1310 1 0.265008 0.563981 0.494351
1416 1 0.276738 0.572555 0.492988
1268 1 0.276645 0.557062 0.494462
1485 1 0.290249 0.558165 0.495342
1545 1 0.288709 0.570322 0.493969
1747 1 0.302056 0.559788 0.494427
1628 1 0.312323 0.550424 0.494954
1530 1 0.321817 0.559048 0.493422
1322 1 0.329749 0.571351 0.494924
1755 1 0.337786 0.56028 0.491948
1200 1 0.351342 0.551509 0.493779
4623 1 0.350045 0.567562 0.493529
1556 1 0.361867 0.558788 0.492467
1324 1 0.375968 0.557466 0.493161
1630 1 0.369643 0.570841 0.492598
1334 1 0.387999 0.559915 0.495234
1487 1 0.401026 0.565701 0.495979
1763 1 0.410241 0.549951 0.497093
1849 1 0.414817 0.562068 0.497406
1616 1 0.426354 0.555557 0.49597
1287 1 0.427048 0.569294 0.49575
1502 1 0.438874 0.551989 0.496505
1571 1 0.439707 0.565103 0.496449
1923 1 0.452637 0.561751 0.49676
1498 1 0.462265 0.571486 0.496281
1925 1 0.460584 0.552674 0.498961
1845 1 0.47142 0.563498 0.49794
1989 1 0.470758 0.546094 0.496525
1500 1 0.483568 0.557452 0.497444
1778 1 0.487682 0.56763 0.497966
4847 1 0.497847 0.556998 0.497875
4535 1 0.00949129 0.575747 0.49735
1576 1 0.0145245 0.588365 0.496525
4459 1 0.0261898 0.577801 0.49612
1228 1 0.0284191 0.591338 0.496348
4334 1 0.0385124 0.581456 0.497219
1860 1 0.0404925 0.594517 0.494918
1717 1 0.0633524 0.581745 0.495501
4043 1 0.0503774 0.586444 0.495695
1579 1 0.0728145 0.575603 0.498137
4129 1 0.085413 0.574517 0.495804
4193 1 0.0794147 0.586679 0.49566
1312 1 0.0992807 0.584922 0.495182
4339 1 0.113989 0.580809 0.494119
4059 1 0.111797 0.593976 0.494263
1872 1 0.12907 0.581116 0.492993
1296 1 0.141635 0.578003 0.493356
1374 1 0.137524 0.589544 0.490836
1161 1 0.159095 0.575407 0.49327
1167 1 0.15391 0.58631 0.492098
1371 1 0.173349 0.583727 0.490481
1407 1 0.180434 0.595759 0.491408
1304 1 0.185689 0.576505 0.491721
1399 1 0.202425 0.576711 0.493721
1094 1 0.193574 0.58712 0.492417
1720 1 0.213881 0.581871 0.494681
1776 1 0.203884 0.593062 0.493556
1427 1 0.224663 0.574158 0.49394
1315 1 0.222786 0.589449 0.493351
1401 1 0.235279 0.585608 0.494142
1542 1 0.257852 0.577128 0.494697
1384 1 0.243234 0.574741 0.495424
1239 1 0.249299 0.586171 0.49339
1471 1 0.268128 0.583456 0.495186
1736 1 0.27848 0.591559 0.492921
1701 1 0.288946 0.585113 0.492648
1617 1 0.301765 0.577138 0.49406
1541 1 0.314039 0.588305 0.494826
1409 1 0.314047 0.574527 0.495014
1492 1 0.328838 0.589273 0.494161
1562 1 0.34023 0.579232 0.494197
1540 1 0.342307 0.593597 0.492858
1188 1 0.354436 0.591977 0.493345
1398 1 0.375753 0.581794 0.494404
1624 1 0.358499 0.57936 0.492698
1557 1 0.366913 0.591365 0.493145
1777 1 0.383683 0.572632 0.494646
1841 1 0.390431 0.590718 0.495037
1191 1 0.397038 0.579616 0.496038
1844 1 0.423493 0.582356 0.495019
1780 1 0.410201 0.57689 0.495891
1834 1 0.412361 0.589765 0.496078
1695 1 0.429879 0.595265 0.494821
1855 1 0.435258 0.580197 0.497408
1473 1 0.442927 0.589473 0.495409
1476 1 0.446112 0.576186 0.496299
1853 1 0.457778 0.582991 0.49649
1990 1 0.470597 0.580674 0.497981
1405 1 0.482658 0.579542 0.498221
4835 1 0.480951 0.591022 0.495488
1924 1 0.496017 0.580716 0.498301
2060 1 0.492816 0.595 0.496155
4682 1 0.0114725 0.61454 0.496739
3975 1 0.0224086 0.602553 0.497458
4479 1 0.00946219 0.599986 0.496582
4477 1 0.0337569 0.604938 0.496292
1869 1 0.0239933 0.616321 0.497196
1507 1 0.0479243 0.610164 0.495503
4126 1 0.0588755 0.599655 0.494795
4262 1 0.0689297 0.611026 0.495408
4044 1 0.0898863 0.595247 0.493874
4197 1 0.0715743 0.59769 0.495546
4756 1 0.0813 0.606029 0.49394
1231 1 0.101655 0.600178 0.491818
1721 1 0.0951256 0.612154 0.49446
1734 1 0.109061 0.61027 0.491565
1726 1 0.121325 0.61274 0.48943
1535 1 0.123693 0.598059 0.492168
1531 1 0.133619 0.605482 0.490724
1436 1 0.134905 0.61916 0.490879
3850 1 0.162219 0.592988 0.490124
1438 1 0.148674 0.596348 0.491524
1159 1 0.146254 0.608301 0.48996
1650 1 0.159052 0.608903 0.490096
1375 1 0.171341 0.603695 0.489428
1027 1 0.187825 0.614864 0.491659
1603 1 0.173698 0.61534 0.488819
1588 1 0.1923 0.600441 0.493105
1333 1 0.204373 0.608408 0.492746
1595 1 0.229826 0.60264 0.494577
1596 1 0.223642 0.613348 0.493088
1393 1 0.215389 0.598113 0.494455
1378 1 0.239515 0.610607 0.494057
1467 1 0.24272 0.598411 0.494692
1262 1 0.253278 0.607443 0.494644
1655 1 0.261101 0.594849 0.494581
1403 1 0.271489 0.604425 0.495005
1602 1 0.282622 0.615034 0.495479
1452 1 0.266953 0.615893 0.495333
1454 1 0.300031 0.594112 0.49377
1311 1 0.289036 0.601473 0.494561
1381 1 0.296925 0.612193 0.493638
1463 1 0.307338 0.618736 0.493226
1474 1 0.309636 0.604151 0.493908
1390 1 0.322907 0.600242 0.494738
1534 1 0.323407 0.614796 0.49447
1396 1 0.336672 0.605105 0.4943
1693 1 0.350749 0.607402 0.492666
1608 1 0.33745 0.618247 0.493058
1547 1 0.362477 0.606292 0.493649
1702 1 0.374273 0.608049 0.494051
1193 1 0.404043 0.598822 0.496968
1404 1 0.383864 0.602047 0.494584
1475 1 0.397223 0.609011 0.494151
1466 1 0.387837 0.616878 0.495577
1690 1 0.411041 0.610695 0.495632
1698 1 0.420879 0.603085 0.494825
1684 1 0.423876 0.616969 0.496095
1981 1 0.446874 0.608492 0.496676
1700 1 0.435231 0.608824 0.495996
1837 1 0.469586 0.596593 0.497074
1774 1 0.462516 0.609362 0.497297
1491 1 0.453882 0.596369 0.495101
2062 1 0.475209 0.618379 0.497875
1697 1 0.482316 0.606528 0.496884
4766 1 0.495867 0.610556 0.49729
4258 1 0.0150287 0.628769 0.498864
4050 1 0.0375087 0.619384 0.495454
1723 1 0.0260671 0.635541 0.49738
2143 1 0.0381998 0.638726 0.496613
1727 1 0.0470152 0.628996 0.494198
4122 1 0.0581627 0.617236 0.49623
2150 1 0.0595969 0.634792 0.494821
4611 1 0.0673134 0.625849 0.494105
4755 1 0.0796068 0.62158 0.493846
3984 1 0.0906037 0.625535 0.492942
1577 1 0.0771259 0.633505 0.492189
1585 1 0.0939109 0.637915 0.492326
1230 1 0.103114 0.621198 0.49014
1439 1 0.107094 0.634963 0.490856
1580 1 0.123743 0.624866 0.490941
1377 1 0.13417 0.633626 0.491501
4688 1 0.119024 0.638531 0.490901
1519 1 0.160701 0.635251 0.490111
1456 1 0.148546 0.621064 0.490005
1518 1 0.160385 0.621473 0.489811
1512 1 0.14792 0.634183 0.490516
1722 1 0.188032 0.63009 0.491409
1369 1 0.171645 0.630341 0.489857
1798 1 0.213868 0.622896 0.493873
1592 1 0.199206 0.621973 0.491778
1368 1 0.207214 0.635898 0.490196
1812 1 0.196409 0.641729 0.490144
1376 1 0.228216 0.623843 0.493972
1335 1 0.221114 0.635064 0.492379
1742 1 0.235213 0.6354 0.494124
1337 1 0.252189 0.623166 0.496118
1238 1 0.241483 0.623032 0.494674
1397 1 0.248557 0.637466 0.494908
1605 1 0.263621 0.630993 0.495366
1751 1 0.276175 0.629233 0.494368
1460 1 0.272659 0.641559 0.496059
1680 1 0.288158 0.627175 0.495462
1408 1 0.301332 0.628117 0.495774
1457 1 0.298815 0.640592 0.494811
1554 1 0.286393 0.640385 0.497001
1537 1 0.316886 0.630067 0.494556
2029 1 0.330028 0.630858 0.492842
1613 1 0.313018 0.642529 0.493633
1675 1 0.351778 0.621099 0.492823
1317 1 0.343437 0.63341 0.494151
1627 1 0.356454 0.634947 0.493793
1743 1 0.363075 0.621256 0.493687
4555 1 0.375521 0.620964 0.493605
1678 1 0.367969 0.633087 0.493522
1472 1 0.399077 0.623367 0.495562
1691 1 0.38261 0.631952 0.493747
1539 1 0.395179 0.635277 0.495282
1821 1 0.411627 0.623601 0.49609
1590 1 0.421085 0.636994 0.497219
1458 1 0.408619 0.637561 0.495544
4906 1 0.443638 0.622103 0.496443
2110 1 0.432817 0.628709 0.497169
1601 1 0.452475 0.632722 0.497627
1626 1 0.458717 0.621647 0.496426
1912 1 0.468509 0.631281 0.497744
1992 1 0.479895 0.635727 0.496374
1597 1 0.493652 0.634391 0.497239
1918 1 0.48761 0.621596 0.49838
4121 1 0.0158572 0.645596 0.497404
1926 1 0.00995248 0.661508 0.496202
1649 1 0.002599 0.645669 0.497274
4467 1 0.0230007 0.65709 0.496563
4113 1 0.0338676 0.652221 0.4952
1584 1 0.0458401 0.657396 0.494194
4336 1 0.0385937 0.666708 0.494361
1737 1 0.0677633 0.642128 0.493213
4191 1 0.0500017 0.645765 0.493347
4254 1 0.0606135 0.652811 0.493325
1440 1 0.0563713 0.664234 0.493484
1941 1 0.0854452 0.649024 0.491607
1789 1 0.0721938 0.656563 0.492664
4194 1 0.094824 0.658614 0.492227
2013 1 0.103966 0.64995 0.491239
1653 1 0.111645 0.659668 0.491856
4048 1 0.123213 0.653029 0.492403
3989 1 0.136286 0.647819 0.491974
1515 1 0.135182 0.663816 0.489672
1730 1 0.148118 0.647407 0.489422
1740 1 0.16145 0.660697 0.488648
1582 1 0.163473 0.647128 0.491156
1654 1 0.147933 0.66152 0.489948
1591 1 0.177114 0.643239 0.490515
1303 1 0.173824 0.657767 0.488962
1532 1 0.186127 0.652939 0.488764
1955 1 0.199755 0.655364 0.489983
1581 1 0.21126 0.660467 0.491482
1657 1 0.216002 0.648145 0.491142
1523 1 0.228043 0.649246 0.492159
1445 1 0.225467 0.661473 0.492783
1461 1 0.258689 0.643287 0.495133
1522 1 0.252654 0.655865 0.493785
1450 1 0.240899 0.648691 0.493484
1525 1 0.240858 0.664151 0.491741
1752 1 0.261255 0.667018 0.494335
1306 1 0.265462 0.654828 0.496573
1956 1 0.278981 0.653155 0.496564
2026 1 0.274699 0.665024 0.494626
1379 1 0.287579 0.666091 0.497641
1618 1 0.305219 0.652528 0.496989
1820 1 0.291082 0.653505 0.496076
1822 1 0.302064 0.664223 0.496763
1681 1 0.326048 0.64242 0.494019
1527 1 0.319463 0.654092 0.495746
1823 1 0.332662 0.654895 0.49462
1464 1 0.343634 0.64793 0.494938
1683 1 0.356827 0.647775 0.494198
1762 1 0.354009 0.66098 0.494338
1852 1 0.371479 0.64468 0.495746
1682 1 0.368465 0.657498 0.49567
1543 1 0.381314 0.663155 0.496859
1685 1 0.384226 0.645331 0.496525
1749 1 0.398081 0.648049 0.494749
1991 1 0.395324 0.659416 0.49765
1620 1 0.407005 0.666092 0.496123
1356 1 0.422695 0.650069 0.497601
1745 1 0.41127 0.651734 0.495838
2246 1 0.422278 0.664137 0.49875
1974 1 0.436511 0.64515 0.496974
2054 1 0.433158 0.660655 0.498643
2064 1 0.445751 0.656782 0.496225
1985 1 0.452421 0.64543 0.495851
1621 1 0.468764 0.645668 0.495676
1765 1 0.460812 0.658064 0.496879
4848 1 0.473961 0.658495 0.496629
1521 1 0.484011 0.649292 0.497839
1906 1 0.49345 0.65881 0.497252
1846 1 0.500776 0.645042 0.498197
1801 1 0.0134453 0.673482 0.497167
4617 1 0.0235501 0.681398 0.496131
2231 1 0.00687601 0.685167 0.49837
1870 1 -9.39888e-05 0.672216 0.498037
4754 1 0.0250077 0.669233 0.495818
1874 1 0.0361177 0.679608 0.495242
4619 1 0.045219 0.689705 0.496349
4680 1 0.0490652 0.674982 0.495529
1857 1 0.0673748 0.667697 0.49361
4408 1 0.0619607 0.679171 0.493902
3980 1 0.079738 0.666439 0.493978
1792 1 0.0811471 0.681416 0.494032
1787 1 0.0943403 0.683496 0.49375
1517 1 0.0907984 0.67265 0.493478
1729 1 0.102634 0.669669 0.49288
1735 1 0.110343 0.680914 0.492706
1679 1 0.121007 0.690612 0.492273
4200 1 0.127179 0.678646 0.492183
1718 1 0.121228 0.667935 0.492522
1935 1 0.134635 0.689327 0.491037
1800 1 0.144097 0.681244 0.48987
1328 1 0.156001 0.678052 0.48725
1298 1 0.165492 0.690498 0.488724
1538 1 0.181961 0.667809 0.48853
3988 1 0.168999 0.674587 0.489362
1827 1 0.187462 0.681864 0.487116
1811 1 0.177169 0.68805 0.488723
1307 1 0.206783 0.676582 0.489261
1805 1 0.197594 0.668009 0.489483
1589 1 0.199404 0.687457 0.489283
1753 1 0.21864 0.671303 0.49179
1671 1 0.232866 0.674571 0.49047
1884 1 0.231489 0.685907 0.491346
2027 1 0.217993 0.684941 0.490839
1385 1 0.251295 0.671781 0.491568
1750 1 0.244424 0.684335 0.491028
2097 1 0.25645 0.684769 0.492117
1468 1 0.26996 0.676853 0.493587
1739 1 0.276741 0.688277 0.492665
1455 1 0.285442 0.678281 0.494504
1451 1 0.294537 0.687421 0.495039
1756 1 0.300487 0.677481 0.497103
1623 1 0.308235 0.687367 0.496504
1395 1 0.31641 0.667282 0.496588
1963 1 0.329056 0.667453 0.496141
2377 1 0.316994 0.680497 0.498148
1838 1 0.330364 0.681149 0.498441
1529 1 0.341584 0.666578 0.49596
1609 1 0.347004 0.682015 0.49741
1826 1 0.358717 0.673743 0.497933
1552 1 0.370782 0.67075 0.497687
1824 1 0.368609 0.683036 0.499141
1983 1 0.382875 0.677437 0.498347
1767 1 0.3973 0.678519 0.497524
1839 1 0.409666 0.680161 0.498461
1686 1 0.425375 0.677422 0.497892
2056 1 0.439747 0.671354 0.497761
1551 1 0.437669 0.687534 0.497268
1971 1 0.45112 0.681757 0.498082
1842 1 0.466731 0.669596 0.499166
1848 1 0.452757 0.669279 0.497481
2115 1 0.498534 0.671017 0.497239
2043 1 0.48494 0.667977 0.499034
5045 1 0.476915 0.678748 0.499262
2061 1 0.490153 0.683696 0.497822
4405 1 0.0057523 0.700272 0.4994
4184 1 0.0183643 0.692899 0.498406
4394 1 0.0144956 0.713296 0.499868
2492 1 0.00183833 0.712508 0.499618
1795 1 0.0320414 0.692003 0.496562
1864 1 0.0390776 0.702275 0.498158
1813 1 0.0239209 0.704385 0.497677
1651 1 0.0510948 0.704272 0.496255
1867 1 0.0587265 0.692471 0.495615
4260 1 0.0632094 0.704719 0.496391
4130 1 0.0722331 0.69087 0.494627
1871 1 0.0782121 0.705363 0.494466
1802 1 0.0876379 0.694757 0.495434
1882 1 0.0971676 0.702945 0.495689
1876 1 0.104182 0.69221 0.494015
2012 1 0.112023 0.703319 0.493031
1520 1 0.126915 0.701922 0.490151
2306 1 0.122902 0.712668 0.492018
1583 1 0.141053 0.699879 0.489278
1806 1 0.151022 0.692314 0.48894
1669 1 0.160747 0.706532 0.487699
1948 1 0.149768 0.71169 0.489729
1807 1 0.187573 0.696318 0.488313
1885 1 0.172896 0.700968 0.4884
2018 1 0.180673 0.712246 0.488354
1309 1 0.193729 0.710211 0.489745
1453 1 0.208429 0.696174 0.490976
2005 1 0.205324 0.708951 0.488199
4270 1 0.223073 0.695969 0.492793
1593 1 0.237858 0.698145 0.492548
1868 1 0.229245 0.708811 0.492076
1668 1 0.217592 0.708806 0.490215
1808 1 0.243275 0.710493 0.490924
1514 1 0.251474 0.698546 0.492245
1666 1 0.260618 0.710826 0.491951
1830 1 0.263432 0.697432 0.492266
1759 1 0.276131 0.701309 0.493007
1598 1 0.275922 0.713258 0.492103
1893 1 0.288291 0.697491 0.492968
2105 1 0.289761 0.712551 0.494333
1907 1 0.301396 0.700152 0.495111
1887 1 0.314577 0.705141 0.496542
1903 1 0.320762 0.692695 0.496667
2126 1 0.328631 0.703769 0.498037
1612 1 0.356082 0.693885 0.500032
1977 1 0.33593 0.693088 0.498552
1973 1 0.342238 0.702943 0.498245
1760 1 0.360618 0.706943 0.499283
1754 1 0.371769 0.69688 0.499627
1972 1 0.40086 0.692463 0.496238
1687 1 0.386043 0.692965 0.4979
1757 1 0.395262 0.704514 0.49834
1895 1 0.423559 0.690254 0.498319
1975 1 0.411116 0.697032 0.49807
1900 1 0.425043 0.703918 0.498841
2472 1 0.410369 0.710326 0.499324
2395 1 0.440267 0.697332 0.500768
2114 1 0.436357 0.712136 0.498922
1828 1 0.448948 0.706855 0.499557
4915 1 0.480125 0.691075 0.498959
2051 1 0.494376 0.703732 0.497893
4560 1 0.480175 0.705335 0.499855
2004 1 0.0396993 0.724964 0.497821
2015 1 0.0325194 0.713759 0.498506
2218 1 0.0243059 0.723577 0.499753
2488 1 0.0308529 0.736248 0.499632
1866 1 0.0518717 0.729342 0.497614
1873 1 0.0492743 0.716767 0.49759
4472 1 0.0624889 0.718032 0.495338
1586 1 0.0649033 0.731433 0.497669
2009 1 0.0873709 0.714835 0.495966
1942 1 0.074156 0.719508 0.497067
4055 1 0.0844801 0.72907 0.496964
1940 1 0.0958054 0.735433 0.496368
1865 1 0.0972397 0.722365 0.496547
1732 1 0.106303 0.71381 0.496015
1886 1 0.106418 0.730361 0.496449
1676 1 0.116966 0.723415 0.495069
1943 1 0.115966 0.738413 0.49563
1724 1 0.136972 0.713549 0.491272
2583 1 0.127654 0.726917 0.49325
2224 1 0.139446 0.737966 0.492253
2022 1 0.145011 0.725938 0.491163
2165 1 0.158155 0.725 0.490544
2019 1 0.165577 0.734475 0.488884
1741 1 0.169351 0.716376 0.488868
1746 1 0.176449 0.728545 0.489876
1604 1 0.187447 0.724351 0.489311
2024 1 0.190972 0.736478 0.489254
1766 1 0.20142 0.719835 0.489867
2243 1 0.204721 0.732648 0.491178
1261 1 0.216893 0.721332 0.489905
1738 1 0.224267 0.732736 0.490162
1748 1 0.232338 0.72178 0.491697
1615 1 0.251434 0.721285 0.492145
2449 1 0.2426 0.730621 0.492148
1818 1 0.265611 0.739051 0.495353
1606 1 0.266301 0.722584 0.493998
1670 1 0.276856 0.732213 0.494904
2112 1 0.284257 0.722564 0.49488
2109 1 0.293806 0.736248 0.49662
2239 1 0.297999 0.723759 0.495048
1831 1 0.304578 0.734352 0.495107
1694 1 0.305299 0.712696 0.494291
1961 1 0.325059 0.714961 0.494861
1892 1 0.313442 0.72356 0.496132
2398 1 0.330046 0.729558 0.496994
1533 1 0.318992 0.736457 0.496196
2323 1 0.350048 0.714435 0.498383
1909 1 0.338932 0.719587 0.499212
2180 1 0.363132 0.720134 0.498235
1688 1 0.422215 0.715212 0.49844
2120 1 0.444727 0.722053 0.500677
1769 1 0.473383 0.716915 0.499356
4983 1 0.470746 0.729656 0.499171
4975 1 0.458664 0.721846 0.498943
4776 1 0.486789 0.718783 0.500034
2415 1 0.496678 0.73265 0.500325
4431 1 0.484128 0.734551 0.49962
2213 1 0.0416067 0.744986 0.498918
1939 1 0.0558489 0.741198 0.499047
1719 1 0.0560704 0.754009 0.498382
2078 1 0.0681129 0.74993 0.49844
1744 1 0.0726797 0.738445 0.496636
1949 1 0.0798424 0.75664 0.497466
1652 1 0.0844593 0.742087 0.498267
1879 1 0.0920965 0.75144 0.496463
1804 1 0.103773 0.74489 0.495654
1944 1 0.11394 0.753158 0.495633
2010 1 0.10225 0.760253 0.495933
1664 1 0.127322 0.741135 0.493899
2076 1 0.126125 0.754686 0.495341
1662 1 0.140375 0.752215 0.492152
1890 1 0.15399 0.738328 0.491416
2167 1 0.153575 0.751843 0.490907
1880 1 0.166789 0.749501 0.490632
1951 1 0.178075 0.74171 0.490736
2104 1 0.182771 0.754844 0.490333
1817 1 0.207042 0.753973 0.490834
1815 1 0.195729 0.745998 0.491657
1809 1 0.196034 0.760713 0.492057
2166 1 0.213329 0.741219 0.490303
2102 1 0.223412 0.74835 0.490236
1898 1 0.23411 0.740825 0.491894
2311 1 0.231122 0.757029 0.492436
1672 1 0.251989 0.743506 0.493443
1768 1 0.243797 0.753404 0.493147
2040 1 0.255149 0.760318 0.494572
1832 1 0.276287 0.745761 0.495205
2031 1 0.268218 0.756412 0.495584
1600 1 0.284658 0.75692 0.49564
2032 1 0.293419 0.748126 0.496618
1814 1 0.303907 0.758449 0.496567
1689 1 0.309409 0.746868 0.497702
1696 1 0.32726 0.747788 0.497968
2529 1 0.329439 0.759986 0.498876
2318 1 0.314953 0.758766 0.498653
1771 1 0.339732 0.741464 0.498592
1933 1 0.0339278 0.76136 0.499974
2151 1 0.069255 0.763046 0.499611
1733 1 0.0593518 0.769833 0.498369
1883 1 0.0757029 0.774193 0.498631
1661 1 0.0882541 0.766454 0.498159
2221 1 0.093533 0.778824 0.496351
1665 1 0.0794632 0.786054 0.497788
2374 1 0.106471 0.771525 0.494899
2579 1 0.104694 0.784986 0.496037
5250 1 0.119711 0.776185 0.496248
2228 1 0.119026 0.76511 0.493927
1998 1 0.132955 0.783788 0.491512
2504 1 0.130767 0.767257 0.492458
1725 1 0.140985 0.774788 0.491979
1674 1 0.158782 0.763487 0.490628
2301 1 0.147045 0.763637 0.492169
2145 1 0.161671 0.775435 0.491016
2168 1 0.151184 0.779214 0.490843
1896 1 0.171975 0.764233 0.490969
2160 1 0.177277 0.776592 0.489558
4615 1 0.185913 0.768074 0.491853
2576 1 0.190525 0.780913 0.490279
2014 1 0.206505 0.769887 0.492972
1889 1 0.20315 0.781076 0.490658
2023 1 0.218322 0.760068 0.492127
1950 1 0.221384 0.77474 0.493159
1673 1 0.232675 0.781814 0.495105
1888 1 0.215101 0.785227 0.492426
2456 1 0.240434 0.768907 0.494855
2173 1 0.244741 0.785545 0.496365
2234 1 0.252538 0.773934 0.496191
1957 1 0.279243 0.767374 0.496112
2241 1 0.266218 0.769901 0.49454
1897 1 0.276183 0.785535 0.496112
2236 1 0.264164 0.78423 0.497727
2531 1 0.298603 0.782478 0.497367
1902 1 0.286936 0.777429 0.496115
2659 1 0.295942 0.768091 0.498707
1833 1 0.32235 0.772897 0.500336
2170 1 0.310577 0.774627 0.49754
1677 1 0.32388 0.784387 0.498389
2107 1 0.468661 0.769654 0.499642
2188 1 0.456428 0.77906 0.499154
1997 1 0.0437078 0.800935 0.500289
2080 1 0.0434337 0.787342 0.498571
1803 1 0.055701 0.793787 0.500276
1859 1 0.0595037 0.807267 0.499218
1799 1 0.0724009 0.799459 0.500212
2355 1 0.0902384 0.7912 0.498747
2153 1 0.0851213 0.805021 0.497978
2419 1 0.101597 0.799042 0.49617
2425 1 0.113045 0.797682 0.493247
2638 1 0.119087 0.788402 0.493617
2007 1 0.131617 0.797711 0.492323
2442 1 0.121673 0.809985 0.492869
1953 1 0.143837 0.79132 0.491649
1952 1 0.147752 0.805318 0.491775
2162 1 0.155863 0.794763 0.490854
2652 1 0.166709 0.786936 0.490902
2101 1 0.181129 0.791456 0.490968
2163 1 0.169278 0.798192 0.491487
2307 1 0.182771 0.804703 0.490585
2242 1 0.194614 0.793179 0.491122
2028 1 0.207716 0.796132 0.490927
2238 1 0.194997 0.805543 0.490832
2255 1 0.211299 0.806328 0.491465
2042 1 0.223032 0.794628 0.492929
2259 1 0.23614 0.794794 0.494359
2103 1 0.235895 0.806664 0.494721
2159 1 0.222392 0.809377 0.494287
2385 1 0.246852 0.802024 0.49518
2533 1 0.255013 0.793054 0.49669
2315 1 0.27948 0.79853 0.498902
1835 1 0.264806 0.80106 0.497837
2435 1 0.288754 0.790829 0.497471
2164 1 0.299324 0.797141 0.497925
2025 1 0.310914 0.789253 0.497454
2357 1 0.0838023 0.822205 0.499329
5040 1 0.1097 0.814867 0.494175
1938 1 0.097078 0.810854 0.497641
1877 1 0.113008 0.828056 0.494974
2418 1 0.097812 0.825049 0.496314
1810 1 0.135107 0.813589 0.491749
2084 1 0.124879 0.822275 0.493952
2011 1 0.141493 0.824929 0.492629
2017 1 0.153456 0.820123 0.491506
1667 1 0.16711 0.827167 0.492589
2220 1 0.161793 0.811285 0.490808
2098 1 0.173992 0.814323 0.491183
1878 1 0.178705 0.828009 0.493451
1875 1 0.186898 0.817731 0.492848
2082 1 0.19303 0.833132 0.492345
2086 1 0.204038 0.819004 0.492324
2081 1 0.217515 0.823074 0.494433
1816 1 0.231167 0.821348 0.495223
1891 1 0.25483 0.810538 0.497708
1901 1 0.241775 0.83014 0.495268
2446 1 0.242353 0.815046 0.497229
2033 1 0.25644 0.824532 0.497497
2523 1 0.282003 0.823908 0.499011
2305 1 0.267508 0.818588 0.496165
2295 1 0.267683 0.833377 0.497763
2308 1 0.27876 0.810874 0.498839
2190 1 0.292087 0.808757 0.499053
2244 1 0.295629 0.826495 0.499334
2039 1 0.355246 0.820892 0.50044
5043 1 0.374987 0.829912 0.4995
2035 1 0.394753 0.8255 0.500267
2545 1 0.452088 0.814277 0.500633
2030 1 0.088868 0.834539 0.499909
4689 1 0.0946134 0.848055 0.499182
11 1 0.119039 0.840489 0.495321
2497 1 0.104202 0.837269 0.497419
2227 1 0.117037 0.851695 0.49776
2566 1 0.130787 0.834098 0.493945
2574 1 0.131899 0.846859 0.495988
1797 1 0.157195 0.834079 0.491721
2427 1 0.145732 0.839535 0.493485
1934 1 0.155184 0.850539 0.494182
1728 1 0.166399 0.845855 0.492679
2386 1 0.178569 0.841123 0.49179
1959 1 0.179162 0.853848 0.493954
2732 1 0.189757 0.845771 0.492271
2222 1 0.205509 0.835263 0.49323
137 1 0.202859 0.848881 0.494354
2503 1 0.218421 0.835802 0.49533
2083 1 0.216301 0.849542 0.495964
2309 1 0.230694 0.838042 0.49491
2230 1 0.227662 0.853203 0.494635
2044 1 0.254368 0.839514 0.496551
2383 1 0.24095 0.846005 0.495994
2088 1 0.254631 0.851929 0.496666
1965 1 0.268168 0.847207 0.496311
2099 1 0.280062 0.848001 0.498176
2521 1 0.292806 0.853017 0.498154
2232 1 0.288052 0.837454 0.499891
20 1 0.306923 0.834072 0.49909
2516 1 0.312739 0.85429 0.499362
1825 1 0.322271 0.845113 0.498589
4905 1 0.33584 0.847453 0.500863
2174 1 0.34698 0.852408 0.49975
2320 1 0.371414 0.844442 0.499127
2528 1 0.364397 0.856345 0.499012
1915 1 0.396648 0.851063 0.498874
2534 1 0.384109 0.849258 0.498202
1962 1 0.386312 0.837341 0.498312
2196 1 0.426856 0.84229 0.500246
2397 1 0.410232 0.846674 0.498976
2483 1 0.440928 0.854426 0.499739
2340 1 0.427528 0.855051 0.498747
2353 1 0.126047 0.87495 0.500195
2085 1 0.129339 0.860398 0.498425
2568 1 0.138149 0.870338 0.498633
2021 1 0.141775 0.858729 0.495781
1793 1 0.154054 0.864243 0.496111
2509 1 0.148195 0.876775 0.497052
2092 1 0.16155 0.875676 0.494591
2237 1 0.169679 0.863399 0.492579
2381 1 0.182687 0.86826 0.493494
2454 1 0.194858 0.862347 0.493749
2317 1 0.206211 0.862043 0.494895
278 1 0.207812 0.875727 0.494929
2075 1 0.193568 0.875925 0.494813
2424 1 0.220452 0.878894 0.49419
2091 1 0.220836 0.864445 0.493867
2669 1 0.234663 0.873458 0.493385
2093 1 0.23965 0.860666 0.494505
2369 1 0.252626 0.867135 0.49587
2020 1 0.248272 0.879482 0.492775
2464 1 0.266643 0.863227 0.49602
2175 1 0.282311 0.863522 0.495922
1968 1 0.275244 0.873872 0.496165
2453 1 0.290754 0.871561 0.497902
2745 1 0.30025 0.862547 0.497416
4775 1 0.304278 0.878226 0.49919
2522 1 0.32526 0.859812 0.499285
2199 1 0.329674 0.873443 0.497997
2316 1 0.317567 0.879081 0.499349
85 1 0.313631 0.865977 0.498109
2471 1 0.338465 0.861993 0.498859
86 1 0.352128 0.865338 0.498365
2607 1 0.342743 0.876714 0.498372
2334 1 0.372136 0.867626 0.498316
2254 1 0.358795 0.877311 0.498258
2553 1 0.377323 0.878674 0.498138
2679 1 0.388155 0.873203 0.497924
2678 1 0.383933 0.861711 0.499954
2543 1 0.398788 0.862169 0.498511
2401 1 0.399467 0.872943 0.499182
2402 1 0.415758 0.859522 0.498548
2345 1 0.411107 0.876606 0.496655
5006 1 0.425462 0.869502 0.498549
5191 1 0.439462 0.869057 0.499476
52 1 0.0238268 0.89352 0.499508
2436 1 0.0408675 0.888768 0.49971
2158 1 0.116632 0.904459 0.500678
2016 1 0.128648 0.900819 0.498861
2581 1 0.127385 0.89016 0.499407
2439 1 0.138277 0.883998 0.497259
2602 1 0.14311 0.894689 0.497164
2235 1 0.15227 0.88788 0.496542
2089 1 0.155008 0.899524 0.496934
2096 1 0.165956 0.888768 0.495259
2172 1 0.176531 0.880005 0.493389
2431 1 0.167126 0.902159 0.496062
65 1 0.185912 0.891069 0.493725
2416 1 0.18104 0.904084 0.494264
2444 1 0.19882 0.889307 0.494256
217 1 0.193666 0.902811 0.493628
2666 1 0.21104 0.892895 0.494844
2723 1 0.230618 0.886707 0.492841
68 1 0.221483 0.899407 0.493004
2448 1 0.235318 0.898988 0.493101
2380 1 0.24996 0.891875 0.49428
2300 1 0.263562 0.882409 0.496002
1970 1 0.27715 0.889439 0.495125
2382 1 0.265881 0.898671 0.495613
29 1 0.288703 0.883641 0.4965
2458 1 0.300023 0.890038 0.497666
2087 1 0.287038 0.896615 0.496017
2322 1 0.305161 0.901813 0.496376
2384 1 0.313003 0.890674 0.49787
2467 1 0.326137 0.888851 0.500249
284 1 0.332994 0.900354 0.498308
25 1 0.352997 0.88913 0.499304
2747 1 0.339379 0.888649 0.500179
2245 1 0.345684 0.899078 0.498342
1829 1 0.366268 0.890596 0.499003
164 1 0.359518 0.903567 0.49694
1966 1 0.382604 0.893258 0.496734
2404 1 0.404781 0.885727 0.49751
2540 1 0.39291 0.885508 0.49912
2552 1 0.393545 0.902076 0.497567
165 1 0.406258 0.898107 0.498468
1964 1 0.417442 0.888668 0.499024
5258 1 0.417556 0.902924 0.499496
5473 1 0.429487 0.882352 0.4989
2459 1 0.434315 0.895618 0.500644
2628 1 0.0442157 0.923972 0.499546
2720 1 0.0604908 0.91402 0.501108
2722 1 0.0475275 0.909122 0.499774
2294 1 0.127677 0.913904 0.500257
2489 1 0.139329 0.908244 0.498855
2169 1 0.137689 0.922523 0.498703
2578 1 0.152178 0.910779 0.497351
2739 1 0.150746 0.923862 0.497671
69 1 0.161833 0.920361 0.49617
2736 1 0.171747 0.91437 0.496117
198 1 0.179196 0.923443 0.494577
16 1 0.190815 0.91609 0.494514
2651 1 0.205066 0.904862 0.493508
209 1 0.205115 0.918718 0.493592
147 1 0.23447 0.911148 0.493026
2599 1 0.218403 0.912983 0.492795
2447 1 0.228581 0.922815 0.492954
2365 1 0.246336 0.920141 0.493922
2671 1 0.25986 0.923476 0.492637
2527 1 0.245564 0.905776 0.493304
2327 1 0.257732 0.911098 0.493765
2321 1 0.270635 0.91798 0.494187
2594 1 0.283229 0.91695 0.494746
1881 1 0.27815 0.905375 0.495654
2303 1 0.295446 0.908226 0.496548
2302 1 0.295674 0.925018 0.495346
2314 1 0.306275 0.914775 0.49645
2677 1 0.307663 0.929897 0.496018
2161 1 0.319374 0.90429 0.497764
2378 1 0.318235 0.918398 0.496136
2108 1 0.330333 0.914137 0.496569
2181 1 0.345845 0.911212 0.497243
2744 1 0.343717 0.924149 0.497654
2758 1 0.374274 0.906628 0.496962
2605 1 0.359366 0.918385 0.497322
23 1 0.375389 0.923122 0.497227
2477 1 0.385391 0.914595 0.498473
2748 1 0.387994 0.928329 0.49806
2674 1 0.397307 0.915173 0.498876
2470 1 0.409934 0.912732 0.499222
2344 1 0.421037 0.91919 0.49769
2333 1 0.430607 0.907576 0.499154
2336 1 0.443277 0.911343 0.499902
2257 1 0.433176 0.924852 0.497793
2264 1 0.452223 0.921227 0.499404
2445 1 0.0300261 0.929153 0.500333
57 1 0.0424986 0.951297 0.500527
538 1 0.0321813 0.943935 0.500424
62 1 0.0695603 0.95353 0.500025
2649 1 0.0573122 0.940647 0.499971
1958 1 0.132258 0.934625 0.499588
2632 1 0.137979 0.945176 0.497764
54 1 0.144509 0.933096 0.496328
2650 1 0.159801 0.932758 0.494698
63 1 0.149843 0.94517 0.496954
2508 1 0.164775 0.944707 0.493935
2506 1 0.172427 0.933731 0.495163
2575 1 0.182989 0.94584 0.495268
414 1 0.187349 0.93423 0.493776
361 1 0.195046 0.945416 0.494556
78 1 0.200167 0.932813 0.492863
2746 1 0.21003 0.941589 0.49454
18 1 0.216122 0.928019 0.493352
73 1 0.226072 0.9355 0.493483
156 1 0.219862 0.949747 0.493731
2660 1 0.233413 0.948658 0.492025
71 1 0.238789 0.93122 0.493106
2664 1 0.245059 0.943907 0.491618
2520 1 0.252529 0.933343 0.491897
2465 1 0.263759 0.942264 0.492019
2730 1 0.269955 0.930835 0.49464
70 1 0.277265 0.944402 0.491854
2598 1 0.28465 0.933997 0.495647
150 1 0.296782 0.941393 0.494395
2379 1 0.311024 0.942342 0.492996
2225 1 0.320092 0.932414 0.495386
2298 1 0.328713 0.94027 0.495745
2392 1 0.332085 0.928866 0.49501
2253 1 0.342771 0.939385 0.497866
2590 1 0.348 0.952304 0.496706
2680 1 0.353693 0.933998 0.497283
2681 1 0.334062 0.951921 0.496749
2519 1 0.366288 0.932181 0.498375
24 1 0.358559 0.94625 0.498294
95 1 0.374535 0.951372 0.495581
22 1 0.379442 0.940629 0.496669
2393 1 0.402152 0.92808 0.497662
2608 1 0.393645 0.941283 0.497873
98 1 0.40523 0.942364 0.497611
2759 1 0.413953 0.931172 0.498207
2554 1 0.418921 0.946896 0.4987
2400 1 0.425209 0.934646 0.499259
161 1 0.430358 0.951766 0.497847
2341 1 0.444857 0.930896 0.49971
2331 1 0.439804 0.942399 0.498766
2484 1 0.469 0.946785 0.498233
2670 1 0.45802 0.934313 0.498708
2613 1 0.452886 0.945125 0.496693
5252 1 0.48491 0.929177 0.499248
2468 1 0.482742 0.943335 0.49953
2889 1 0.495261 0.943527 0.500053
2685 1 0.498421 0.929594 0.499665
2559 1 0.00898326 0.973019 0.498129
204 1 0.00848094 0.95826 0.498093
268 1 0.0219132 0.97285 0.500115
252 1 0.0212897 0.958349 0.497262
346 1 0.0328376 0.962617 0.498927
58 1 0.0629107 0.963358 0.500769
2642 1 0.0761927 0.965267 0.49999
270 1 0.107045 0.960072 0.500016
2370 1 0.108163 0.976588 0.499692
347 1 0.119417 0.964599 0.499369
2596 1 0.127089 0.953168 0.498959
348 1 0.142033 0.956503 0.496753
2663 1 0.135379 0.968186 0.49799
2499 1 0.148906 0.970778 0.497912
272 1 0.158123 0.956142 0.49641
2646 1 0.160926 0.96924 0.498227
2589 1 0.187593 0.960607 0.495039
2603 1 0.173134 0.956673 0.495639
2593 1 0.175294 0.970239 0.495047
2460 1 0.187751 0.974852 0.494397
76 1 0.203761 0.971932 0.494402
2672 1 0.201624 0.956889 0.495376
2707 1 0.222116 0.973926 0.494363
2433 1 0.215244 0.962656 0.495355
2524 1 0.228706 0.960748 0.493189
2600 1 0.242092 0.972038 0.4927
2387 1 0.243495 0.959443 0.491052
80 1 0.254482 0.953708 0.492192
438 1 0.256378 0.966613 0.491023
2609 1 0.269517 0.971415 0.492519
28 1 0.2683 0.956119 0.492642
2537 1 0.285291 0.967926 0.492926
169 1 0.30018 0.969868 0.492777
2668 1 0.289126 0.951147 0.493413
2601 1 0.302348 0.954715 0.492677
214 1 0.32083 0.974974 0.493213
2450 1 0.320289 0.951657 0.494596
2358 1 0.312876 0.96437 0.494605
2741 1 0.328471 0.964157 0.495849
2614 1 0.334132 0.975132 0.495947
2480 1 0.352957 0.969316 0.497116
2738 1 0.341106 0.965203 0.497223
17 1 0.3633 0.960028 0.497356
2530 1 0.381541 0.962551 0.497073
2606 1 0.368519 0.973727 0.495727
305 1 0.394571 0.95384 0.497848
34 1 0.387361 0.977157 0.497982
2338 1 0.402536 0.97478 0.498456
2673 1 0.407726 0.957833 0.498156
2803 1 0.420074 0.964918 0.498621
94 1 0.443577 0.971491 0.499624
2252 1 0.432375 0.966193 0.49733
2548 1 0.441735 0.957653 0.496363
2621 1 0.45278 0.959077 0.498296
2610 1 0.475061 0.971491 0.499171
2538 1 0.465525 0.959898 0.49706
5519 1 0.00966373 0.988221 0.499507
123 1 0.0632007 0.99221 0.499909
282 1 0.074185 0.978774 0.50066
421 1 0.0853125 0.988908 0.499405
2654 1 0.111062 0.991392 0.499007
276 1 0.0986378 0.989925 0.499207
145 1 0.138367 1.00094 0.498577
274 1 0.127129 0.991279 0.497031
429 1 0.121468 0.978154 0.498402
2157 1 0.138034 0.982698 0.497122
342 1 0.148681 0.990828 0.497309
2636 1 0.163932 0.993258 0.496625
2095 1 0.158096 0.981284 0.496706
357 1 0.188697 0.998201 0.494339
494 1 0.17449 0.998978 0.495286
227 1 0.172007 0.984412 0.495548
2727 1 0.184156 0.987273 0.494313
2582 1 0.201339 0.984414 0.493361
344 1 0.212154 1.00012 0.493724
2515 1 0.200618 0.99594 0.495216
59 1 0.213922 0.983261 0.494147
2441 1 0.231951 0.983041 0.494387
140 1 0.223518 0.9921 0.494349
2399 1 0.255915 0.979385 0.493182
2728 1 0.244605 0.987425 0.49257
81 1 0.256819 0.993413 0.494863
67 1 0.26975 1.0002 0.495469
2595 1 0.281634 0.996801 0.495763
144 1 0.28315 0.982213 0.492938
372 1 0.269747 0.983984 0.49483
309 1 0.295147 0.984161 0.494846
355 1 0.29556 0.997001 0.496664
171 1 0.330398 0.988229 0.496172
2731 1 0.317827 0.992529 0.494685
105 1 0.309149 0.981976 0.49373
2618 1 0.35183 0.995892 0.496309
304 1 0.35428 0.981949 0.495642
2737 1 0.342223 0.986008 0.496609
2547 1 0.368789 0.985628 0.496719
168 1 0.364827 0.996473 0.496752
2735 1 0.38277 0.994462 0.497918
2611 1 0.416794 0.992949 0.499157
2541 1 0.426742 0.980973 0.50055
2550 1 0.415014 0.977921 0.497333
2466 1 0.430593 0.99635 0.499206
2684 1 0.439489 0.984548 0.497851
231 1 0.450438 0.996221 0.500213
3160 1 0.468166 0.984874 0.500308
2805 1 0.464001 0.999674 0.500376
103 1 0.484019 0.991065 0.500287
27 1 0.486351 0.977795 0.499837
4190 1 0.0103668 0.515348 0.50118
4547 1 0.0176952 0.504735 0.50356
4530 1 0.0222547 0.516248 0.502405
4400 1 0.0056843 0.50089 0.502348
4226 1 0.0323996 0.508551 0.502914
3905 1 0.0480144 0.512406 0.5025
4040 1 0.0324545 0.521717 0.499908
3914 1 0.0720934 0.507421 0.503711
1578 1 0.05894 0.501663 0.502258
4112 1 0.0608326 0.515517 0.500836
1509 1 0.0957907 0.515243 0.503131
3840 1 0.0798605 0.52019 0.501712
3981 1 0.0853151 0.505697 0.502848
4051 1 0.117529 0.499824 0.504648
1658 1 0.108077 0.506972 0.50221
4128 1 0.112042 0.518485 0.502174
4053 1 0.122468 0.510926 0.501545
1663 1 0.136867 0.510343 0.501598
1380 1 0.126657 0.522499 0.501571
1513 1 0.152037 0.512634 0.503392
1163 1 0.163099 0.506797 0.50631
1447 1 0.145128 0.49981 0.503333
1389 1 0.174758 0.503285 0.504303
975 1 0.169085 0.520804 0.501597
1444 1 0.182935 0.51332 0.502536
1180 1 0.20728 0.50407 0.501257
1443 1 0.195933 0.509076 0.501838
1587 1 0.206825 0.518803 0.500021
4750 1 0.043354 0.525638 0.50032
3758 1 0.0292088 0.539431 0.499961
4169 1 0.0419937 0.539947 0.499419
4318 1 0.0561444 0.529069 0.499638
3918 1 0.0686731 0.525561 0.500387
4269 1 0.067644 0.539036 0.50058
4198 1 0.0789442 0.533702 0.500002
4267 1 0.0918997 0.53016 0.501323
1508 1 0.103925 0.526969 0.500898
3845 1 0.11554 0.532509 0.502317
1087 1 0.141572 0.523916 0.501279
1086 1 0.157024 0.524033 0.502741
2248 1 0.464747 0.684847 0.499321
1910 1 0.379767 0.708853 0.499029
2182 1 0.453564 0.694198 0.500808
5055 1 0.467138 0.697005 0.500452
2116 1 0.461767 0.708391 0.500631
4409 1 0.00481242 0.724964 0.500934
4681 1 0.0155962 0.731449 0.500072
1611 1 0.348452 0.729969 0.49917
1758 1 0.361016 0.732695 0.499909
1619 1 0.372472 0.727689 0.500944
1908 1 0.384767 0.724597 0.500317
1905 1 0.395548 0.737368 0.501323
2260 1 0.401878 0.723665 0.500136
1847 1 0.393001 0.715725 0.498514
2251 1 0.414181 0.724944 0.499831
2048 1 0.407156 0.739679 0.501431
2038 1 0.431208 0.729417 0.500854
1914 1 0.44197 0.737217 0.501463
2414 1 0.455173 0.735035 0.500425
4751 1 0.00379092 0.740459 0.501803
4685 1 0.0107369 0.752494 0.501943
2146 1 0.0199064 0.743723 0.499267
4760 1 -4.31153e-05 0.756797 0.50391
1960 1 0.0301539 0.752256 0.502355
2141 1 0.0469005 0.762429 0.500632
2676 1 0.340829 0.754337 0.500197
2106 1 0.35549 0.747159 0.501976
4972 1 0.37132 0.744361 0.501477
1761 1 0.377982 0.755404 0.501031
2100 1 0.365872 0.755268 0.501549
1836 1 0.382725 0.739513 0.500998
2247 1 0.403335 0.754782 0.502316
2469 1 0.391165 0.750453 0.502189
2118 1 0.413915 0.749159 0.502805
2275 1 0.419692 0.738164 0.501782
4910 1 0.425591 0.754587 0.50285
5185 1 0.438613 0.76249 0.502955
2203 1 0.439863 0.749836 0.502283
2476 1 0.430424 0.742689 0.501682
2389 1 0.465382 0.741471 0.500303
5186 1 0.454715 0.751859 0.502004
2121 1 0.469085 0.757238 0.501183
5041 1 0.491302 0.746393 0.501476
5255 1 0.485905 0.759492 0.502128
2249 1 0.477501 0.746961 0.500589
5104 1 0.0211494 0.762347 0.501858
2214 1 0.00715733 0.773658 0.50374
4683 1 0.021764 0.776557 0.502645
1996 1 0.0347109 0.773831 0.500492
2079 1 0.0483051 0.77642 0.500907
1660 1 0.0622655 0.781405 0.49928
1819 1 0.351925 0.763127 0.50213
2326 1 0.336352 0.785617 0.500571
2041 1 0.336768 0.769102 0.500241
1610 1 0.347726 0.776288 0.501429
2124 1 0.357715 0.782701 0.500942
2187 1 0.364443 0.769444 0.500786
4974 1 0.376759 0.778111 0.501119
2047 1 0.381982 0.76631 0.501869
2195 1 0.395192 0.764381 0.503228
2615 1 0.391011 0.777332 0.503943
2261 1 0.405805 0.771365 0.502997
2194 1 0.419964 0.783566 0.5025
5331 1 0.415433 0.76355 0.503732
2122 1 0.425371 0.769597 0.502649
2474 1 0.440673 0.774781 0.502509
5113 1 0.454833 0.764516 0.500509
4988 1 0.471033 0.783065 0.501242
2269 1 0.497475 0.782575 0.502164
2475 1 0.494368 0.770292 0.502186
5188 1 0.484966 0.783526 0.501575
1979 1 0.48043 0.771179 0.50202
2507 1 0.00463958 0.786884 0.502846
4752 1 0.0167118 0.789373 0.502674
1856 1 0.00779763 0.80377 0.502963
2148 1 0.0284768 0.800011 0.501813
5039 1 0.0292187 0.787157 0.501353
1699 1 0.323269 0.797178 0.500407
2240 1 0.309641 0.80293 0.500569
2328 1 0.351546 0.794097 0.500485
2037 1 0.336851 0.797972 0.50055
2034 1 0.345892 0.807767 0.5014
5123 1 0.368377 0.788209 0.499692
2036 1 0.368471 0.801657 0.501647
2312 1 0.357221 0.807482 0.502123
1894 1 0.401998 0.788874 0.503178
2176 1 0.383616 0.789423 0.501353
2539 1 0.382501 0.802979 0.501705
2517 1 0.393843 0.79949 0.50163
2113 1 0.40479 0.807459 0.501465
5195 1 0.418554 0.809598 0.500745
4914 1 0.413939 0.795663 0.502302
2117 1 0.431976 0.789234 0.502976
2179 1 0.428838 0.803285 0.502499
2171 1 0.444162 0.802645 0.501712
4976 1 0.446651 0.787267 0.502539
2123 1 0.456718 0.80411 0.501517
2342 1 0.469226 0.797315 0.503377
5115 1 0.459578 0.791436 0.502749
5117 1 0.480511 0.793396 0.501511
4846 1 0.49336 0.79646 0.501073
2403 1 0.483054 0.808732 0.501354
2283 1 0.0123962 0.816414 0.503884
2147 1 0.0113469 0.828919 0.505614
2505 1 0.0247138 0.816526 0.503539
5529 1 0.0350945 0.827406 0.503767
2363 1 0.0385833 0.813496 0.50155
2366 1 0.0477585 0.830397 0.50242
2297 1 0.0511579 0.816877 0.501487
2152 1 0.0626905 0.827174 0.501724
2299 1 0.0708108 0.813055 0.500433
2536 1 0.303228 0.814745 0.501087
1764 1 0.319839 0.812048 0.501163
1899 1 0.332399 0.810489 0.502094
2394 1 0.321233 0.83339 0.501131
2390 1 0.313591 0.822763 0.500135
1969 1 0.328308 0.823605 0.502178
2396 1 0.342582 0.820996 0.502004
2313 1 0.363056 0.831426 0.498927
1967 1 0.368466 0.81815 0.501328
2407 1 0.382667 0.818415 0.501712
2532 1 0.394995 0.813484 0.502895
2412 1 0.424991 0.820883 0.500167
2690 1 0.414977 0.832808 0.500083
2189 1 0.407346 0.822541 0.501866
2265 1 0.446296 0.827447 0.501091
2542 1 0.436205 0.817226 0.501741
5111 1 0.431834 0.83218 0.501082
2273 1 0.469927 0.810179 0.501148
2329 1 0.459099 0.826681 0.500254
5129 1 0.472633 0.821211 0.500494
5336 1 0.471785 0.835075 0.501494
5047 1 0.497069 0.810725 0.500315
5399 1 0.487793 0.821783 0.500929
5243 1 0.00646375 0.840884 0.505315
5178 1 0.0200879 0.848136 0.502366
2567 1 0.0229285 0.834794 0.503868
2155 1 0.0103474 0.856103 0.503719
2711 1 0.0316635 0.851678 0.502417
5316 1 0.0392169 0.840596 0.503407
2423 1 0.0662213 0.84381 0.500337
5318 1 0.0501051 0.850835 0.502442
5036 1 0.0552149 0.839501 0.502414
2569 1 0.0806192 0.846507 0.500044
2233 1 0.0751006 0.833125 0.500921
1945 1 0.104742 0.856905 0.498813
2319 1 0.301715 0.844613 0.499846
2310 1 0.348186 0.833376 0.500503
2473 1 0.334443 0.833759 0.500741
2462 1 0.356545 0.844062 0.50017
2597 1 0.400464 0.839705 0.499233
5330 1 0.440842 0.840908 0.499074
5471 1 0.453575 0.857105 0.500355
5192 1 0.453244 0.84014 0.502243
5002 1 0.465373 0.849748 0.5016
2192 1 0.4881 0.835065 0.50163
4980 1 0.496187 0.846691 0.502378
5112 1 0.482614 0.846223 0.501762
2717 1 0.0131627 0.870203 0.502097
2719 1 0.0246092 0.864064 0.502191
2560 1 0.0276382 0.880761 0.499627
2440 1 0.0424296 0.860809 0.501994
2644 1 0.0361326 0.87123 0.501973
2304 1 0.0685945 0.875266 0.501106
205 1 0.061534 0.857871 0.502222
2432 1 0.0549973 0.869153 0.501643
2577 1 0.0836287 0.875869 0.501233
2077 1 0.0719959 0.861187 0.500269
2287 1 0.0878757 0.860931 0.501431
2367 1 0.10989 0.876017 0.501561
2451 1 0.0979683 0.872395 0.500718
2226 1 0.117284 0.863906 0.500511
5267 1 0.476485 0.858841 0.500771
2325 1 0.463373 0.865097 0.50058
5118 1 0.467268 0.879733 0.501963
4908 1 0.45443 0.874325 0.501569
4850 1 0.492335 0.869352 0.503248
2193 1 0.488995 0.857953 0.502137
2266 1 0.480346 0.873702 0.501994
2709 1 0.0136658 0.882953 0.501368
2557 1 0.00988348 0.89642 0.500613
2371 1 0.0340264 0.902349 0.500317
2585 1 0.0524645 0.896293 0.499987
1954 1 0.0507591 0.880278 0.501021
2216 1 0.0631212 0.886111 0.500774
345 1 0.0662194 0.899851 0.500866
2656 1 0.0869416 0.901619 0.501738
1946 1 0.0927438 0.887448 0.501713
2558 1 0.0768104 0.8895 0.501497
2094 1 0.115399 0.889655 0.500548
2641 1 0.103433 0.895484 0.501094
2330 1 0.447529 0.896654 0.501193
2479 1 0.442686 0.884272 0.499891
4904 1 0.458297 0.889677 0.501124
2682 1 0.468384 0.901689 0.503313
5146 1 0.476208 0.889607 0.502385
2339 1 0.493713 0.894879 0.502231
4996 1 0.491198 0.882875 0.503722
56 1 0.00904539 0.910735 0.500227
2648 1 0.0203645 0.919782 0.499477
2627 1 0.00416675 0.924522 0.502215
2563 1 0.0219804 0.906903 0.500811
2587 1 0.0335382 0.917772 0.501455
2584 1 0.0546235 0.926472 0.501366
2373 1 0.0700522 0.925802 0.500407
51 1 0.0903817 0.91411 0.499477
2643 1 0.0744042 0.910811 0.500975
2443 1 0.0838054 0.924545 0.501393
2518 1 0.11222 0.914906 0.501396
2372 1 0.100247 0.920094 0.502576
2592 1 0.100456 0.908085 0.501705
143 1 0.121327 0.924074 0.502226
5262 1 0.455797 0.906851 0.501199
5184 1 0.464543 0.91841 0.500651
2686 1 0.485239 0.90423 0.501642
2765 1 0.490832 0.918318 0.500174
2343 1 0.476643 0.915528 0.501204
2703 1 0.00347145 0.940091 0.499751
2494 1 0.0142094 0.933694 0.500426
2564 1 0.0174224 0.946642 0.500314
2438 1 0.0438652 0.936868 0.499084
2591 1 0.0711957 0.939266 0.500945
2715 1 0.083464 0.938875 0.499806
2498 1 0.0943271 0.932995 0.501534
2375 1 0.10867 0.930875 0.502247
2657 1 0.0965098 0.947726 0.500546
2729 1 0.109718 0.947042 0.501131
2725 1 0.122643 0.942103 0.49987
2332 1 0.471999 0.932058 0.500239
129 1 0.0369078 0.973914 0.50105
2645 1 0.0539289 0.954652 0.50027
77 1 0.0490422 0.967023 0.500879
265 1 0.0918381 0.963296 0.500247
2535 1 0.081547 0.951212 0.499468
2290 1 0.0848504 0.973921 0.500971
2376 1 0.0957623 0.975944 0.50088
2625 1 0.460744 0.971877 0.499517
2750 1 0.479342 0.956453 0.500722
383 1 0.490114 0.963287 0.501221
188 1 0.022178 0.987922 0.500877
2364 1 0.0361865 1.00027 0.499782
2514 1 0.0370007 0.986607 0.50196
2437 1 0.0505481 0.984828 0.501666
2658 1 0.0606521 0.97744 0.499801
2740 1 0.396449 0.988856 0.49789
452 1 0.453444 0.983691 0.499056
3011 1 0.502405 0.0136244 0.500128
2788 1 0.727483 0.0105824 0.499066
5366 1 0.757293 -1.90439e-05 0.499365
5365 1 0.75226 0.0123082 0.499308
2854 1 0.779891 0.00384638 0.49685
2830 1 0.765375 0.00840843 0.498606
3205 1 0.776158 0.014434 0.499727
5430 1 0.763916 0.0222138 0.500544
2967 1 0.79294 0.0111774 0.497868
5377 1 0.808062 0.0115554 0.496481
5218 1 0.785241 0.0223669 0.498981
5295 1 0.819113 0.00703483 0.493568
5497 1 0.824274 0.0179686 0.494425
5518 1 0.835404 0.0108844 0.494431
2855 1 0.847527 0.0127546 0.494311
2699 1 0.856226 0.021426 0.497168
5500 1 0.857982 0.00426973 0.495578
5450 1 0.871737 0.00930854 0.496241
3004 1 0.870674 0.0209059 0.497106
5222 1 0.883689 0.00267492 0.496393
2861 1 0.886207 0.0146843 0.496777
4942 1 0.898639 0.00178889 0.497519
5458 1 0.903632 0.0142656 0.497248
2631 1 0.919982 0.00951186 0.498832
5171 1 0.912346 -6.09197e-05 0.49637
5528 1 0.932257 0.0201326 0.498627
2276 1 0.932259 0.00607773 0.498556
46 1 0.944439 0.012914 0.498792
5293 1 0.951614 0.0255384 0.498143
2716 1 0.951394 0.00252592 0.499634
5522 1 0.960081 0.0156723 0.499605
5319 1 0.968156 0.00221764 0.498725
3136 1 0.775369 0.030049 0.499545
5235 1 0.783793 0.0408116 0.49795
5410 1 0.796604 0.0274097 0.498415
5301 1 0.799486 0.0408105 0.497291
2857 1 0.809602 0.0254912 0.496222
2785 1 0.81774 0.0351631 0.496078
5438 1 0.828889 0.0290968 0.494961
5516 1 0.82363 0.0485804 0.496046
5435 1 0.841744 0.0272216 0.494937
5492 1 0.837466 0.0428185 0.495877
2779 1 0.85599 0.0336423 0.496004
2936 1 0.869861 0.0354021 0.49744
2870 1 0.87976 0.0468806 0.496829
2799 1 0.867279 0.050533 0.49763
5439 1 0.882495 0.0285519 0.496918
5448 1 0.89537 0.0276999 0.497052
3075 1 0.891374 0.0404398 0.496758
2939 1 0.910052 0.0267605 0.499454
2700 1 0.905766 0.0407842 0.497979
2933 1 0.922081 0.0258945 0.498874
2637 1 0.949419 0.0368219 0.499568
317 1 0.964475 0.0414925 0.499423
2886 1 0.517352 0.0648363 0.498322
2928 1 0.770006 0.0658654 0.501151
5155 1 0.779511 0.0584311 0.498721
5359 1 0.792383 0.0511986 0.498709
5237 1 0.802014 0.061844 0.49809
2927 1 0.809244 0.0482872 0.498265
114 1 0.814156 0.0613685 0.497228
2931 1 0.827416 0.0606561 0.498756
2565 1 0.852348 0.0502567 0.497558
2704 1 0.835565 0.0715994 0.495069
106 1 0.850353 0.0669801 0.495373
386 1 0.839601 0.0569753 0.496837
2698 1 0.871954 0.0631612 0.496273
42 1 0.860739 0.0614588 0.49607
5428 1 0.885217 0.061632 0.496626
3 1 0.895325 0.0707029 0.497801
3072 1 0.89598 0.0530818 0.498416
466 1 0.906349 0.0585814 0.499238
5525 1 0.929134 0.0529321 0.499548
5308 1 0.917531 0.0636171 0.497321
5446 1 0.91635 0.0486205 0.497557
5456 1 0.949521 0.0653832 0.498061
120 1 0.934638 0.0658746 0.498028
2486 1 0.966237 0.0606296 0.498558
2798 1 0.953117 0.0517376 0.497897
38 1 0.976284 0.0499342 0.499877
2640 1 0.980696 0.0652958 0.500815
3019 1 0.523894 0.086622 0.498389
101 1 0.509541 0.0910297 0.498135
2873 1 0.514006 0.0768445 0.498401
2807 1 0.535172 0.0851387 0.498757
3037 1 0.544551 0.0722101 0.500385
3165 1 0.528309 0.0744302 0.498734
2905 1 0.548941 0.0850163 0.499528
3237 1 0.568278 0.0891256 0.500429
3077 1 0.797056 0.0751697 0.500532
3141 1 0.823111 0.0738153 0.496207
3002 1 0.80949 0.0740065 0.497146
2864 1 0.822912 0.0874881 0.495302
5356 1 0.810598 0.0859063 0.49854
3149 1 0.847893 0.0799536 0.494844
110 1 0.835856 0.0840981 0.497015
36 1 0.854219 0.0897957 0.496909
5374 1 0.867877 0.0892761 0.496306
116 1 0.861736 0.0762947 0.49562
3005 1 0.875986 0.0764516 0.496761
2633 1 0.902065 0.0886695 0.499006
320 1 0.886737 0.0846794 0.497676
5307 1 0.922509 0.0785114 0.499021
2863 1 0.91537 0.0895736 0.499395
109 1 0.906615 0.0754952 0.497769
5236 1 0.937658 0.0772793 0.498603
5425 1 0.94326 0.0879079 0.498321
9 1 0.9638 0.0737467 0.498189
187 1 0.969328 0.0846532 0.49881
2705 1 0.955068 0.0910806 0.49942
5385 1 0.949337 0.0785262 0.499091
47 1 0.994605 0.0733897 0.499646
136 1 0.994641 0.0858494 0.500568
2561 1 0.981592 0.0791636 0.499216
118 1 0.980398 0.0936702 0.498923
5325 1 0.500456 0.0991043 0.497303
3017 1 0.510927 0.117156 0.498207
3086 1 0.51321 0.102882 0.497596
2888 1 0.526029 0.100406 0.497865
3156 1 0.525321 0.11248 0.49637
3091 1 0.540407 0.114503 0.497448
3172 1 0.539928 0.0984487 0.498309
3303 1 0.554622 0.111624 0.499232
5214 1 0.568586 0.10987 0.498831
3379 1 0.558217 0.0982331 0.49831
3006 1 0.819023 0.0986703 0.499951
2995 1 0.83167 0.0966948 0.498601
2865 1 0.846062 0.098422 0.496898
465 1 0.835745 0.107404 0.497869
3359 1 0.84929 0.113373 0.497783
458 1 0.861088 0.100847 0.49639
321 1 0.878683 0.0965198 0.497162
690 1 0.867324 0.112974 0.498186
3499 1 0.890825 0.0976854 0.498299
3007 1 0.902401 0.105663 0.498918
5310 1 0.884075 0.110134 0.497747
3209 1 0.898861 0.118951 0.498044
113 1 0.919463 0.102143 0.499717
335 1 0.912954 0.114295 0.500012
181 1 0.929194 0.113756 0.499238
247 1 0.951335 0.103268 0.499891
50 1 0.937384 0.102519 0.499089
3080 1 0.96048 0.110766 0.499412
37 1 0.966209 0.097304 0.498922
404 1 0.973814 0.11061 0.500279
117 1 0.98675 0.109975 0.499
3513 1 0.510408 0.132764 0.49676
3227 1 0.522939 0.124528 0.496818
3378 1 0.526152 0.136208 0.495786
3090 1 0.540176 0.136259 0.497004
3244 1 0.535328 0.124736 0.496268
3373 1 0.549224 0.127826 0.497027
3173 1 0.560904 0.122817 0.498701
3795 1 0.573046 0.125594 0.4999
3076 1 0.834373 0.120066 0.499272
2997 1 0.845949 0.127006 0.499771
475 1 0.880377 0.13558 0.498202
3130 1 0.881059 0.122913 0.497705
3262 1 0.894694 0.129828 0.498788
66 1 0.911141 0.126979 0.497844
2868 1 0.907117 0.138378 0.497949
249 1 0.926147 0.126779 0.498672
125 1 0.920624 0.138511 0.498017
544 1 0.939025 0.125945 0.498405
3268 1 0.950235 0.132413 0.498602
469 1 0.938159 0.13904 0.499506
3214 1 0.960289 0.123605 0.498621
2937 1 0.959956 0.141201 0.499002
3286 1 0.974072 0.124639 0.500004
543 1 0.989255 0.135404 0.500045
3576 1 0.499617 0.163052 0.498302
2974 1 0.5189 0.1482 0.498198
2917 1 0.507034 0.147458 0.49665
3649 1 0.512673 0.163829 0.498529
3433 1 0.54417 0.159011 0.499818
3159 1 0.534507 0.149264 0.498249
3157 1 0.527822 0.162142 0.497744
3180 1 0.549723 0.145625 0.499954
3520 1 0.568693 0.163523 0.499652
5530 1 0.896266 0.146111 0.499505
3060 1 0.882377 0.149179 0.498991
107 1 0.904479 0.155107 0.499817
3211 1 0.924034 0.16052 0.498681
319 1 0.916875 0.151641 0.49679
5513 1 0.92891 0.147606 0.497779
3218 1 0.948968 0.146774 0.496748
526 1 0.939339 0.153934 0.498272
605 1 0.953229 0.160512 0.49918
473 1 0.967125 0.154004 0.498754
3087 1 0.507388 0.178089 0.498678
730 1 0.521279 0.178815 0.498455
3164 1 0.538208 0.171538 0.500185
3441 1 0.548869 0.180366 0.501044
2784 1 0.572156 0.176868 0.498498
3042 1 0.583805 0.185529 0.499151
2869 1 0.901058 0.166285 0.499632
5298 1 0.894217 0.178315 0.49913
40 1 0.913517 0.166781 0.499235
528 1 0.918001 0.180763 0.499325
1 1 0.941123 0.167141 0.498225
3204 1 0.928636 0.173661 0.498092
3279 1 0.94619 0.182751 0.498728
682 1 0.969104 0.176894 0.499108
459 1 0.957638 0.174841 0.497575
533 1 0.977105 0.188651 0.49839
248 1 0.982817 0.175851 0.500259
318 1 0.990319 0.186948 0.499683
8 1 0.998067 0.174104 0.49893
2847 1 0.52345 0.19449 0.500032
3660 1 0.512173 0.205493 0.50066
3092 1 0.509838 0.190927 0.499039
3372 1 0.566914 0.206218 0.499213
3309 1 0.556156 0.210311 0.500376
3302 1 0.569044 0.193386 0.498428
3085 1 0.554218 0.19521 0.498894
3110 1 0.579915 0.200244 0.498932
3874 1 0.594804 0.201193 0.497411
2982 1 0.85791 0.212043 0.499826
2800 1 0.881471 0.194602 0.500118
3220 1 0.907102 0.191815 0.49965
457 1 0.948383 0.197606 0.499501
5408 1 0.937129 0.200822 0.500344
3349 1 0.962672 0.189114 0.498982
456 1 0.959108 0.203183 0.499066
3381 1 0.518644 0.228773 0.49947
3300 1 0.507974 0.233495 0.499107
3583 1 0.540307 0.232246 0.498314
3241 1 0.546385 0.22149 0.500016
3858 1 0.566697 0.219644 0.499187
3094 1 0.558016 0.228291 0.499449
3581 1 0.599684 0.216237 0.498211
3238 1 0.519438 0.24689 0.500335
3107 1 0.505614 0.247466 0.499822
3511 1 0.512776 0.261315 0.499947
942 1 0.539566 0.259106 0.498139
3257 1 0.540938 0.247679 0.497697
3461 1 0.527748 0.259033 0.499741
2980 1 0.529419 0.240317 0.497726
3643 1 0.553966 0.240437 0.496725
3656 1 0.567389 0.242025 0.499015
3295 1 0.558404 0.252724 0.4981
799 1 0.534782 0.274209 0.499483
1432 1 0.550244 0.265305 0.499017
2977 1 0.581308 0.265073 0.501976
3464 1 0.775817 0.308731 0.49869
3525 1 0.767932 0.297437 0.500244
3412 1 0.785271 0.29828 0.498776
3202 1 0.790761 0.310302 0.499075
2844 1 0.798618 0.298149 0.500268
3877 1 0.778237 0.320656 0.499424
3407 1 0.791883 0.322803 0.499518
3397 1 0.804942 0.313519 0.499943
3535 1 0.778953 0.334065 0.499243
3194 1 0.822337 0.346906 0.498559
3338 1 0.810231 0.34015 0.499377
3489 1 0.855247 0.354859 0.500136
3478 1 0.785054 0.380945 0.499505
3602 1 0.809043 0.378403 0.500663
3600 1 0.797524 0.383615 0.499386
3536 1 0.789733 0.396733 0.500737
3330 1 0.82171 0.393818 0.49898
3406 1 0.83934 0.399843 0.499725
3405 1 0.848357 0.389033 0.499812
3263 1 0.878528 0.39586 0.499816
3419 1 0.868527 0.403895 0.497938
3539 1 0.891572 0.401954 0.499637
3693 1 0.916361 0.402249 0.499739
4234 1 0.76106 0.424955 0.498976
3902 1 0.777853 0.416987 0.498664
3251 1 0.801324 0.41506 0.498295
3812 1 0.790801 0.42706 0.497344
4029 1 0.803474 0.427857 0.49808
3196 1 0.825847 0.405605 0.498393
3280 1 0.815989 0.422315 0.498386
3476 1 0.827111 0.417178 0.497117
250 1 0.813514 0.406875 0.498318
3741 1 0.85163 0.405999 0.49834
3477 1 0.840445 0.411019 0.495864
3887 1 0.84977 0.423101 0.493997
3816 1 0.837346 0.425706 0.494278
3400 1 0.878904 0.425264 0.496588
3198 1 0.86031 0.413416 0.496271
3680 1 0.881423 0.412616 0.498636
3480 1 0.865008 0.424752 0.494959
3408 1 0.89437 0.417415 0.498456
3416 1 0.908017 0.412237 0.499292
3409 1 0.916829 0.423846 0.498722
3360 1 0.929628 0.425498 0.500232
3798 1 0.760112 0.447679 0.497716
3543 1 0.743282 0.450893 0.499858
3537 1 0.751382 0.436546 0.499855
4036 1 0.777423 0.430347 0.497774
3890 1 0.766542 0.437605 0.49841
4165 1 0.77886 0.442299 0.496034
4171 1 0.791289 0.44187 0.498503
3888 1 0.802626 0.441052 0.496721
3458 1 0.826765 0.431883 0.495547
3669 1 0.809292 0.450874 0.495092
3466 1 0.814496 0.434962 0.496401
3475 1 0.822697 0.449763 0.494893
3601 1 0.832362 0.444764 0.494206
3619 1 0.843236 0.438887 0.492825
3677 1 0.856864 0.43496 0.494654
3404 1 0.865473 0.446546 0.492489
3403 1 0.871787 0.436205 0.493192
3670 1 0.879431 0.449045 0.49356
3893 1 0.891043 0.428446 0.498411
3415 1 0.885693 0.439023 0.495539
3829 1 0.899349 0.440916 0.495967
3685 1 0.906394 0.429368 0.498933
4447 1 0.91599 0.439383 0.499025
3754 1 0.91735 0.452121 0.496807
3481 1 0.941464 0.440258 0.499042
3757 1 0.93078 0.454444 0.49844
3558 1 0.930512 0.437888 0.498932
3390 1 0.955301 0.431795 0.500238
3976 1 0.953562 0.445252 0.500148
3809 1 0.736125 0.467487 0.49975
4148 1 0.759933 0.461506 0.497605
3955 1 0.748481 0.462325 0.499413
3418 1 0.768677 0.472567 0.496533
3548 1 0.779683 0.467315 0.497935
4028 1 0.770831 0.453586 0.498387
4021 1 0.798236 0.455149 0.496454
4041 1 0.785955 0.454542 0.496623
4158 1 0.793989 0.469735 0.494998
3898 1 0.813557 0.461299 0.49347
3894 1 0.828284 0.462113 0.491402
3749 1 0.821527 0.473838 0.491166
3742 1 0.842154 0.453907 0.492476
3746 1 0.858217 0.457061 0.491637
3606 1 0.840938 0.466001 0.490638
3737 1 0.871684 0.458612 0.49122
3892 1 0.871663 0.471869 0.49112
3951 1 0.857565 0.470455 0.490614
4519 1 0.893111 0.455761 0.494947
3611 1 0.884517 0.463727 0.492065
3965 1 0.897324 0.468991 0.492931
3540 1 0.922826 0.464618 0.497607
4465 1 0.911494 0.46715 0.494683
3963 1 0.904219 0.453892 0.495117
3618 1 0.945173 0.456401 0.50018
1413 1 0.508214 0.494795 0.499042
4373 1 0.734179 0.493407 0.499562
4537 1 0.748123 0.494249 0.498931
4357 1 0.755939 0.478409 0.499188
3954 1 0.742755 0.479392 0.498733
4101 1 0.760538 0.491851 0.498015
3739 1 0.776196 0.489158 0.497116
3835 1 0.785335 0.480494 0.496934
3895 1 0.789633 0.499028 0.4955
4037 1 0.81067 0.490165 0.493255
4024 1 0.795289 0.486009 0.49359
3688 1 0.807697 0.477009 0.491872
3960 1 0.82324 0.486715 0.492525
3979 1 0.831069 0.496123 0.492941
4034 1 0.845967 0.477855 0.489649
3886 1 0.842873 0.490109 0.491847
4524 1 0.850861 0.499328 0.490093
3748 1 0.833013 0.478775 0.490175
3962 1 0.873682 0.485264 0.492577
3897 1 0.858518 0.485856 0.489856
4310 1 0.865431 0.495981 0.490506
4381 1 0.88538 0.477331 0.49262
4395 1 0.896011 0.485631 0.493857
4245 1 0.904926 0.496228 0.493578
4106 1 0.883393 0.490818 0.493011
4455 1 0.915687 0.492314 0.496766
4291 1 0.908187 0.478588 0.49493
4031 1 0.920063 0.479599 0.49734
3832 1 0.944052 0.479009 0.499746
4667 1 0.93444 0.488533 0.498156
4100 1 0.949822 0.490773 0.499097
3760 1 0.931422 0.476352 0.498795
102 1 0.509184 0.00269509 0.501057
3166 1 0.513859 0.0140951 0.502132
2764 1 0.539162 0.00573013 0.503357
3169 1 0.527032 0.0146019 0.503075
3036 1 0.545603 0.0181125 0.505695
2943 1 0.526077 0.00159793 0.502465
306 1 0.552034 0.00702915 0.504911
2872 1 0.560092 0.0166208 0.503769
5464 1 0.573659 0.0114884 0.50269
3082 1 0.591482 0.0203301 0.501476
245 1 0.586181 0.00892595 0.502358
2838 1 0.615242 0.0237918 0.501092
3163 1 0.617443 0.00233191 0.503063
2825 1 0.610171 0.0122515 0.501546
2818 1 0.599142 0.00559222 0.502848
5475 1 0.626382 0.014301 0.501908
2895 1 0.640225 0.0122712 0.503049
33 1 0.654839 0.00583097 0.501957
2828 1 0.650101 0.0186892 0.503463
3170 1 0.664765 0.0239606 0.503886
2814 1 0.669938 0.00974267 0.500683
2783 1 0.678088 0.0225144 0.503735
2957 1 0.68731 0.0125446 0.502478
5276 1 0.692747 0.00063182 0.501053
3052 1 0.700291 0.0111599 0.501604
5489 1 0.714397 0.0131485 0.50133
3100 1 0.697326 0.0225334 0.503224
5442 1 0.739789 0.0100662 0.499573
5508 1 0.738784 0.023645 0.50161
2647 1 0.971863 0.0166097 0.500886
5523 1 0.992134 0.0183795 0.500671
2354 1 0.984447 0.00761169 0.499948
44 1 0.998397 0.00797392 0.50145
5392 1 0.510709 0.026755 0.50149
521 1 0.523543 0.0297042 0.502296
3439 1 0.509096 0.0409869 0.500793
454 1 0.543697 0.0340482 0.504675
5463 1 0.529611 0.0415598 0.50328
3081 1 0.53471 0.0248196 0.504042
384 1 0.540897 0.0464378 0.502755
2876 1 0.572261 0.0238702 0.503119
5004 1 0.556491 0.0293204 0.504321
2881 1 0.567132 0.0371705 0.503893
2947 1 0.556046 0.0424806 0.503312
3033 1 0.588211 0.0437136 0.502628
2692 1 0.584306 0.0313937 0.501685
2892 1 0.602693 0.0289257 0.501374
524 1 0.600989 0.0424934 0.501948
2813 1 0.617036 0.0362714 0.501708
2816 1 0.628218 0.0273809 0.502027
5509 1 0.641056 0.0294678 0.503137
3225 1 0.631408 0.0405236 0.504329
5476 1 0.652228 0.0348393 0.504527
2845 1 0.659907 0.0432241 0.503804
2979 1 0.682304 0.0336366 0.505126
3023 1 0.670842 0.0352511 0.504257
2836 1 0.687583 0.0476147 0.505348
3102 1 0.710002 0.0356905 0.503289
5495 1 0.694605 0.0348079 0.504131
5491 1 0.725711 0.0226414 0.501345
2826 1 0.712604 0.0231605 0.502295
2846 1 0.723798 0.0375662 0.501907
5479 1 0.737445 0.0374086 0.502399
5347 1 0.754151 0.0439989 0.502408
2849 1 0.751085 0.0259913 0.502105
5437 1 0.763731 0.0351184 0.50108
5368 1 0.771772 0.0466846 0.500453
5449 1 0.925184 0.0380002 0.499357
5526 1 0.939348 0.0308691 0.498997
5387 1 0.964825 0.0294126 0.499373
5460 1 0.980405 0.0236604 0.499768
5180 1 0.976309 0.0346804 0.501111
5309 1 0.994662 0.031414 0.501841
48 1 0.986919 0.0423826 0.500289
5453 1 1.00064 0.0468825 0.501707
3223 1 0.507812 0.0558757 0.500989
3364 1 0.503171 0.0691251 0.499094
3018 1 0.520595 0.0495256 0.502079
2882 1 0.528128 0.0612807 0.500485
3013 1 0.5417 0.058649 0.501222
3161 1 0.553512 0.0550376 0.502928
2871 1 0.564636 0.0569077 0.503497
3093 1 0.556829 0.0679906 0.502223
2811 1 0.572895 0.0477352 0.503975
3031 1 0.583955 0.0567179 0.503174
3224 1 0.593086 0.0681011 0.502012
3242 1 0.575267 0.0664506 0.503177
5401 1 0.617489 0.0480625 0.502005
3236 1 0.600062 0.0562939 0.502035
2899 1 0.613443 0.0608793 0.501422
2778 1 0.625826 0.0668146 0.50253
5481 1 0.630329 0.0546783 0.504556
3239 1 0.638865 0.0649222 0.504629
2968 1 0.643819 0.0472553 0.503267
2806 1 0.655443 0.0540643 0.503632
2833 1 0.653122 0.0662531 0.50469
3083 1 0.673919 0.0471481 0.505137
3179 1 0.667726 0.0588265 0.50437
2840 1 0.682343 0.0626333 0.504217
2919 1 0.694793 0.0577984 0.504505
2832 1 0.706621 0.0486859 0.504594
2834 1 0.705955 0.0645957 0.503588
3168 1 0.69265 0.0712432 0.504077
5506 1 0.733353 0.0510075 0.500559
2956 1 0.719939 0.0495067 0.501236
2973 1 0.720321 0.0631075 0.503278
5420 1 0.736014 0.0665713 0.502041
5312 1 0.74877 0.0693767 0.501098
2965 1 0.745622 0.0545083 0.501119
5445 1 0.757672 0.0568794 0.500849
3068 1 0.790234 0.0642085 0.500299
5379 1 0.9408 0.0497167 0.499169
49 1 0.990627 0.0564953 0.500619
2966 1 0.561909 0.0785288 0.500123
3376 1 0.588081 0.0819821 0.503367
3253 1 0.574735 0.0788117 0.501074
3025 1 0.582112 0.0920212 0.499953
3647 1 0.595751 0.0933434 0.502815
2777 1 0.611455 0.0729254 0.501866
2902 1 0.605101 0.0837273 0.502913
3039 1 0.619051 0.0842028 0.504275
3177 1 0.630214 0.0772059 0.504467
3158 1 0.638026 0.0924904 0.505908
2964 1 0.642238 0.0792601 0.505642
2986 1 0.657245 0.0792771 0.506179
2874 1 0.666046 0.0709683 0.504228
2976 1 0.663712 0.0899886 0.505172
2887 1 0.677249 0.0746973 0.50344
3024 1 0.677182 0.0860542 0.505214
3058 1 0.688568 0.0823294 0.505441
2985 1 0.705408 0.0796699 0.504561
3032 1 0.700883 0.0910755 0.506175
5507 1 0.727467 0.0734395 0.501265
5485 1 0.713859 0.0915275 0.504948
5422 1 0.717456 0.0786377 0.503992
3078 1 0.727095 0.0888774 0.5044
2824 1 0.761259 0.0739423 0.501307
5373 1 0.75102 0.0867361 0.502265
3069 1 0.739651 0.0800483 0.502685
2786 1 0.773728 0.0807105 0.502058
2776 1 0.766182 0.0927908 0.500861
3143 1 0.780578 0.0725358 0.500822
5081 1 0.786837 0.0849739 0.500862
2791 1 0.798474 0.0911868 0.49981
246 1 0.929813 0.0897423 0.498982
3254 1 0.581404 0.114845 0.500447
2835 1 0.575025 0.102466 0.501714
3232 1 0.58797 0.103964 0.501674
3108 1 0.591714 0.118817 0.502681
3022 1 0.610079 0.099227 0.503284
3230 1 0.599727 0.105528 0.502438
3040 1 0.619648 0.10973 0.501797
3524 1 0.608567 0.11829 0.501735
3162 1 0.625097 0.0965292 0.504425
2890 1 0.634786 0.107829 0.503735
3109 1 0.653037 0.0975421 0.50459
3375 1 0.648245 0.109575 0.50478
2950 1 0.663903 0.102448 0.505427
5510 1 0.659647 0.117896 0.503768
3442 1 0.671314 0.112433 0.504849
2990 1 0.676434 0.0985697 0.505093
3026 1 0.690157 0.0962604 0.505965
3059 1 0.683391 0.109405 0.50676
2975 1 0.710085 0.104817 0.506606
2960 1 0.700323 0.11096 0.50716
2953 1 0.726624 0.10453 0.505753
3034 1 0.721672 0.117184 0.505695
316 1 0.735569 0.119455 0.506391
5413 1 0.739501 0.0968888 0.50383
3043 1 0.753125 0.101182 0.503245
2955 1 0.743493 0.110349 0.503751
5515 1 0.75571 0.115859 0.502843
3057 1 0.766294 0.105371 0.502631
2792 1 0.782068 0.0963964 0.500407
5419 1 0.777715 0.110516 0.501906
3063 1 0.791612 0.109062 0.50395
3074 1 0.805959 0.106496 0.501428
3010 1 0.812141 0.117057 0.502941
3206 1 0.824605 0.111353 0.501393
604 1 0.946968 0.116575 0.499364
41 1 0.991629 0.0986284 0.500569
3255 1 0.558529 0.135764 0.499848
3301 1 0.585539 0.131147 0.501572
2992 1 0.588844 0.143465 0.501569
2971 1 0.569635 0.139258 0.501217
3449 1 0.60034 0.129795 0.502378
3174 1 0.61572 0.131628 0.503994
3457 1 0.604283 0.143331 0.501789
5466 1 0.626106 0.119744 0.502116
3226 1 0.631109 0.131665 0.503797
3229 1 0.640509 0.121545 0.503187
3035 1 0.650779 0.129448 0.503494
2910 1 0.658869 0.140954 0.504749
3112 1 0.665847 0.130271 0.505049
3051 1 0.676111 0.123456 0.506929
3261 1 0.675469 0.139719 0.505279
3045 1 0.685138 0.132423 0.506805
2900 1 0.691247 0.119286 0.507355
3015 1 0.700123 0.129475 0.508632
2925 1 0.709051 0.121319 0.505977
2860 1 0.704405 0.141495 0.507564
2987 1 0.71642 0.134684 0.504468
3064 1 0.726422 0.130397 0.507026
2894 1 0.73069 0.142814 0.506242
5517 1 0.740022 0.131823 0.507004
5512 1 0.752055 0.128324 0.505475
5436 1 0.755909 0.141182 0.505856
2921 1 0.764951 0.132339 0.505127
5433 1 0.767712 0.121338 0.502853
5499 1 0.784868 0.123036 0.503651
3137 1 0.778209 0.134221 0.503361
2850 1 0.798573 0.120329 0.503443
5521 1 0.798832 0.133553 0.504436
5370 1 0.789945 0.143045 0.504305
5215 1 0.811855 0.130891 0.502964
5360 1 0.819868 0.140468 0.503471
3145 1 0.825289 0.129235 0.501301
5520 1 0.849327 0.140475 0.500815
3127 1 0.83679 0.135179 0.500851
2556 1 0.865154 0.141487 0.500077
176 1 0.861989 0.129026 0.50024
672 1 0.972681 0.137162 0.498999
53 1 0.988418 0.122162 0.499614
3800 1 0.562077 0.152489 0.500476
3305 1 0.580377 0.15115 0.501123
3114 1 0.617669 0.145765 0.50269
3264 1 0.595534 0.153539 0.50126
2909 1 0.610561 0.157759 0.502577
2896 1 0.63211 0.145001 0.503382
3184 1 0.628971 0.159296 0.502711
3258 1 0.642666 0.161113 0.504486
2848 1 0.645042 0.144683 0.503575
2906 1 0.652965 0.156205 0.503858
3318 1 0.66731 0.150426 0.505654
2988 1 0.679917 0.152146 0.504411
2920 1 0.691654 0.144808 0.50621
3181 1 0.665487 0.162012 0.503816
3250 1 0.680132 0.164448 0.504967
3462 1 0.692856 0.157166 0.506131
2842 1 0.706213 0.157289 0.50641
5434 1 0.714862 0.148543 0.507068
2981 1 0.728571 0.154022 0.507393
3053 1 0.718752 0.161792 0.506153
2991 1 0.743513 0.146444 0.505751
2993 1 0.741313 0.159318 0.506991
3402 1 0.754519 0.155 0.50692
3331 1 0.768872 0.145412 0.504004
3401 1 0.781681 0.153606 0.505443
3067 1 0.768739 0.162495 0.506799
2851 1 0.785054 0.165747 0.504648
2796 1 0.803636 0.145473 0.502493
5351 1 0.795827 0.154783 0.505186
3195 1 0.80009 0.16613 0.504439
3183 1 0.811577 0.156475 0.50339
3073 1 0.824259 0.153974 0.503309
2856 1 0.831223 0.166095 0.503264
2926 1 0.84283 0.161153 0.502501
5429 1 0.836603 0.148547 0.502562
3000 1 0.8555 0.152949 0.500568
178 1 0.859746 0.165219 0.501304
3065 1 0.869546 0.154636 0.500051
3207 1 0.889221 0.160569 0.499367
684 1 0.973248 0.16405 0.498752
415 1 0.988262 0.164147 0.499347
670 1 0.99691 0.151135 0.499603
3009 1 0.984926 0.148631 0.499296
3167 1 0.532879 0.184256 0.499295
2908 1 0.556376 0.16711 0.499567
3104 1 0.560105 0.181701 0.499822
3311 1 0.596683 0.165015 0.502691
3178 1 0.583248 0.167248 0.501296
3732 1 0.595597 0.179502 0.50039
3307 1 0.609173 0.170943 0.501016
3049 1 0.612911 0.184883 0.502245
2983 1 0.622742 0.16835 0.503385
5498 1 0.631549 0.183535 0.503664
3046 1 0.6348 0.170501 0.503644
3314 1 0.644978 0.179105 0.505477
2915 1 0.655025 0.169901 0.506415
3467 1 0.660917 0.183458 0.505546
2918 1 0.673606 0.176504 0.50549
3189 1 0.685227 0.183499 0.504884
3317 1 0.693242 0.171876 0.506989
3190 1 0.707824 0.172889 0.50689
5505 1 0.698409 0.183456 0.505105
3325 1 0.709882 0.187943 0.505591
3343 1 0.732009 0.173025 0.506674
2996 1 0.719789 0.178098 0.505311
2790 1 0.727744 0.189182 0.504872
3113 1 0.746474 0.170501 0.506166
3129 1 0.761328 0.174454 0.505514
3119 1 0.748246 0.184442 0.505466
5514 1 0.76446 0.18852 0.507039
3123 1 0.776876 0.178832 0.506601
3411 1 0.792781 0.178052 0.507364
3135 1 0.807626 0.176222 0.506091
2789 1 0.816609 0.16818 0.504426
3672 1 0.808968 0.190609 0.50495
3144 1 0.824343 0.179472 0.505022
2853 1 0.834088 0.189552 0.50326
2989 1 0.849675 0.17379 0.501756
3210 1 0.846107 0.189955 0.501157
3138 1 0.838018 0.176419 0.50266
3066 1 0.867911 0.174272 0.501909
2867 1 0.859742 0.182907 0.50153
3142 1 0.881945 0.181807 0.501431
675 1 0.869824 0.190748 0.501859
3215 1 0.878624 0.167117 0.501154
3133 1 0.906889 0.17906 0.499089
407 1 0.931362 0.187936 0.499478
3374 1 0.531066 0.204933 0.501293
315 1 0.543105 0.209508 0.501637
3440 1 0.542561 0.196377 0.501064
3868 1 0.578222 0.212754 0.498816
3999 1 0.601937 0.192492 0.499539
3395 1 0.609501 0.205011 0.500187
3329 1 0.622739 0.194011 0.501061
3050 1 0.634547 0.198906 0.504216
3247 1 0.638791 0.211224 0.503851
2907 1 0.623948 0.209754 0.503706
3041 1 0.645947 0.193482 0.505661
2839 1 0.65157 0.20655 0.503776
2999 1 0.657649 0.195753 0.505899
3116 1 0.669101 0.205242 0.505213
3047 1 0.686942 0.19975 0.505285
5440 1 0.675687 0.192629 0.506373
5496 1 0.681579 0.210614 0.506116
2911 1 0.701047 0.197124 0.506446
2978 1 0.695021 0.212416 0.505536
3187 1 0.70758 0.207246 0.505693
3249 1 0.719095 0.198981 0.506333
3597 1 0.724261 0.214021 0.505383
2852 1 0.732686 0.205241 0.505343
3541 1 0.740994 0.194306 0.506712
3803 1 0.755022 0.198033 0.505777
3523 1 0.745348 0.207654 0.505829
3532 1 0.761085 0.213053 0.506425
3463 1 0.783343 0.193946 0.507158
3735 1 0.779805 0.206166 0.50614
3062 1 0.769223 0.199456 0.50661
3208 1 0.793338 0.204955 0.506431
2913 1 0.794554 0.189664 0.506227
39 1 0.80657 0.205189 0.504673
3061 1 0.822357 0.193305 0.504311
3201 1 0.821566 0.20496 0.503693
3001 1 0.835557 0.203375 0.504032
3118 1 0.836857 0.214133 0.501428
5511 1 0.849105 0.204884 0.501554
2898 1 0.85749 0.19647 0.500709
5431 1 0.871908 0.203088 0.499368
3356 1 0.895457 0.191335 0.500719
2859 1 0.893103 0.204203 0.50029
3273 1 0.88439 0.21354 0.500693
3427 1 0.902272 0.213847 0.501077
177 1 0.920118 0.192823 0.500341
2940 1 0.913655 0.205567 0.500727
3290 1 0.925372 0.204449 0.503266
3150 1 0.946346 0.210976 0.501227
3148 1 0.970001 0.207923 0.5021
749 1 0.987436 0.213055 0.50141
3216 1 0.980216 0.202211 0.500181
3283 1 0.99309 0.199596 0.501685
3020 1 0.520858 0.215308 0.498742
2843 1 0.504374 0.218167 0.500574
3857 1 0.532193 0.220743 0.500074
3106 1 0.588805 0.237939 0.50136
4203 1 0.587809 0.221348 0.50072
3507 1 0.576176 0.230416 0.50049
3044 1 0.612436 0.219246 0.501483
4018 1 0.602694 0.230264 0.502977
3182 1 0.620384 0.231698 0.503758
2912 1 0.63141 0.22378 0.503566
3399 1 0.64035 0.235052 0.50653
3265 1 0.647034 0.222457 0.504322
3598 1 0.6545 0.233803 0.506209
3320 1 0.658569 0.218186 0.506252
3310 1 0.668754 0.231856 0.508376
3199 1 0.672749 0.220391 0.506232
3603 1 0.682547 0.236879 0.507422
3240 1 0.686267 0.223211 0.506564
3459 1 0.711254 0.222078 0.505416
3175 1 0.699 0.228937 0.505994
3319 1 0.716653 0.235772 0.504871
3456 1 0.727055 0.228565 0.505155
3591 1 0.738056 0.218802 0.505703
3865 1 0.752078 0.225109 0.505784
3389 1 0.74182 0.232444 0.506374
3391 1 0.774156 0.219294 0.506665
3453 1 0.766183 0.229175 0.506286
3185 1 0.78447 0.231103 0.50498
3131 1 0.803553 0.216693 0.505749
3665 1 0.790381 0.21802 0.505691
3729 1 0.798432 0.230741 0.504141
3070 1 0.815342 0.218552 0.503288
3008 1 0.813414 0.230043 0.503873
3276 1 0.827088 0.22004 0.502478
3308 1 0.830835 0.231491 0.503653
3139 1 0.846473 0.231845 0.501304
3538 1 0.847809 0.220635 0.501842
527 1 0.861259 0.224123 0.501972
3128 1 0.872255 0.218121 0.501229
3140 1 0.874067 0.233504 0.502165
2972 1 0.862267 0.237176 0.504716
3055 1 0.884172 0.225359 0.502661
43 1 0.895684 0.228714 0.502882
3054 1 0.921323 0.22131 0.504051
410 1 0.908 0.224224 0.502512
394 1 0.917196 0.23571 0.502606
3569 1 0.931563 0.229231 0.50317
3217 1 0.931842 0.213857 0.501397
3340 1 0.944901 0.223263 0.501673
195 1 0.97498 0.221704 0.502488
3134 1 0.957581 0.221772 0.50003
467 1 0.953791 0.236026 0.503096
3288 1 0.965582 0.233144 0.502334
669 1 0.986566 0.225979 0.50265
3714 1 0.570802 0.257259 0.500409
802 1 0.58031 0.248393 0.50027
943 1 0.591714 0.257511 0.502631
3385 1 0.612017 0.243318 0.504472
3259 1 0.620339 0.254251 0.506042
4011 1 0.6058 0.255369 0.504941
1015 1 0.599242 0.243771 0.503643
3186 1 0.628831 0.243476 0.50613
3454 1 0.63026 0.261312 0.505611
3646 1 0.639903 0.250389 0.506823
3197 1 0.653723 0.246752 0.507374
3115 1 0.657311 0.259368 0.509297
3530 1 0.669349 0.260805 0.50976
3313 1 0.666582 0.246642 0.507439
3334 1 0.682874 0.24905 0.507856
3117 1 0.695649 0.254448 0.506986
3120 1 0.707351 0.247186 0.506121
3322 1 0.693441 0.241587 0.505555
3671 1 0.721162 0.253157 0.50624
3048 1 0.727831 0.24084 0.505223
3794 1 0.732818 0.26008 0.503899
3810 1 0.739598 0.248618 0.505788
3316 1 0.753325 0.253418 0.505143
2984 1 0.759224 0.241684 0.505724
3260 1 0.769221 0.256512 0.503903
3743 1 0.772294 0.241425 0.504556
179 1 0.78105 0.253323 0.503818
3881 1 0.803384 0.242311 0.503118
3805 1 0.790417 0.242991 0.502648
3256 1 0.79509 0.256392 0.501254
2934 1 0.810547 0.252316 0.502978
3341 1 0.821738 0.241085 0.503836
3079 1 0.826959 0.253223 0.503104
3132 1 0.835819 0.242947 0.502076
2930 1 0.850752 0.24501 0.502562
3126 1 0.842431 0.255576 0.503462
3071 1 0.863705 0.251278 0.503782
2938 1 0.873538 0.258774 0.505363
468 1 0.876414 0.246569 0.503299
3146 1 0.905174 0.239029 0.504304
3342 1 0.890742 0.243045 0.502905
3353 1 0.887336 0.257509 0.50426
324 1 0.900774 0.25268 0.504981
3345 1 0.913666 0.249873 0.504332
673 1 0.924309 0.258235 0.503462
3147 1 0.941879 0.238385 0.502698
3203 1 0.930252 0.243614 0.502529
326 1 0.94917 0.25025 0.503648
535 1 0.936738 0.255068 0.504419
3213 1 0.965748 0.246395 0.502792
251 1 0.95743 0.258685 0.505202
3285 1 0.978835 0.239342 0.503332
668 1 0.99283 0.238743 0.503571
537 1 0.975734 0.25602 0.505127
539 1 0.988358 0.252265 0.506172
3579 1 0.520803 0.2731 0.501022
796 1 0.506799 0.279268 0.502784
3446 1 0.502635 0.268504 0.501391
4134 1 0.547906 0.278803 0.500932
1083 1 0.561959 0.281712 0.501602
4132 1 0.562014 0.266396 0.500577
3781 1 0.574018 0.277079 0.501277
3445 1 0.587628 0.283071 0.503421
2901 1 0.592237 0.270886 0.503484
3522 1 0.603716 0.267767 0.50525
3648 1 0.60465 0.280415 0.504052
934 1 0.617722 0.280474 0.506482
3596 1 0.616184 0.26784 0.506099
3455 1 0.631281 0.274488 0.506282
3723 1 0.642556 0.264253 0.508245
3246 1 0.645196 0.280492 0.508025
3377 1 0.656475 0.273876 0.508102
3243 1 0.680844 0.263536 0.507375
3460 1 0.669494 0.277339 0.508085
3944 1 0.682942 0.279161 0.50719
3387 1 0.707005 0.263075 0.506
3936 1 0.692462 0.271194 0.506493
3306 1 0.698021 0.283837 0.505977
3872 1 0.707888 0.275679 0.505314
3111 1 0.720466 0.26602 0.505121
3796 1 0.723523 0.27828 0.506004
4013 1 0.735915 0.275458 0.504176
3802 1 0.745632 0.262982 0.506687
3323 1 0.760119 0.264656 0.504973
3328 1 0.751518 0.276807 0.505028
3593 1 0.768583 0.274605 0.503011
596 1 0.777064 0.265331 0.502978
389 1 0.775176 0.286747 0.500468
2922 1 0.789762 0.285381 0.500959
3335 1 0.788591 0.270921 0.501943
2923 1 0.800844 0.277621 0.501408
3188 1 0.804647 0.264895 0.502038
3271 1 0.820942 0.264769 0.503868
3470 1 0.814484 0.277352 0.501992
3191 1 0.828208 0.280758 0.502442
3193 1 0.835058 0.266619 0.504421
3344 1 0.852838 0.273175 0.505313
3125 1 0.841961 0.283807 0.505358
2866 1 0.854911 0.260612 0.504427
2914 1 0.864185 0.282314 0.506547
397 1 0.868305 0.270518 0.504425
3421 1 0.876845 0.280959 0.50547
3277 1 0.881958 0.268308 0.503971
3639 1 0.89683 0.267794 0.504939
330 1 0.890358 0.279532 0.50449
390 1 0.905717 0.277202 0.504949
396 1 0.91009 0.262189 0.505372
3498 1 0.917627 0.272865 0.505436
598 1 0.930257 0.270852 0.506295
398 1 0.943569 0.266737 0.506118
3570 1 0.939159 0.280541 0.506608
666 1 0.962595 0.271473 0.506262
393 1 0.954864 0.281248 0.508619
3701 1 0.967713 0.285879 0.509442
391 1 0.979595 0.272462 0.507261
881 1 0.994795 0.282085 0.507806
1034 1 0.992077 0.266988 0.507619
462 1 0.979994 0.286357 0.508897
1142 1 0.50504 0.293087 0.501689
3851 1 0.511523 0.305291 0.499794
3380 1 0.51867 0.286701 0.501442
805 1 0.531526 0.287285 0.499841
1085 1 0.525295 0.298651 0.501941
939 1 0.539318 0.295592 0.501427
3786 1 0.534011 0.306811 0.503638
3644 1 0.55074 0.29415 0.502644
3594 1 0.565125 0.297269 0.502978
1084 1 0.557887 0.30886 0.503943
3512 1 0.576287 0.288755 0.50223
3801 1 0.577588 0.300553 0.505031
3994 1 0.589952 0.296467 0.504649
3721 1 0.598186 0.308832 0.504728
3730 1 0.603073 0.292637 0.505687
3599 1 0.611375 0.303818 0.506862
3521 1 0.618438 0.29279 0.506074
3584 1 0.636063 0.28691 0.507865
4069 1 0.632337 0.298666 0.50755
3738 1 0.656312 0.286095 0.5066
3715 1 0.645609 0.29674 0.507671
3252 1 0.657995 0.299555 0.506913
3327 1 0.669432 0.292201 0.507166
3304 1 0.677466 0.302949 0.506082
3870 1 0.68394 0.291781 0.506367
3726 1 0.688773 0.308815 0.50437
4146 1 0.699175 0.301414 0.504101
3534 1 0.71285 0.287185 0.505162
3192 1 0.712514 0.299796 0.504931
3393 1 0.726623 0.291115 0.505272
3808 1 0.739757 0.290843 0.505
3056 1 0.730133 0.303597 0.50488
3531 1 0.759841 0.286075 0.502934
3676 1 0.757309 0.305646 0.500961
108 1 0.751185 0.2941 0.503212
3122 1 0.742798 0.306098 0.503907
3935 1 0.808036 0.289157 0.500967
3121 1 0.823284 0.292316 0.500419
3339 1 0.824065 0.304094 0.500464
3873 1 0.811065 0.302471 0.500292
3607 1 0.853997 0.287416 0.504043
1019 1 0.851274 0.301018 0.504188
3284 1 0.83757 0.296685 0.502334
3289 1 0.871986 0.294262 0.504016
399 1 0.865402 0.305241 0.504195
3281 1 0.87825 0.307025 0.503266
3486 1 0.884827 0.292085 0.504839
3429 1 0.899106 0.289878 0.506268
3348 1 0.890927 0.302021 0.505
736 1 0.917614 0.285291 0.50544
3493 1 0.910736 0.297001 0.506244
602 1 0.923017 0.299276 0.5056
693 1 0.930681 0.289183 0.506732
950 1 0.93616 0.30178 0.507529
3347 1 0.945351 0.293311 0.50787
883 1 0.953654 0.307755 0.509683
879 1 0.957847 0.293498 0.507873
822 1 0.972161 0.29732 0.511124
3426 1 0.966617 0.307795 0.508658
3638 1 0.987489 0.300741 0.508742
1363 1 0.506282 0.320112 0.501294
1365 1 0.520504 0.316352 0.500779
1154 1 0.511563 0.332758 0.50255
3592 1 0.52279 0.328336 0.50357
4135 1 0.533465 0.319666 0.503127
1221 1 0.54589 0.313067 0.504483
1077 1 0.539636 0.329761 0.504619
3645 1 0.569664 0.311362 0.50566
3371 1 0.553441 0.323809 0.505553
1425 1 0.565503 0.325381 0.506483
3859 1 0.58115 0.312138 0.503647
3724 1 0.593323 0.320527 0.505579
1011 1 0.58188 0.326396 0.506609
3176 1 0.603644 0.326938 0.506731
1224 1 0.61212 0.317781 0.505931
3655 1 0.614969 0.332121 0.50818
3804 1 0.624572 0.310926 0.507272
4352 1 0.624292 0.324011 0.508436
3384 1 0.636612 0.315282 0.509483
4211 1 0.633402 0.331442 0.510196
3515 1 0.649326 0.310163 0.508897
3736 1 0.646305 0.325918 0.509835
3346 1 0.658331 0.320436 0.507876
3867 1 0.664158 0.310494 0.506719
3799 1 0.667585 0.331014 0.506957
3731 1 0.676928 0.316709 0.505291
3386 1 0.680937 0.328994 0.50748
4071 1 0.706611 0.314498 0.505523
4083 1 0.695565 0.321504 0.504348
4081 1 0.706908 0.330466 0.503884
3878 1 0.718325 0.312255 0.504789
4010 1 0.721196 0.325066 0.50422
3752 1 0.732214 0.315964 0.504858
3324 1 0.739985 0.324658 0.502475
3727 1 0.749911 0.315509 0.503745
3352 1 0.753765 0.326811 0.502342
3326 1 0.764165 0.316779 0.499425
4091 1 0.768023 0.328725 0.500529
3398 1 0.79998 0.332726 0.497361
3471 1 0.82228 0.321378 0.500282
3351 1 0.809221 0.325359 0.500534
531 1 0.832384 0.313927 0.501727
3267 1 0.846051 0.3135 0.503873
3358 1 0.838473 0.327248 0.502706
3428 1 0.853196 0.330955 0.503171
392 1 0.857352 0.317801 0.503636
3200 1 0.865135 0.328915 0.504798
3630 1 0.870949 0.318452 0.504028
3487 1 0.880696 0.327684 0.504651
3500 1 0.888794 0.316398 0.50527
3555 1 0.901206 0.309157 0.506431
3629 1 0.899902 0.327478 0.504143
461 1 0.914788 0.311179 0.505066
880 1 0.927709 0.312711 0.506592
607 1 0.927761 0.326147 0.507862
463 1 0.912205 0.322722 0.505228
3424 1 0.943277 0.315648 0.507858
3272 1 0.943831 0.329957 0.50873
3430 1 0.972343 0.323182 0.510579
958 1 0.955854 0.323949 0.509265
460 1 0.980692 0.312071 0.510356
951 1 0.996189 0.314943 0.510015
3564 1 0.985885 0.325058 0.511553
3788 1 0.501976 0.345063 0.502915
3793 1 0.514234 0.344815 0.504693
3996 1 0.52389 0.353737 0.503739
3733 1 0.529744 0.339212 0.502916
3785 1 0.541625 0.342082 0.505349
1218 1 0.537061 0.355424 0.504325
3296 1 0.551636 0.336884 0.504009
3588 1 0.560284 0.349068 0.505658
3450 1 0.54985 0.355058 0.505437
4139 1 0.571925 0.342022 0.507211
3667 1 0.575227 0.356491 0.506956
3451 1 0.584171 0.340183 0.506722
4277 1 0.586665 0.353384 0.509556
4416 1 0.597216 0.33849 0.507948
3657 1 0.609902 0.343172 0.508722
3662 1 0.603833 0.355415 0.508656
3526 1 0.624055 0.340921 0.510126
4136 1 0.634121 0.351971 0.509455
4151 1 0.619732 0.352119 0.50934
3517 1 0.656315 0.336177 0.508555
3382 1 0.665159 0.345691 0.506872
3663 1 0.643582 0.339248 0.510052
4526 1 0.647615 0.352285 0.508606
3882 1 0.678479 0.344401 0.507219
4284 1 0.681382 0.357146 0.504472
3883 1 0.692226 0.333982 0.505204
4002 1 0.705735 0.342546 0.504009
3946 1 0.690951 0.347277 0.505692
4090 1 0.713446 0.355329 0.504046
4159 1 0.7192 0.337876 0.502223
3468 1 0.732015 0.334963 0.50269
3469 1 0.723389 0.348492 0.502811
3869 1 0.736943 0.344871 0.501587
3947 1 0.746679 0.338574 0.502481
3266 1 0.7606 0.353534 0.500969
3673 1 0.748773 0.351978 0.502738
3282 1 0.760564 0.338751 0.502481
3332 1 0.772403 0.345418 0.500929
3497 1 0.774068 0.358004 0.502175
3410 1 0.789022 0.34314 0.499822
3674 1 0.800948 0.351198 0.500348
3745 1 0.833348 0.357112 0.501482
3333 1 0.81375 0.356374 0.500863
3550 1 0.823118 0.334863 0.500946
3560 1 0.83504 0.343544 0.501384
2793 1 0.847334 0.343459 0.503921
3544 1 0.876104 0.33964 0.504671
322 1 0.862474 0.342318 0.50442
3420 1 0.86571 0.353853 0.502683
743 1 0.878196 0.354071 0.502562
3565 1 0.891703 0.337631 0.5044
3615 1 0.892117 0.35024 0.503371
3270 1 0.905157 0.352482 0.503528
3354 1 0.907235 0.339996 0.50406
3474 1 0.920629 0.339912 0.504912
3496 1 0.919692 0.353815 0.503449
3492 1 0.943322 0.34496 0.506613
3491 1 0.932375 0.337758 0.507587
3978 1 0.930713 0.350481 0.505969
892 1 0.969039 0.333739 0.510494
3627 1 0.954526 0.337161 0.507238
3768 1 0.956634 0.348417 0.507753
3488 1 0.970185 0.348297 0.508486
612 1 0.99784 0.334349 0.510741
3704 1 0.982756 0.349396 0.509301
3559 1 0.982689 0.337808 0.509917
3766 1 0.994873 0.34756 0.510091
3992 1 0.504779 0.356389 0.50364
3862 1 0.513165 0.369021 0.50288
3518 1 0.526356 0.366057 0.504782
3452 1 0.545049 0.367427 0.507743
1575 1 0.536156 0.375708 0.506395
3853 1 0.562618 0.362509 0.505985
3921 1 0.556095 0.373859 0.50646
3991 1 0.574319 0.368405 0.507486
3529 1 0.593445 0.366162 0.507982
4281 1 0.610192 0.369394 0.509653
3321 1 0.62356 0.372687 0.510129
4008 1 0.630094 0.361973 0.508771
3447 1 0.635888 0.378962 0.509937
3934 1 0.642489 0.363694 0.508451
3792 1 0.64861 0.374767 0.509042
3928 1 0.659587 0.380335 0.506884
3866 1 0.65516 0.362328 0.506513
4080 1 0.668876 0.361464 0.507281
4224 1 0.67043 0.374536 0.504519
3967 1 0.688716 0.367957 0.505452
3683 1 0.682238 0.380177 0.506029
4019 1 0.698555 0.358852 0.504789
3891 1 0.710431 0.370728 0.504859
4231 1 0.697581 0.380062 0.504082
3945 1 0.7345 0.355808 0.502958
3528 1 0.721655 0.364034 0.502956
3725 1 0.723385 0.37853 0.502826
3807 1 0.733195 0.370522 0.503194
3248 1 0.745885 0.364901 0.5025
4163 1 0.753527 0.375945 0.502068
3394 1 0.763042 0.367308 0.501519
3681 1 0.779101 0.367922 0.500916
3664 1 0.772456 0.378789 0.50114
530 1 0.80516 0.365602 0.500759
3884 1 0.788062 0.356726 0.500406
3275 1 0.791801 0.371127 0.500409
3823 1 0.834336 0.37131 0.501398
2916 1 0.821523 0.367767 0.500288
3465 1 0.84511 0.360309 0.502759
3388 1 0.846679 0.372814 0.500508
3697 1 0.859516 0.379634 0.500348
3626 1 0.86168 0.36706 0.499887
3479 1 0.876352 0.3711 0.500905
3825 1 0.889446 0.373918 0.501752
3278 1 0.891461 0.362069 0.501636
529 1 0.903146 0.365738 0.50278
3350 1 0.917677 0.367978 0.502607
3617 1 0.915578 0.381187 0.501745
3678 1 0.94134 0.358619 0.505484
3269 1 0.930294 0.365532 0.503891
3425 1 0.928947 0.379905 0.502754
3613 1 0.941294 0.372888 0.505773
806 1 0.965448 0.360744 0.507534
3553 1 0.951781 0.36554 0.506408
3959 1 0.962207 0.375204 0.50756
3545 1 0.952368 0.382248 0.504576
3473 1 0.973774 0.380521 0.506969
3972 1 0.97782 0.361677 0.509157
3124 1 0.992246 0.361589 0.509028
3756 1 0.985663 0.372315 0.50867
3926 1 0.511796 0.381215 0.504066
1570 1 0.522772 0.396554 0.504392
1222 1 0.507932 0.394747 0.501877
3653 1 0.524136 0.380615 0.503364
4219 1 0.537754 0.395383 0.506339
3931 1 0.544251 0.3845 0.506162
3719 1 0.565267 0.382001 0.508621
3711 1 0.557733 0.391315 0.507776
1074 1 0.55071 0.400926 0.506585
4630 1 0.564647 0.404021 0.508107
3661 1 0.573721 0.393266 0.508172
3245 1 0.580294 0.380761 0.509498
4341 1 0.586701 0.39403 0.508394
4068 1 0.596988 0.383434 0.509159
3590 1 0.612342 0.383542 0.509579
4087 1 0.602588 0.395846 0.509619
3871 1 0.615297 0.401698 0.508625
4023 1 0.625367 0.389233 0.509475
4077 1 0.637324 0.395768 0.508185
3235 1 0.627066 0.40315 0.509715
3658 1 0.658128 0.392531 0.506726
4099 1 0.64522 0.387135 0.507927
3585 1 0.654824 0.403866 0.50864
4157 1 0.674196 0.389017 0.506242
3993 1 0.666437 0.400931 0.506141
3941 1 0.68025 0.400651 0.505383
3815 1 0.711484 0.384895 0.503032
4086 1 0.692833 0.397427 0.504243
4160 1 0.70561 0.399087 0.503215
4385 1 0.720594 0.395744 0.50079
3937 1 0.730362 0.389004 0.50185
3952 1 0.735782 0.399223 0.501141
3806 1 0.759753 0.387044 0.500617
3604 1 0.741929 0.38244 0.502135
3876 1 0.747916 0.394104 0.500856
3337 1 0.765266 0.39817 0.501232
3747 1 0.775659 0.391627 0.500627
3396 1 0.801934 0.403985 0.500262
3212 1 0.809728 0.392264 0.499782
3357 1 0.820773 0.381979 0.501745
3692 1 0.835057 0.386552 0.500244
3392 1 0.859279 0.393733 0.499386
3274 1 0.872362 0.382716 0.500343
3546 1 0.904218 0.392357 0.499982
3414 1 0.889746 0.387129 0.500578
3691 1 0.902278 0.378681 0.501978
3775 1 0.923395 0.391492 0.501872
3689 1 0.941947 0.387962 0.504342
3827 1 0.944567 0.40104 0.502735
3831 1 0.931261 0.400581 0.503154
3844 1 0.95737 0.399857 0.501276
3764 1 0.969097 0.401669 0.502967
3682 1 0.964058 0.389799 0.50495
3563 1 0.995121 0.382813 0.508064
3542 1 0.98191 0.391375 0.50619
3900 1 0.994139 0.398871 0.50663
4004 1 0.514707 0.406961 0.504389
4344 1 0.50306 0.418192 0.504245
4208 1 0.515439 0.427102 0.504869
3927 1 0.527755 0.410423 0.505244
4205 1 0.539441 0.406572 0.505337
3587 1 0.52707 0.423576 0.50485
3998 1 0.541859 0.417746 0.506151
4014 1 0.555205 0.413908 0.507144
4144 1 0.5663 0.418119 0.507472
4078 1 0.553455 0.426529 0.506092
3668 1 0.58459 0.418152 0.510249
3728 1 0.577174 0.407379 0.508044
3659 1 0.591964 0.406446 0.509799
4427 1 0.577595 0.427929 0.505666
4143 1 0.597247 0.42156 0.509056
3948 1 0.603689 0.409895 0.511839
4075 1 0.615144 0.417473 0.510152
3966 1 0.642785 0.408045 0.509042
4076 1 0.628523 0.414499 0.508813
4299 1 0.641128 0.421111 0.508182
3797 1 0.654269 0.426817 0.508501
3813 1 0.659384 0.415389 0.508101
3863 1 0.673504 0.411491 0.507185
4349 1 0.676183 0.423151 0.505949
3790 1 0.686046 0.413573 0.503799
4437 1 0.688535 0.424113 0.505387
3875 1 0.712456 0.408357 0.501845
3938 1 0.697903 0.411495 0.503759
3861 1 0.706919 0.421173 0.502573
4082 1 0.719216 0.416932 0.500339
4020 1 0.725453 0.406233 0.503609
4383 1 0.730856 0.419606 0.501176
3885 1 0.741293 0.410758 0.500826
4223 1 0.749131 0.420337 0.50051
3612 1 0.754168 0.405872 0.500487
3880 1 0.767196 0.412223 0.500415
3949 1 0.779093 0.405064 0.501198
3533 1 0.789261 0.413621 0.500109
3417 1 0.926158 0.412548 0.500459
3484 1 0.944439 0.426397 0.500068
3828 1 0.940065 0.414709 0.50093
3287 1 0.964687 0.41311 0.500869
3609 1 0.952171 0.41722 0.501425
3549 1 0.965764 0.425678 0.500516
3684 1 0.980472 0.405731 0.503795
3336 1 0.978888 0.419464 0.502967
3889 1 0.993536 0.412329 0.504408
3780 1 0.993553 0.426329 0.504355
1364 1 0.523601 0.449429 0.504906
3734 1 0.502745 0.431743 0.504373
1346 1 0.513166 0.44136 0.505892
3718 1 0.526965 0.436239 0.505382
4280 1 0.536288 0.444374 0.5032
1641 1 0.541249 0.434065 0.505661
1715 1 0.550184 0.445068 0.506043
4201 1 0.56369 0.452261 0.506275
1435 1 0.560446 0.438096 0.505877
4209 1 0.57463 0.441503 0.506168
4003 1 0.590478 0.432904 0.508751
4206 1 0.589747 0.446048 0.508062
4345 1 0.602622 0.444019 0.509692
4012 1 0.609175 0.433167 0.509572
3943 1 0.632907 0.42926 0.508154
4079 1 0.62132 0.445657 0.508444
4433 1 0.62168 0.432177 0.509582
3814 1 0.634028 0.445694 0.509273
3939 1 0.64415 0.436438 0.508301
4085 1 0.645267 0.45126 0.50797
4313 1 0.667642 0.430587 0.50724
4015 1 0.658343 0.44088 0.507793
4142 1 0.669786 0.447279 0.507921
4016 1 0.679112 0.437125 0.506652
4025 1 0.685616 0.451201 0.505667
4027 1 0.691389 0.438362 0.50598
4371 1 0.698588 0.430527 0.503473
4300 1 0.711723 0.435562 0.503149
3953 1 0.70237 0.446991 0.50438
4237 1 0.735476 0.440874 0.502866
4098 1 0.720709 0.445568 0.503427
3740 1 0.723141 0.43084 0.502401
3879 1 0.738205 0.429168 0.501664
4174 1 0.97574 0.444575 0.502216
3913 1 0.964772 0.43911 0.501977
4033 1 1.00105 0.45078 0.505247
3765 1 0.981651 0.432586 0.503153
4105 1 0.995086 0.438963 0.504087
3896 1 0.987685 0.448722 0.504669
1920 1 0.521481 0.472529 0.504118
1625 1 0.508558 0.467481 0.503637
4481 1 0.511583 0.453657 0.504749
4273 1 0.538488 0.456055 0.505991
4292 1 0.537151 0.469486 0.504144
3860 1 0.525548 0.461364 0.50405
3791 1 0.56676 0.464188 0.507009
1563 1 0.550235 0.46026 0.505661
3789 1 0.557133 0.473264 0.50621
3950 1 0.591067 0.472968 0.508135
4417 1 0.577516 0.453901 0.506498
4412 1 0.588295 0.4599 0.507701
3514 1 0.578214 0.469337 0.507738
4149 1 0.614866 0.475649 0.508102
4207 1 0.616047 0.463091 0.508501
3961 1 0.611527 0.452105 0.511056
4353 1 0.601821 0.464741 0.508221
1495 1 0.626313 0.45668 0.509597
4346 1 0.639956 0.463665 0.507925
3940 1 0.631188 0.471219 0.509638
4505 1 0.66568 0.465368 0.505909
4145 1 0.657613 0.456359 0.508121
3932 1 0.649581 0.4698 0.507091
4217 1 0.676526 0.461495 0.507921
4295 1 0.689479 0.468145 0.505892
4093 1 0.708167 0.466942 0.503795
4102 1 0.712633 0.454809 0.504428
4026 1 0.697613 0.457509 0.504734
4289 1 0.730508 0.4557 0.502219
4369 1 0.720957 0.463946 0.501576
4042 1 0.937937 0.466517 0.499655
3903 1 0.968652 0.473699 0.502674
3472 1 0.962743 0.454869 0.501321
3675 1 0.951639 0.466033 0.50116
3977 1 0.999252 0.471198 0.50358
3899 1 0.97652 0.456569 0.502578
4054 1 0.980344 0.469601 0.502561
3974 1 0.989996 0.459827 0.503546
1636 1 0.519788 0.492562 0.502544
1284 1 0.512034 0.481687 0.502431
1779 1 0.545792 0.479453 0.504705
4622 1 0.530483 0.48511 0.504212
1642 1 0.534009 0.497712 0.501875
4494 1 0.570294 0.483398 0.50662
4271 1 0.559101 0.490796 0.505443
1713 1 0.572908 0.495865 0.506175
3864 1 0.548469 0.496879 0.502965
4414 1 0.582942 0.490477 0.508076
1503 1 0.605245 0.498549 0.506453
4067 1 0.615788 0.488969 0.507025
3995 1 0.601564 0.479505 0.506993
4213 1 0.59492 0.49008 0.506657
4230 1 0.643151 0.481306 0.507338
4007 1 0.63303 0.494674 0.508044
4454 1 0.628146 0.480791 0.507418
4441 1 0.647634 0.492284 0.507025
3942 1 0.660793 0.476851 0.506846
4287 1 0.659281 0.488568 0.505553
4382 1 0.68235 0.497125 0.504349
4305 1 0.673194 0.47769 0.505555
4657 1 0.685403 0.480542 0.504645
4662 1 0.673139 0.490826 0.50492
4367 1 0.713669 0.479788 0.501957
4017 1 0.701077 0.478864 0.502878
4233 1 0.692998 0.491195 0.503168
3819 1 0.709834 0.492541 0.50253
4089 1 0.722274 0.489894 0.501629
4518 1 0.72556 0.476523 0.500349
4319 1 0.966823 0.490494 0.501249
4241 1 0.958058 0.479934 0.501176
4032 1 0.979303 0.494985 0.501476
4669 1 0.976542 0.483362 0.502597
4035 1 0.989945 0.480372 0.502392
4177 1 0.993529 0.494523 0.502925
1706 1 0.502311 0.520151 0.498998
1631 1 0.517969 0.520054 0.499446
1560 1 0.531934 0.518539 0.501639
4084 1 0.741085 0.506558 0.499515
3744 1 0.75688 0.524012 0.498627
4227 1 0.742764 0.521362 0.499421
3751 1 0.753889 0.510952 0.498006
4368 1 0.770215 0.518373 0.497953
3818 1 0.765108 0.503783 0.497388
3958 1 0.778251 0.503574 0.496403
4316 1 0.784443 0.517284 0.496259
3614 1 0.803024 0.500827 0.493612
4366 1 0.796575 0.513434 0.496417
4092 1 0.809494 0.514161 0.494805
3679 1 0.817345 0.501793 0.492969
4095 1 0.821963 0.513719 0.494728
4650 1 0.833899 0.509749 0.493564
4314 1 0.839183 0.52183 0.493868
4522 1 0.847075 0.511222 0.491837
4581 1 0.852296 0.524 0.492768
4225 1 0.860265 0.512257 0.492485
4722 1 0.87185 0.505909 0.491672
4578 1 0.8704 0.523474 0.492755
4634 1 0.881815 0.512198 0.494703
4814 1 0.891498 0.502459 0.493558
4392 1 0.904066 0.508147 0.495407
4096 1 0.895378 0.519665 0.494966
3901 1 0.917276 0.507256 0.49628
4246 1 0.924465 0.518355 0.497351
5125 1 0.910612 0.520624 0.495236
3821 1 0.929341 0.500484 0.498001
4332 1 0.936914 0.512971 0.498468
4232 1 0.953065 0.513788 0.499629
4324 1 0.944102 0.502723 0.498876
4593 1 0.965614 0.519369 0.499063
4451 1 0.957658 0.499789 0.499941
4374 1 0.986594 0.517627 0.499071
1561 1 0.507365 0.544909 0.497976
2204 1 0.521176 0.543248 0.499032
1424 1 0.510495 0.53308 0.496871
1993 1 0.526766 0.52955 0.498801
1358 1 0.553316 0.542747 0.498519
4925 1 0.749077 0.534025 0.498305
4164 1 0.764324 0.537332 0.499816
4658 1 0.754147 0.547305 0.501148
4097 1 0.775139 0.531805 0.498744
4240 1 0.777884 0.545171 0.498962
4167 1 0.800679 0.525039 0.495485
4168 1 0.789322 0.53017 0.498459
4457 1 0.8036 0.538285 0.498007
4862 1 0.790382 0.545278 0.498447
4221 1 0.812767 0.525675 0.496607
4229 1 0.825143 0.527473 0.494465
4220 1 0.816139 0.539646 0.49692
4715 1 0.828208 0.547822 0.496761
4178 1 0.834514 0.535698 0.494042
4521 1 0.846905 0.534044 0.494613
4809 1 0.841347 0.549163 0.495162
4446 1 0.860448 0.533288 0.494256
4473 1 0.876721 0.534808 0.494298
4528 1 0.864131 0.544068 0.495465
4176 1 0.885959 0.527464 0.49444
4452 1 0.8909 0.544813 0.493526
5067 1 0.902734 0.532398 0.49596
4608 1 0.904676 0.546614 0.494475
4577 1 0.918629 0.532118 0.496749
4239 1 0.917088 0.545784 0.495565
3547 1 0.94316 0.523821 0.49838
4432 1 0.931838 0.543527 0.497779
4323 1 0.929343 0.530079 0.499744
4312 1 0.945342 0.53894 0.498876
4453 1 0.957594 0.531261 0.498103
4523 1 0.970849 0.539408 0.498581
4162 1 0.957863 0.545281 0.497303
4173 1 0.977448 0.525196 0.499809
4304 1 0.999167 0.538659 0.497222
4308 1 0.987252 0.534263 0.500027
1984 1 0.504158 0.568414 0.497809
2133 1 0.513594 0.555589 0.498337
2057 1 0.517071 0.57088 0.498981
1634 1 0.525116 0.562005 0.498241
4834 1 0.53828 0.563061 0.499062
4342 1 0.531689 0.550064 0.499294
1988 1 0.551484 0.570889 0.498601
2119 1 0.569125 0.568186 0.49963
4631 1 0.599249 0.566866 0.499817
4065 1 0.611162 0.566511 0.500422
4150 1 0.629233 0.564817 0.499637
4440 1 0.64157 0.569052 0.499928
4377 1 0.746108 0.570528 0.499978
4600 1 0.771363 0.563588 0.4996
4236 1 0.783442 0.558225 0.498737
4152 1 0.801766 0.552943 0.497121
4503 1 0.794277 0.565412 0.497286
4721 1 0.815894 0.553577 0.497622
4307 1 0.810243 0.565775 0.496283
4588 1 0.826183 0.561621 0.497309
4466 1 0.854346 0.552028 0.496714
4987 1 0.838629 0.557684 0.498674
4390 1 0.853429 0.566746 0.497733
4928 1 0.841447 0.570927 0.49858
4387 1 0.876404 0.54734 0.495739
4094 1 0.866639 0.556814 0.498312
4575 1 0.866195 0.570472 0.497635
4529 1 0.876097 0.56342 0.497365
4378 1 0.888834 0.55868 0.494966
4107 1 0.902728 0.561148 0.495306
4450 1 0.916155 0.563988 0.4949
4253 1 0.926539 0.555743 0.496202
4311 1 0.92728 0.570538 0.494763
4242 1 0.940918 0.554101 0.49771
4525 1 0.940115 0.567434 0.496061
4251 1 0.969312 0.555296 0.497179
4317 1 0.952442 0.555378 0.497443
4388 1 0.966754 0.567932 0.496597
4170 1 0.952192 0.56947 0.496981
4110 1 0.997435 0.552109 0.498674
4116 1 0.981161 0.548485 0.498093
4609 1 0.981017 0.562622 0.496654
1921 1 0.508319 0.580396 0.498598
2131 1 0.519675 0.584887 0.495383
1707 1 0.505992 0.595175 0.497726
4836 1 0.52847 0.57561 0.497822
4703 1 0.531439 0.592094 0.495344
4551 1 0.547111 0.592074 0.498242
4765 1 0.541792 0.579735 0.4969
4500 1 0.559947 0.585234 0.499461
4762 1 0.5755 0.580815 0.499774
4283 1 0.593929 0.582353 0.497347
4483 1 0.599553 0.594521 0.497046
4498 1 0.605302 0.579886 0.49789
1714 1 0.617084 0.58834 0.497876
4351 1 0.63356 0.581922 0.498561
3929 1 0.63753 0.594637 0.498805
4693 1 0.62059 0.575609 0.49937
4202 1 0.650319 0.59451 0.498599
4449 1 0.648776 0.581193 0.498656
4638 1 0.748271 0.582884 0.499456
5049 1 0.758594 0.590172 0.498521
4594 1 0.759379 0.573765 0.498422
4507 1 0.780381 0.573195 0.49876
4718 1 0.776507 0.591102 0.499442
4438 1 0.768718 0.581513 0.499015
4421 1 0.791619 0.578999 0.498513
4288 1 0.803744 0.575391 0.496423
4358 1 0.795242 0.592224 0.498756
4880 1 0.808585 0.588257 0.497205
4785 1 0.829464 0.574501 0.497602
4724 1 0.817726 0.578306 0.497152
4649 1 0.822614 0.591834 0.496982
4252 1 0.835307 0.58607 0.495788
4873 1 0.849172 0.583723 0.496394
4255 1 0.861657 0.581847 0.496268
4322 1 0.875003 0.582255 0.496218
4444 1 0.885402 0.573091 0.497176
4597 1 0.887333 0.585989 0.49612
4460 1 0.898196 0.574138 0.496581
4321 1 0.90492 0.586359 0.497743
4759 1 0.913063 0.575094 0.496386
4218 1 0.923189 0.585366 0.496676
4596 1 0.939198 0.581013 0.494797
4402 1 0.951866 0.582422 0.496657
4266 1 0.942544 0.594132 0.494644
4825 1 0.963982 0.584554 0.497237
4536 1 1.00183 0.589123 0.49642
4320 1 0.99265 0.578783 0.496134
4161 1 0.975983 0.577833 0.496628
3776 1 0.982544 0.593263 0.496734
1703 1 0.511528 0.608144 0.498183
2129 1 0.519967 0.598757 0.496314
1986 1 0.523591 0.611721 0.49747
2205 1 0.538733 0.603793 0.49765
2046 1 0.536599 0.617046 0.497464
4565 1 0.551615 0.613571 0.499347
2183 1 0.557437 0.600225 0.500197
2270 1 0.56356 0.613949 0.498299
2130 1 0.572008 0.599183 0.498321
2132 1 0.573779 0.611908 0.496804
4761 1 0.586191 0.596018 0.496818
1982 1 0.585693 0.61001 0.49658
4001 1 0.613041 0.602388 0.497651
4707 1 0.600338 0.608859 0.495737
4365 1 0.620784 0.615151 0.496817
4901 1 0.633438 0.611955 0.497923
1643 1 0.626173 0.600809 0.497919
4296 1 0.656005 0.61028 0.49925
4140 1 0.664794 0.617725 0.500211
4423 1 0.663876 0.597518 0.499747
4293 1 0.753636 0.60796 0.499823
4210 1 0.741684 0.610361 0.50018
4228 1 0.767216 0.601017 0.500694
5061 1 0.778065 0.609446 0.500314
4584 1 0.786314 0.60033 0.498351
4509 1 0.799012 0.604683 0.497118
4656 1 0.789996 0.616244 0.498138
4448 1 0.811626 0.60469 0.495893
5003 1 0.827564 0.604578 0.495442
4327 1 0.820698 0.617204 0.494972
4302 1 0.838707 0.597779 0.495605
4514 1 0.834819 0.616493 0.493407
4464 1 0.850749 0.596804 0.495638
4297 1 0.844288 0.609312 0.495356
4855 1 0.853765 0.617563 0.495812
4857 1 0.866839 0.594749 0.49542
4470 1 0.878882 0.595761 0.495313
4781 1 0.85931 0.605641 0.49469
4461 1 0.874521 0.608045 0.494615
4664 1 0.887469 0.607498 0.49387
4780 1 0.897142 0.597551 0.495308
3964 1 0.900876 0.610526 0.493468
4325 1 0.913384 0.597357 0.495932
4541 1 0.926084 0.612035 0.494933
4545 1 0.911833 0.609663 0.495594
4397 1 0.926484 0.598422 0.493832
4118 1 0.937069 0.607946 0.493934
1506 1 0.968037 0.596818 0.49654
4546 1 0.952391 0.611384 0.494614
4398 1 0.954691 0.598785 0.494932
4616 1 0.965826 0.611554 0.495829
1786 1 0.993559 0.599276 0.495666
4120 1 0.981472 0.608315 0.494907
4458 1 0.999251 0.611642 0.495825
4333 1 0.98782 0.619212 0.49799
1911 1 0.50242 0.622904 0.497403
1913 1 0.516424 0.62292 0.498176
1980 1 0.510145 0.63623 0.496967
1978 1 0.526884 0.632823 0.496625
1976 1 0.539462 0.636773 0.4984
1781 1 0.544768 0.626044 0.497239
4773 1 0.553139 0.638412 0.4972
1633 1 0.565568 0.637662 0.498124
1917 1 0.557398 0.62642 0.499466
4426 1 0.570996 0.626032 0.497743
4482 1 0.582624 0.629202 0.497913
4831 1 0.580375 0.643561 0.497831
4691 1 0.591858 0.639921 0.497836
4627 1 0.606734 0.620877 0.49659
2186 1 0.59334 0.622573 0.496361
4636 1 0.60374 0.634823 0.496999
4508 1 0.617959 0.630188 0.496159
4278 1 0.628555 0.624675 0.498728
4992 1 0.633874 0.64133 0.496774
4155 1 0.63928 0.629256 0.497689
4491 1 0.645568 0.618102 0.498167
4359 1 0.65324 0.628568 0.4999
4418 1 0.648186 0.638916 0.497243
4496 1 0.667593 0.630145 0.499599
4286 1 0.697394 0.628032 0.499967
4837 1 0.755266 0.621033 0.498859
4362 1 0.757701 0.634315 0.499577
4587 1 0.777067 0.622704 0.499955
4572 1 0.769726 0.633901 0.499398
4995 1 0.782029 0.641447 0.497502
4445 1 0.788958 0.629296 0.498111
4303 1 0.794694 0.638669 0.496251
4729 1 0.803072 0.618503 0.496864
4822 1 0.807051 0.632402 0.495863
4620 1 0.818985 0.631802 0.493842
4520 1 0.83454 0.63277 0.495164
4736 1 0.844949 0.626974 0.494133
4386 1 0.849521 0.638267 0.494468
1999 1 0.868929 0.618221 0.493773
4590 1 0.860435 0.62842 0.493596
4613 1 0.874583 0.631321 0.493259
4456 1 0.865561 0.642063 0.493702
4533 1 0.883083 0.619346 0.494122
1927 1 0.896026 0.623844 0.49374
4244 1 0.886783 0.633995 0.494181
4250 1 0.895885 0.644307 0.493654
4793 1 0.905513 0.635982 0.492931
4249 1 0.913631 0.62197 0.493944
4666 1 0.920353 0.634709 0.493968
4821 1 0.941581 0.620892 0.494718
3834 1 0.928277 0.624839 0.493279
4257 1 0.94789 0.633883 0.494883
4550 1 0.933799 0.638788 0.494294
4183 1 0.973451 0.621332 0.497057
4259 1 0.966834 0.632068 0.49649
4185 1 0.956539 0.622674 0.494922
1731 1 0.956259 0.644616 0.496738
1367 1 0.983263 0.631156 0.49748
4199 1 1.00246 0.626156 0.498002
4256 1 0.994482 0.636841 0.497759
2197 1 0.520138 0.647637 0.496763
1904 1 0.507128 0.656393 0.496942
2045 1 0.521376 0.662167 0.496804
2050 1 0.533469 0.645885 0.496526
4918 1 0.534946 0.660355 0.496916
2063 1 0.546001 0.666116 0.498627
1843 1 0.546974 0.651727 0.496988
4973 1 0.558141 0.650497 0.497601
4842 1 0.570167 0.650223 0.498968
4348 1 0.557076 0.664431 0.496632
4214 1 0.569477 0.660873 0.497369
1572 1 0.593832 0.651771 0.497642
4073 1 0.582544 0.657527 0.497713
4356 1 0.607224 0.647193 0.497841
4764 1 0.619312 0.657165 0.499062
4569 1 0.606243 0.660882 0.498449
4700 1 0.620875 0.644203 0.497175
4637 1 0.631383 0.665112 0.498114
4360 1 0.63266 0.653632 0.497701
4573 1 0.647651 0.65344 0.497484
4561 1 0.660929 0.642196 0.499095
4510 1 0.659693 0.656524 0.49862
4696 1 0.644332 0.664875 0.499726
2134 1 0.688785 0.65325 0.499794
4420 1 0.67609 0.656363 0.498743
4997 1 0.699248 0.644494 0.500605
4628 1 0.696993 0.664738 0.498921
5127 1 0.713105 0.656693 0.498462
4861 1 0.759505 0.648678 0.49983
5119 1 0.745345 0.644378 0.499676
5062 1 0.755168 0.662191 0.499781
5064 1 0.770888 0.647205 0.498308
4566 1 0.772476 0.659987 0.497584
4488 1 0.784705 0.657176 0.496361
4363 1 0.796054 0.65182 0.494801
4361 1 0.805928 0.66468 0.49482
4589 1 0.811421 0.652326 0.493737
4882 1 0.82467 0.644679 0.49468
5270 1 0.831606 0.659152 0.493282
4807 1 0.82048 0.664296 0.494079
4790 1 0.837828 0.647359 0.493107
4471 1 0.852675 0.64939 0.492666
4959 1 0.844494 0.659609 0.493308
4599 1 0.878767 0.644454 0.493252
4679 1 0.869237 0.654993 0.493175
4538 1 0.858629 0.662819 0.492482
4601 1 0.888045 0.652176 0.492926
4475 1 0.880087 0.664154 0.490848
4607 1 0.893632 0.667678 0.492423
4823 1 0.902178 0.657085 0.493503
4238 1 0.913125 0.646857 0.493628
4468 1 0.91768 0.658043 0.494876
4690 1 0.929633 0.652312 0.494205
2006 1 0.943763 0.651426 0.495685
4480 1 0.935798 0.664459 0.497426
4180 1 0.975476 0.641563 0.49612
3970 1 0.965517 0.652374 0.497328
4338 1 0.972739 0.661888 0.49898
2008 1 0.952205 0.660598 0.497754
4189 1 0.984587 0.654965 0.497929
4188 1 0.99822 0.658867 0.497742
2178 1 0.51226 0.67066 0.496023
2059 1 0.516809 0.686637 0.496358
1469 1 0.506229 0.680618 0.498663
4642 1 0.526747 0.674085 0.497336
4903 1 0.53991 0.679505 0.498169
2177 1 0.528358 0.689988 0.498432
1704 1 0.552625 0.677564 0.499588
4692 1 0.566769 0.675628 0.497764
1916 1 0.564512 0.689849 0.496884
4635 1 0.581996 0.675594 0.495996
4204 1 0.578294 0.690839 0.497192
4495 1 0.59054 0.683628 0.495019
4777 1 0.591452 0.666072 0.497092
2049 1 0.60082 0.686803 0.498279
2053 1 0.604174 0.674681 0.497592
5209 1 0.611901 0.690208 0.498786
2128 1 0.617627 0.671163 0.498635
4990 1 0.622796 0.682342 0.497595
4698 1 0.635347 0.677114 0.49855
4644 1 0.653319 0.671074 0.498888
2202 1 0.651222 0.683414 0.498945
4487 1 0.663085 0.681002 0.499865
4710 1 0.667053 0.667598 0.497913
4646 1 0.682968 0.668596 0.49936
4991 1 0.680202 0.680967 0.498787
5051 1 0.754165 0.678404 0.499699
4787 1 0.767366 0.683632 0.497897
5341 1 0.778562 0.674144 0.498301
4806 1 0.780586 0.688464 0.498165
5196 1 0.766095 0.671056 0.497603
4854 1 0.792428 0.668959 0.496671
5058 1 0.791934 0.684749 0.497876
4728 1 0.80513 0.676358 0.494785
4655 1 0.83199 0.672482 0.492222
4805 1 0.819902 0.676729 0.49335
5026 1 0.847112 0.671517 0.492262
4376 1 0.837292 0.685171 0.494235
4720 1 0.849332 0.690666 0.49335
4248 1 0.857478 0.679142 0.493429
4827 1 0.868302 0.670606 0.491915
4803 1 0.8643 0.69005 0.494282
4539 1 0.876011 0.684539 0.493863
4516 1 0.885545 0.677163 0.491507
4399 1 0.89949 0.677525 0.495183
4543 1 0.889693 0.688433 0.494084
1788 1 0.909887 0.666544 0.494409
4175 1 0.913583 0.678184 0.495418
4123 1 0.923382 0.668602 0.495639
2359 1 0.926973 0.68088 0.497005
4673 1 0.94073 0.684688 0.498817
4478 1 0.949623 0.675839 0.498128
4404 1 0.962448 0.6701 0.498465
1366 1 0.988044 0.670639 0.498906
4264 1 0.976373 0.67727 0.498561
1716 1 0.990734 0.687331 0.498965
4570 1 0.501466 0.692188 0.497884
4705 1 0.515521 0.710806 0.498311
5059 1 0.512898 0.698062 0.496894
4994 1 0.503025 0.711479 0.498701
2055 1 0.525833 0.702337 0.499447
2262 1 0.541731 0.709396 0.499893
1770 1 0.539466 0.698059 0.498888
4763 1 0.551885 0.692478 0.499034
2127 1 0.56724 0.700909 0.49909
2201 1 0.595018 0.698484 0.497047
4978 1 0.58342 0.701131 0.497479
4563 1 0.588121 0.714203 0.498634
1922 1 0.574126 0.712272 0.497351
1772 1 0.61395 0.701699 0.497461
2268 1 0.603201 0.706106 0.498223
4917 1 0.628179 0.693397 0.498184
4704 1 0.642637 0.693045 0.499108
4701 1 0.64054 0.705476 0.499572
5050 1 0.626521 0.708141 0.499816
4839 1 0.656032 0.699409 0.498507
2198 1 0.667452 0.708795 0.498754
4937 1 0.708783 0.706798 0.500455
4653 1 0.761278 0.694554 0.499893
4749 1 0.772747 0.697356 0.496703
4531 1 0.761645 0.708339 0.49956
4746 1 0.785274 0.703514 0.495895
4393 1 0.808463 0.691616 0.494903
4794 1 0.79711 0.699528 0.496598
4580 1 0.803885 0.710298 0.494972
4586 1 0.825185 0.690916 0.492313
4742 1 0.817018 0.70283 0.495779
4534 1 0.830088 0.710636 0.495691
4474 1 0.84986 0.713652 0.494604
4818 1 0.837509 0.701827 0.494217
4670 1 0.854646 0.701985 0.49436
4469 1 0.867475 0.70678 0.496576
4820 1 0.878807 0.699007 0.495356
4719 1 0.888451 0.709367 0.496196
4261 1 0.896794 0.699334 0.495726
4396 1 0.90622 0.691762 0.494208
1646 1 0.909338 0.703924 0.496263
4960 1 0.919308 0.692185 0.497938
4895 1 0.921203 0.706559 0.500476
4329 1 0.932725 0.694558 0.500269
4401 1 0.946472 0.704237 0.500162
4391 1 0.951164 0.693169 0.499061
4618 1 0.992877 0.701554 0.499902
4702 1 0.507598 0.726148 0.500124
2065 1 0.531971 0.714668 0.499499
4784 1 0.615353 0.713166 0.499672
2052 1 0.602778 0.718354 0.498787
5207 1 0.620729 0.724077 0.50076
4798 1 0.638819 0.733348 0.499257
5052 1 0.631439 0.720808 0.498273
4778 1 0.65922 0.724389 0.500745
5078 1 0.644015 0.719693 0.497828
4641 1 0.694159 0.717487 0.50059
4779 1 0.710409 0.734047 0.499473
5000 1 0.723278 0.738063 0.499677
4579 1 0.760125 0.72135 0.498317
5103 1 0.749626 0.731618 0.498977
2422 1 0.767106 0.730862 0.497765
1931 1 0.773379 0.716512 0.497022
2001 1 0.780531 0.728704 0.496234
4950 1 0.791947 0.717195 0.496796
5021 1 0.808583 0.72374 0.494829
4610 1 0.796297 0.73347 0.494928
4735 1 0.81937 0.716853 0.496966
4443 1 0.828462 0.726803 0.496174
4532 1 0.816883 0.734626 0.49644
4887 1 0.839638 0.720693 0.496403
4675 1 0.842747 0.738011 0.495901
4606 1 0.854511 0.732314 0.496791
4661 1 0.862961 0.719356 0.495865
4677 1 0.879545 0.718694 0.496238
4476 1 0.867979 0.732442 0.4975
4955 1 0.895687 0.727485 0.498614
4463 1 0.884076 0.731183 0.497379
4410 1 0.901419 0.715154 0.498047
4900 1 0.908797 0.732585 0.498881
4603 1 0.955208 0.714746 0.499347
5053 1 0.648971 0.750348 0.500368
4869 1 0.733802 0.746695 0.500802
4789 1 0.747037 0.743544 0.499021
4929 1 0.741842 0.756893 0.49894
4874 1 0.755078 0.753837 0.499077
4733 1 0.761309 0.74094 0.49832
5102 1 0.775393 0.739908 0.49607
4865 1 0.783526 0.756261 0.49718
4788 1 0.766586 0.75202 0.497599
4819 1 0.787577 0.743787 0.495375
4868 1 0.801569 0.753494 0.496167
5029 1 0.806519 0.741578 0.494838
4676 1 0.82761 0.740655 0.495649
4815 1 0.8185 0.752809 0.494065
4890 1 0.835974 0.754619 0.495072
4883 1 0.852301 0.749417 0.495615
4969 1 0.849494 0.761462 0.496173
2219 1 0.865428 0.74607 0.498358
2066 1 0.876931 0.756316 0.498382
2573 1 0.877913 0.743246 0.498367
2074 1 0.861793 0.758083 0.498066
4172 1 0.888986 0.758871 0.498861
2058 1 0.668356 0.769345 0.501627
5281 1 0.696099 0.782054 0.499314
4981 1 0.731874 0.771929 0.4979
4672 1 0.720881 0.783294 0.499065
5013 1 0.742325 0.782747 0.496031
4802 1 0.747263 0.76848 0.49832
5290 1 0.756681 0.777897 0.497284
5022 1 0.760141 0.764782 0.498227
5159 1 0.772336 0.761618 0.496124
4946 1 0.768758 0.778285 0.497228
4743 1 0.781695 0.771261 0.49742
4888 1 0.792585 0.762855 0.496367
2073 1 0.807694 0.763558 0.49576
4513 1 0.80018 0.774521 0.496143
4741 1 0.792129 0.782836 0.498318
5023 1 0.820018 0.767048 0.496502
4801 1 0.814278 0.780771 0.495166
4886 1 0.827532 0.780949 0.496304
4671 1 0.834793 0.769433 0.496676
2072 1 0.846652 0.773801 0.49674
2067 1 0.861166 0.773161 0.496865
4816 1 0.871579 0.768457 0.498211
4965 1 0.879051 0.781923 0.499117
4824 1 0.895756 0.782115 0.500174
4826 1 0.887512 0.770973 0.500799
4734 1 0.731976 0.790337 0.497141
5292 1 0.734185 0.804684 0.496519
4986 1 0.717502 0.797591 0.499316
4944 1 0.744376 0.797124 0.495019
4859 1 0.75649 0.790914 0.495892
5406 1 0.754337 0.805898 0.495838
4674 1 0.769787 0.79575 0.497915
4602 1 0.778966 0.787143 0.496897
5011 1 0.779933 0.807013 0.498297
4730 1 0.80294 0.789461 0.497466
4717 1 0.787951 0.797057 0.497991
5034 1 0.798732 0.804009 0.497335
5163 1 0.812927 0.802986 0.499231
4962 1 0.821742 0.793836 0.498398
4739 1 0.831616 0.801124 0.498287
4953 1 0.854316 0.784292 0.497741
4811 1 0.839649 0.787507 0.497651
4817 1 0.843473 0.800462 0.498194
4753 1 0.86741 0.786298 0.499798
5090 1 0.860819 0.799217 0.498408
4898 1 0.875538 0.797013 0.500101
4957 1 0.870176 0.808548 0.499319
2278 1 0.895369 0.802055 0.500098
4866 1 0.633488 0.826025 0.499869
4795 1 0.6701 0.829138 0.5005
4951 1 0.681387 0.817946 0.499811
5066 1 0.695593 0.828977 0.498761
5160 1 0.696605 0.810588 0.499601
5095 1 0.733017 0.81897 0.497077
5415 1 0.71904 0.824896 0.498699
2954 1 0.717607 0.810373 0.498267
5091 1 0.737569 0.831111 0.497668
4948 1 0.760153 0.819988 0.496605
4737 1 0.746171 0.818622 0.496608
4800 1 0.750086 0.831801 0.496619
4893 1 0.767129 0.831482 0.496486
5147 1 0.769305 0.811446 0.495977
5037 1 0.779237 0.823236 0.496131
4812 1 0.80309 0.815679 0.498427
4727 1 0.79058 0.816933 0.49771
5024 1 0.796795 0.830158 0.49846
4813 1 0.822876 0.812451 0.499198
5031 1 0.832221 0.822923 0.499277
4592 1 0.813645 0.822869 0.498996
1863 1 0.838624 0.812711 0.498192
5245 1 0.846346 0.825536 0.498605
4956 1 0.85402 0.812053 0.497986
2293 1 0.862728 0.825874 0.498412
2071 1 0.874887 0.822613 0.498447
2207 1 0.888245 0.821132 0.498733
4881 1 0.613448 0.841815 0.499459
5322 1 0.618606 0.853908 0.497793
2775 1 0.632033 0.843777 0.498804
4926 1 0.643925 0.83508 0.500167
4930 1 0.644441 0.850649 0.498741
5014 1 0.678327 0.854007 0.500243
5009 1 0.684027 0.834521 0.499801
5355 1 0.690528 0.846145 0.498021
5008 1 0.701259 0.849383 0.49969
5284 1 0.706284 0.834769 0.498975
5080 1 0.721917 0.837785 0.498492
5275 1 0.716432 0.848427 0.49941
5342 1 0.73534 0.84333 0.49892
5296 1 0.750372 0.844962 0.496619
5219 1 0.739024 0.856625 0.498469
4605 1 0.784365 0.835902 0.497069
5087 1 0.762119 0.842521 0.496941
5140 1 0.764999 0.856034 0.497107
4892 1 0.77666 0.847521 0.497269
5077 1 0.795055 0.845571 0.497647
5221 1 0.807819 0.846981 0.497866
5166 1 0.826098 0.8368 0.499164
5224 1 0.811864 0.835517 0.499285
4668 1 0.820532 0.849051 0.497816
4966 1 0.855043 0.837724 0.497591
4896 1 0.835447 0.847607 0.497784
4871 1 0.838568 0.836019 0.498776
1932 1 0.847603 0.848016 0.49791
2349 1 0.872435 0.854687 0.49755
2136 1 0.865666 0.844128 0.498424
4830 1 0.879068 0.83706 0.498108
5032 1 0.893761 0.835236 0.499969
5238 1 0.884363 0.851264 0.498529
1929 1 0.901832 0.846209 0.499564
5280 1 0.569829 0.872937 0.500689
5285 1 0.580556 0.859208 0.500561
5357 1 0.61026 0.867129 0.498931
5114 1 0.608779 0.880646 0.499103
5397 1 0.63438 0.879792 0.498772
2817 1 0.624696 0.872188 0.498542
2766 1 0.632411 0.859126 0.498261
5324 1 0.663807 0.878066 0.500342
5204 1 0.651471 0.875894 0.498203
5335 1 0.645534 0.864623 0.49805
5084 1 0.669871 0.866005 0.50015
2958 1 0.689391 0.878968 0.498398
4958 1 0.685107 0.86567 0.497834
5181 1 0.710446 0.860121 0.499373
5194 1 0.695464 0.861419 0.498276
5291 1 0.701311 0.873464 0.499487
5352 1 0.72592 0.858988 0.498736
4877 1 0.717334 0.874093 0.499247
4740 1 0.730333 0.872528 0.498851
4659 1 0.751293 0.857221 0.497497
4652 1 0.744496 0.86822 0.498248
5198 1 0.757967 0.867319 0.499002
4747 1 0.772182 0.8673 0.49823
4732 1 0.767242 0.880083 0.498333
4889 1 0.783603 0.857082 0.498425
2068 1 0.781399 0.875437 0.497394
5161 1 0.803334 0.85919 0.496854
2137 1 0.791055 0.865932 0.496788
5017 1 0.798383 0.877016 0.496239
5167 1 0.815105 0.860773 0.497465
4897 1 0.810161 0.873054 0.495308
4744 1 0.83032 0.859751 0.497215
2348 1 0.823088 0.870477 0.497435
5101 1 0.856845 0.856464 0.497572
5244 1 0.842838 0.860931 0.497564
4968 1 0.853765 0.870633 0.496281
4961 1 0.840215 0.874458 0.496696
2140 1 0.880155 0.865911 0.497521
5035 1 0.864443 0.880604 0.498909
5109 1 0.867622 0.868411 0.497543
2210 1 0.878123 0.87796 0.499106
4828 1 0.892109 0.871236 0.498441
5465 1 0.57573 0.885846 0.500225
5213 1 0.585833 0.894153 0.500278
5187 1 0.618269 0.900373 0.498703
5396 1 0.60343 0.895223 0.498739
5391 1 0.631407 0.904897 0.499846
5264 1 0.620825 0.888278 0.498948
2893 1 0.633456 0.892784 0.49779
5338 1 0.647895 0.888875 0.499539
5398 1 0.644201 0.902213 0.499771
2897 1 0.685846 0.891945 0.498194
2772 1 0.672973 0.889954 0.500597
5279 1 0.679526 0.904287 0.499425
4932 1 0.707569 0.89762 0.497767
5210 1 0.698021 0.886585 0.498979
5010 1 0.710758 0.883912 0.497968
2272 1 0.695257 0.899925 0.498707
5358 1 0.728564 0.887651 0.495421
5150 1 0.718085 0.8956 0.495342
5488 1 0.728635 0.902259 0.495447
4723 1 0.741268 0.882342 0.49677
5016 1 0.755247 0.881356 0.496835
5018 1 0.742346 0.896447 0.494954
4804 1 0.754765 0.904939 0.496301
5217 1 0.758982 0.892622 0.494837
5152 1 0.76625 0.903905 0.495574
5092 1 0.772894 0.89133 0.496185
4872 1 0.785202 0.899417 0.494986
4949 1 0.790671 0.888017 0.497407
5086 1 0.801872 0.891385 0.495195
5154 1 0.797085 0.903714 0.495299
5019 1 0.810187 0.903281 0.496209
5303 1 0.827711 0.880708 0.495592
4947 1 0.812409 0.886386 0.495576
5156 1 0.821966 0.892948 0.496653
5299 1 0.847054 0.897766 0.4966
5240 1 0.837368 0.890366 0.497243
2208 1 0.84832 0.883441 0.497515
5229 1 0.85993 0.893804 0.497105
2069 1 0.872838 0.89119 0.498329
4745 1 0.899732 0.895413 0.499514
2360 1 0.885925 0.895043 0.497857
5253 1 0.582354 0.912409 0.502001
166 1 0.613155 0.917758 0.500491
5327 1 0.606213 0.908253 0.498358
3030 1 0.628604 0.919031 0.500538
5487 1 0.653023 0.927612 0.499362
2623 1 0.654597 0.907156 0.499652
5208 1 0.674016 0.922323 0.498054
5283 1 0.687095 0.913786 0.497558
5346 1 0.68709 0.926701 0.495371
5206 1 0.703649 0.909858 0.495881
5350 1 0.710664 0.92642 0.495565
5297 1 0.698568 0.922409 0.497155
5504 1 0.717106 0.910864 0.495789
5483 1 0.731236 0.912946 0.494011
2787 1 0.725853 0.924117 0.494984
5486 1 0.742918 0.908589 0.494684
5361 1 0.75447 0.916374 0.495254
5212 1 0.752104 0.92728 0.493479
5020 1 0.739147 0.923362 0.494831
5074 1 0.769023 0.918525 0.493636
2781 1 0.781499 0.925374 0.493041
5274 1 0.780538 0.912157 0.494483
4894 1 0.792466 0.915973 0.494343
2351 1 0.800902 0.925113 0.494619
4964 1 0.809796 0.917697 0.495901
5345 1 0.82522 0.904573 0.497052
5223 1 0.823165 0.917817 0.495044
5302 1 0.839755 0.923019 0.495959
5099 1 0.8529 0.920192 0.496322
5369 1 0.838098 0.909741 0.496164
4954 1 0.853985 0.907829 0.497839
2935 1 0.868741 0.904799 0.497719
5172 1 0.865552 0.918832 0.496413
2139 1 0.880385 0.922284 0.497459
5028 1 0.901737 0.909563 0.499566
2209 1 0.894776 0.919017 0.498051
5175 1 0.883236 0.908624 0.497886
2277 1 0.923023 0.926032 0.498713
2696 1 0.913829 0.916686 0.499887
5231 1 0.906661 0.928049 0.497093
5239 1 0.936525 0.922306 0.498339
5148 1 0.664105 0.947586 0.500704
5144 1 0.663341 0.933942 0.497641
5409 1 0.674727 0.936847 0.497989
2823 1 0.687289 0.944344 0.497489
5493 1 0.69608 0.935386 0.497568
4952 1 0.704046 0.945111 0.497645
5153 1 0.71629 0.949884 0.497737
5353 1 0.720501 0.937511 0.496009
5288 1 0.737323 0.936557 0.494795
5426 1 0.729134 0.951868 0.496151
5015 1 0.752631 0.939855 0.493933
5225 1 0.74424 0.949603 0.495086
4884 1 0.767171 0.931476 0.492287
5294 1 0.777541 0.942183 0.492415
5158 1 0.764862 0.94419 0.492855
2963 1 0.79005 0.949889 0.493238
5306 1 0.79057 0.934065 0.493011
3003 1 0.802238 0.940387 0.494283
5220 1 0.813602 0.933572 0.495922
5143 1 0.827902 0.929047 0.495258
2961 1 0.823819 0.944124 0.496936
5094 1 0.84921 0.932704 0.496193
5093 1 0.835466 0.940239 0.496718
2797 1 0.850132 0.945687 0.494951
5241 1 0.863308 0.932365 0.496843
4876 1 0.86397 0.944343 0.495607
5083 1 0.873424 0.951324 0.496077
5372 1 0.878162 0.935333 0.495912
5108 1 0.891238 0.933189 0.49636
5378 1 0.899399 0.943455 0.494919
5228 1 0.88623 0.945239 0.493835
5100 1 0.911958 0.940387 0.495126
5170 1 0.925077 0.93752 0.497245
5177 1 0.923514 0.954353 0.495618
5384 1 0.937384 0.934771 0.499501
5451 1 0.936082 0.946931 0.499058
2718 1 0.997153 0.952011 0.499124
2368 1 0.984838 0.950857 0.499525
2580 1 0.981681 0.939145 0.500354
2802 1 0.685812 0.963947 0.49821
5269 1 0.699048 0.966813 0.498061
5412 1 0.696614 0.954395 0.496888
2962 1 0.710734 0.959729 0.495539
5503 1 0.71578 0.972399 0.497091
2815 1 0.72893 0.964971 0.495903
4945 1 0.757433 0.953522 0.493622
3038 1 0.740551 0.973081 0.49557
5416 1 0.742247 0.961799 0.495695
4943 1 0.754814 0.965203 0.495111
5025 1 0.77406 0.956317 0.494175
5082 1 0.77145 0.968111 0.494963
5088 1 0.782779 0.975785 0.496565
5226 1 0.80884 0.968332 0.495795
2891 1 0.796951 0.972928 0.494138
5105 1 0.787899 0.963827 0.493585
4810 1 0.799565 0.956951 0.495401
5349 1 0.828518 0.961795 0.496049
5286 1 0.820875 0.973979 0.496714
5423 1 0.812341 0.952933 0.496462
2932 1 0.856404 0.975634 0.49441
2837 1 0.834937 0.974139 0.49628
5230 1 0.845701 0.965304 0.496065
5362 1 0.83954 0.953565 0.498149
2626 1 0.871601 0.967991 0.495031
5030 1 0.859039 0.959512 0.494858
5107 1 0.879953 0.960018 0.493769
5233 1 0.891191 0.967303 0.49446
5168 1 0.893666 0.954884 0.495356
2929 1 0.903533 0.963923 0.495758
5371 1 0.910128 0.975278 0.494709
5452 1 0.917128 0.963933 0.495599
5096 1 0.908228 0.952002 0.494777
5300 1 0.947576 0.955855 0.499918
5424 1 0.943 0.970507 0.498593
2279 1 0.935108 0.96223 0.498765
5354 1 0.958857 0.968729 0.5005
5459 1 0.996027 0.965678 0.500209
2512 1 0.984625 0.964738 0.500716
5289 1 0.67439 0.987874 0.500749
5071 1 0.687624 0.97638 0.498143
2904 1 0.712333 0.984367 0.499263
2827 1 0.713123 1.00131 0.499902
5405 1 0.69955 0.979131 0.498028
5348 1 0.720955 0.992943 0.500389
5501 1 0.733064 0.997598 0.500549
5502 1 0.727296 0.980356 0.497373
2831 1 0.75249 0.976711 0.496285
2924 1 0.758434 0.988207 0.498964
2903 1 0.740597 0.98582 0.49768
2858 1 0.744648 0.997898 0.498309
5079 1 0.779456 0.988624 0.495777
2782 1 0.767976 0.996158 0.497349
5344 1 0.767986 0.980372 0.496693
5234 1 0.790431 0.999167 0.496029
5443 1 0.794531 0.985789 0.496044
5089 1 0.807162 0.983627 0.496082
2821 1 0.803787 0.999441 0.49601
5444 1 0.826124 0.986269 0.493708
5151 1 0.81534 0.992994 0.495237
2994 1 0.831588 0.99841 0.494276
5367 1 0.84667 0.997598 0.493169
5432 1 0.842344 0.984977 0.496238
5364 1 0.85746 0.986934 0.494625
5164 1 0.868813 0.995872 0.495156
2795 1 0.878818 0.990445 0.496418
5427 1 0.869405 0.981281 0.495273
5232 1 0.904663 0.98839 0.493197
186 1 0.891292 0.991123 0.495987
5313 1 0.894918 0.97943 0.493732
400 1 0.881732 0.977126 0.493468
2702 1 0.923886 0.975603 0.495033
5441 1 0.919221 0.988267 0.496328
5380 1 0.944987 0.991209 0.497456
2998 1 0.936661 0.979965 0.496169
5375 1 0.933454 0.992802 0.49745
5162 1 0.952746 0.979727 0.497664
2862 1 0.958545 0.991536 0.497441
2706 1 0.968003 0.98166 0.499909
12 1 0.982771 0.97879 0.500344
4 1 0.997589 0.980256 0.498114
5027 1 0.978576 0.9916 0.499021
1711 1 0.508813 0.507792 0.501277
4272 1 0.541781 0.509469 0.50184
1434 1 0.52432 0.507259 0.500657
4767 1 0.545033 0.524011 0.501095
1565 1 0.554173 0.511485 0.502468
4347 1 0.564034 0.522628 0.502659
3713 1 0.564146 0.505109 0.505964
4553 1 0.589936 0.517312 0.505697
4147 1 0.581142 0.50445 0.506405
4639 1 0.595434 0.506229 0.506189
3652 1 0.573149 0.513306 0.505172
3933 1 0.608338 0.514208 0.506013
4063 1 0.621025 0.502068 0.506233
4428 1 0.620168 0.51632 0.506457
4375 1 0.633435 0.51661 0.507503
4088 1 0.640212 0.505519 0.505598
4567 1 0.652158 0.522856 0.503932
4492 1 0.653737 0.505383 0.506697
4154 1 0.665651 0.501981 0.505683
4585 1 0.665738 0.516783 0.504479
4372 1 0.676395 0.509653 0.50512
3811 1 0.688137 0.514444 0.502798
4716 1 0.677364 0.522121 0.502295
4499 1 0.700075 0.516246 0.502751
4212 1 0.698402 0.503025 0.503156
4301 1 0.711616 0.516847 0.501368
4598 1 0.71284 0.505417 0.50207
4429 1 0.730231 0.517169 0.501236
3753 1 0.725885 0.50443 0.501823
4039 1 0.97031 0.507475 0.500765
4331 1 0.99664 0.509448 0.502065
3666 1 0.982396 0.508997 0.503266
4243 1 0.996701 0.522835 0.500511
4632 1 0.539815 0.536442 0.499228
4770 1 0.559871 0.533475 0.500719
4624 1 0.566057 0.548222 0.50027
1494 1 0.572106 0.532123 0.503556
4415 1 0.582968 0.526536 0.503336
4768 1 0.590508 0.53634 0.502161
4413 1 0.579823 0.541489 0.502254
4486 1 0.600906 0.524747 0.503908
4422 1 0.613084 0.530287 0.504317
3997 1 0.602383 0.540357 0.501965
3930 1 0.616138 0.540871 0.504388
3654 1 0.641564 0.526582 0.50483
4216 1 0.627882 0.528018 0.505396
4156 1 0.637083 0.537318 0.503102
4364 1 0.628511 0.546907 0.502756
4215 1 0.662193 0.530485 0.501811
3957 1 0.651296 0.541323 0.503438
4591 1 0.664222 0.545309 0.502782
4298 1 0.6743 0.535017 0.502944
4665 1 0.685161 0.53543 0.50264
4000 1 0.693197 0.526743 0.503376
4571 1 0.707278 0.528619 0.502341
4350 1 0.697048 0.541425 0.502545
4595 1 0.713198 0.538615 0.501403
4379 1 0.721688 0.526809 0.501298
4354 1 0.736128 0.531398 0.500257
4384 1 0.727368 0.540105 0.501316
4640 1 0.740446 0.54523 0.500371
4695 1 0.543856 0.551937 0.499972
4419 1 0.558946 0.558537 0.499039
4485 1 0.590774 0.550467 0.501693
4490 1 0.577443 0.555815 0.500043
4489 1 0.587197 0.566737 0.501275
4279 1 0.604163 0.553869 0.500671
4511 1 0.61712 0.554124 0.501073
4738 1 0.643702 0.555169 0.502019
4235 1 0.65811 0.556193 0.501734
4006 1 0.657468 0.571733 0.500497
4582 1 0.676513 0.547884 0.501552
4493 1 0.690657 0.553805 0.501966
4009 1 0.682052 0.562142 0.501564
1994 1 0.66936 0.563502 0.502602
4502 1 0.70866 0.565232 0.501771
3956 1 0.696813 0.569094 0.501019
4439 1 0.703729 0.553165 0.502553
4380 1 0.717112 0.550603 0.500051
4517 1 0.720929 0.561241 0.50138
4166 1 0.730001 0.552184 0.499414
4643 1 0.73309 0.564703 0.500676
4583 1 0.744028 0.558969 0.500706
4856 1 0.75584 0.55979 0.499626
4022 1 0.767448 0.551472 0.499941
4276 1 0.66466 0.583738 0.501826
1782 1 0.68644 0.576257 0.502377
4430 1 0.689869 0.590207 0.50229
4370 1 0.67629 0.589121 0.501209
4074 1 0.674012 0.575334 0.501248
4783 1 0.710116 0.577581 0.500664
4504 1 0.700632 0.582678 0.500374
4434 1 0.728363 0.587431 0.501377
4512 1 0.723531 0.57497 0.501748
4290 1 0.716065 0.593683 0.501698
4435 1 0.736745 0.577932 0.500882
4030 1 0.644773 0.605566 0.499233
4153 1 0.676263 0.602618 0.50084
4506 1 0.677512 0.614915 0.501551
4285 1 0.689039 0.618556 0.501457
4711 1 0.701588 0.610721 0.500926
4501 1 0.701725 0.596198 0.501519
4355 1 0.690462 0.605293 0.502639
4838 1 0.728164 0.603858 0.500408
4568 1 0.713804 0.605673 0.500763
4294 1 0.723982 0.617208 0.500934
4497 1 0.741165 0.593849 0.50066
5138 1 0.766202 0.614668 0.498819
4694 1 0.680711 0.62981 0.500921
4782 1 0.68722 0.63988 0.500768
5056 1 0.708275 0.635006 0.500908
4436 1 0.710417 0.619922 0.500316
5120 1 0.734246 0.623079 0.499427
4564 1 0.720799 0.630277 0.501497
4714 1 0.731217 0.637999 0.501497
4786 1 0.746178 0.630108 0.500073
4574 1 0.673318 0.642855 0.500666
4425 1 0.717394 0.645731 0.500948
5135 1 0.731608 0.652424 0.500976
4697 1 0.730485 0.664791 0.500321
5157 1 0.743836 0.656982 0.501633
5199 1 0.706612 0.676177 0.500385
4920 1 0.693765 0.679881 0.500267
4853 1 0.718198 0.686111 0.500647
5070 1 0.729778 0.680814 0.500194
4791 1 0.719243 0.67194 0.498685
4576 1 0.742387 0.670359 0.499121
4808 1 0.742317 0.683614 0.500393
4115 1 0.965292 0.686151 0.499785
4769 1 0.553015 0.706023 0.500929
4424 1 0.655406 0.712731 0.499819
4554 1 0.666219 0.692793 0.500743
4713 1 0.682611 0.711035 0.500396
4484 1 0.678471 0.697334 0.500484
4699 1 0.694649 0.704169 0.501185
4796 1 0.69049 0.692435 0.501363
4933 1 0.705496 0.691715 0.501356
4799 1 0.721691 0.700614 0.500486
4515 1 0.734175 0.695973 0.501106
4931 1 0.736031 0.709276 0.502084
5060 1 0.72024 0.713871 0.501865
4645 1 0.749589 0.709414 0.499828
4442 1 0.746819 0.696852 0.501145
1647 1 0.933162 0.711588 0.501201
4117 1 0.964155 0.701837 0.499615
2002 1 0.977427 0.708796 0.499949
4527 1 0.978968 0.693653 0.501124
4913 1 0.520853 0.721881 0.500129
4562 1 0.516248 0.735367 0.501635
2409 1 0.546873 0.73471 0.500937
2250 1 0.5376 0.727299 0.502221
4626 1 0.562372 0.717298 0.499869
5057 1 0.550289 0.722111 0.500124
2111 1 0.560249 0.737363 0.49972
2125 1 0.575597 0.725048 0.500598
4845 1 0.592328 0.725583 0.499824
4832 1 0.577411 0.736757 0.501487
5257 1 0.590926 0.737954 0.501867
4852 1 0.60688 0.730057 0.501874
4999 1 0.627794 0.738082 0.500829
4971 1 0.650977 0.733786 0.500386
5132 1 0.671327 0.733145 0.500487
5121 1 0.682719 0.72721 0.50175
4916 1 0.672069 0.719671 0.501042
4936 1 0.695484 0.729339 0.499574
4706 1 0.706806 0.721319 0.500541
4963 1 0.733608 0.721769 0.50163
5203 1 0.721328 0.727212 0.501908
4878 1 0.737661 0.733497 0.50068
5216 1 0.745306 0.719739 0.500269
4544 1 0.925412 0.724789 0.499856
4879 1 0.922158 0.736437 0.5012
4604 1 0.914379 0.716238 0.4997
4891 1 0.94033 0.721336 0.500336
4899 1 0.935076 0.73382 0.499639
4686 1 0.952095 0.728463 0.500483
2362 1 0.964396 0.732568 0.501397
4614 1 0.967857 0.718681 0.499436
1936 1 0.978955 0.724948 0.500316
2003 1 0.989239 0.71481 0.501277
1648 1 0.990708 0.728088 0.502167
5263 1 0.51445 0.76129 0.502341
2263 1 0.519302 0.749179 0.501162
4922 1 0.501102 0.757912 0.501345
4911 1 0.505293 0.745235 0.501226
5259 1 0.531474 0.738391 0.500057
2406 1 0.537623 0.749742 0.502524
2191 1 0.527578 0.75737 0.502506
4909 1 0.552478 0.747819 0.502446
5044 1 0.569866 0.749041 0.501093
5048 1 0.560356 0.762703 0.502624
4708 1 0.585147 0.751006 0.50163
4924 1 0.576539 0.761128 0.502955
4912 1 0.590232 0.760895 0.503452
4993 1 0.601878 0.744909 0.502628
2185 1 0.613896 0.742357 0.501424
5139 1 0.603199 0.758462 0.501973
5261 1 0.619387 0.755987 0.502328
4774 1 0.6336 0.749867 0.500824
5124 1 0.637306 0.7644 0.502392
4984 1 0.66122 0.7428 0.499793
4840 1 0.661234 0.756271 0.501655
4647 1 0.685282 0.740303 0.501836
4709 1 0.67478 0.74796 0.500774
4940 1 0.678718 0.759946 0.501475
4633 1 0.709527 0.74822 0.50038
5145 1 0.693586 0.753179 0.501212
4725 1 0.706367 0.76216 0.501565
5001 1 0.699305 0.740999 0.502301
5073 1 0.720191 0.755145 0.500128
4731 1 0.729113 0.76042 0.500551
2280 1 0.902382 0.760047 0.500438
4328 1 0.904023 0.747139 0.500271
4970 1 0.891062 0.74368 0.498075
4758 1 0.918044 0.748932 0.501887
1928 1 0.927526 0.758836 0.501565
1858 1 0.934021 0.747338 0.502133
1791 1 0.945415 0.751986 0.503648
2288 1 0.945598 0.739116 0.502541
1937 1 0.963212 0.746875 0.504023
4548 1 0.955208 0.757624 0.504796
4829 1 0.966608 0.761215 0.506702
4124 1 0.978387 0.739454 0.50347
5098 1 0.976779 0.752736 0.504947
4403 1 0.992491 0.745433 0.502784
4678 1 0.987221 0.759295 0.504809
4989 1 0.506736 0.773032 0.502796
4841 1 0.519235 0.771816 0.502151
5046 1 0.512725 0.783865 0.501946
5054 1 0.532142 0.768021 0.504111
5260 1 0.544875 0.762933 0.503437
4977 1 0.538706 0.781142 0.504998
2271 1 0.52547 0.781994 0.503804
5069 1 0.550009 0.774737 0.504051
5343 1 0.565549 0.773346 0.504841
4851 1 0.574101 0.782673 0.505979
4651 1 0.585014 0.773198 0.503397
4919 1 0.611397 0.767624 0.503642
4726 1 0.596897 0.773792 0.502442
5133 1 0.609214 0.782838 0.504415
5065 1 0.595327 0.785352 0.503313
4939 1 0.623772 0.76886 0.503413
4660 1 0.621941 0.781427 0.504482
4844 1 0.634343 0.777058 0.503384
5265 1 0.65004 0.765232 0.501123
4843 1 0.657215 0.777415 0.500903
4648 1 0.643582 0.784541 0.502838
4923 1 0.668546 0.785392 0.501325
4921 1 0.680258 0.772295 0.501202
4654 1 0.708464 0.776612 0.499746
4934 1 0.693918 0.768384 0.500316
4998 1 0.718437 0.768651 0.501103
1861 1 0.903201 0.771738 0.500607
4542 1 0.914057 0.764196 0.500703
5097 1 0.923935 0.7734 0.502371
2070 1 0.913861 0.779861 0.50152
2142 1 0.939102 0.767034 0.50537
5314 1 0.942352 0.779345 0.50455
2289 1 0.953834 0.770377 0.505872
2286 1 0.954248 0.785274 0.5058
2223 1 0.966428 0.775013 0.505249
4549 1 0.977858 0.76966 0.504152
2487 1 0.991766 0.774432 0.504185
2156 1 0.982344 0.782933 0.50449
2267 1 0.504857 0.794922 0.50167
5136 1 0.519771 0.796046 0.502341
4849 1 0.50907 0.808174 0.501726
2200 1 0.524231 0.809577 0.503029
5332 1 0.536728 0.806505 0.504102
5042 1 0.532191 0.793106 0.50362
5005 1 0.544698 0.793242 0.50459
5063 1 0.558223 0.787897 0.504512
5469 1 0.553196 0.803073 0.505554
5131 1 0.572286 0.795434 0.505721
5278 1 0.585419 0.792825 0.504674
5072 1 0.591022 0.806949 0.504191
5128 1 0.574288 0.807676 0.503684
2478 1 0.60222 0.796904 0.504126
5211 1 0.616818 0.793338 0.503803
4867 1 0.611411 0.804745 0.503396
5116 1 0.631669 0.790534 0.503982
4792 1 0.624956 0.804557 0.50388
4712 1 0.637374 0.802998 0.502277
4860 1 0.647106 0.795784 0.500923
4858 1 0.659993 0.79595 0.5019
5414 1 0.683034 0.78433 0.500459
5484 1 0.682796 0.803395 0.501417
4935 1 0.671204 0.801173 0.502397
4864 1 0.706775 0.802915 0.500387
4797 1 0.706425 0.790555 0.500581
5339 1 0.692376 0.794013 0.502193
1930 1 0.888423 0.792366 0.499862
5106 1 0.883459 0.80734 0.500203
2000 1 0.908279 0.802427 0.499608
2281 1 0.918475 0.795222 0.50266
4612 1 0.917603 0.810104 0.50112
5305 1 0.907003 0.789417 0.500945
2144 1 0.932338 0.805489 0.502915
2215 1 0.930235 0.786218 0.503333
2138 1 0.942993 0.794629 0.504362
2356 1 0.968786 0.789139 0.50458
2296 1 0.959552 0.79661 0.504555
1947 1 0.967029 0.805529 0.504131
5173 1 0.954343 0.808751 0.504112
2090 1 0.980127 0.797334 0.504003
4748 1 0.992649 0.793016 0.503956
2149 1 0.987857 0.807578 0.503461
2624 1 0.501472 0.824793 0.501746
5400 1 0.513551 0.821505 0.501124
5268 1 0.529121 0.822797 0.502706
5190 1 0.543112 0.827407 0.501867
5130 1 0.546899 0.815779 0.502738
5126 1 0.558298 0.828859 0.503557
5326 1 0.561215 0.814605 0.503883
4863 1 0.58453 0.817952 0.502442
5189 1 0.570672 0.82599 0.503562
5205 1 0.584569 0.831524 0.503303
2822 1 0.601528 0.8126 0.502606
5266 1 0.608369 0.823223 0.50274
4772 1 0.595108 0.824251 0.503451
5012 1 0.633487 0.814909 0.502067
5085 1 0.618189 0.8152 0.502336
4870 1 0.619294 0.829921 0.500838
4875 1 0.650722 0.806501 0.502321
4985 1 0.656786 0.821219 0.500239
5149 1 0.645282 0.821249 0.499487
5417 1 0.66683 0.814682 0.500504
5141 1 0.706725 0.820741 0.499585
2282 1 0.900581 0.815289 0.499469
2292 1 0.904502 0.829816 0.498967
5227 1 0.919746 0.830167 0.500984
2285 1 0.943692 0.814764 0.502907
2212 1 0.926655 0.818433 0.500883
2572 1 0.932847 0.83044 0.501366
5455 1 0.944441 0.828006 0.502653
2154 1 0.958703 0.820237 0.503892
2229 1 0.975609 0.814434 0.503922
2206 1 0.956025 0.833565 0.503898
2429 1 0.970232 0.827115 0.504482
1862 1 0.997782 0.831831 0.504328
2430 1 0.983629 0.827209 0.504051
5386 1 0.995145 0.818998 0.503489
5202 1 0.506754 0.851433 0.503099
5197 1 0.517246 0.834152 0.502662
4927 1 0.503652 0.837436 0.50128
2405 1 0.519354 0.848225 0.502783
3028 1 0.531226 0.836732 0.502116
2809 1 0.53961 0.850418 0.503448
4771 1 0.546164 0.84049 0.502338
5137 1 0.553417 0.852616 0.503652
5402 1 0.56045 0.843138 0.502522
5340 1 0.566245 0.855833 0.501991
5478 1 0.573546 0.837893 0.502281
5142 1 0.576902 0.848771 0.5023
5333 1 0.589186 0.842463 0.502511
4982 1 0.592209 0.854709 0.500721
5363 1 0.600683 0.838133 0.500699
5272 1 0.604638 0.851667 0.500081
5490 1 0.657118 0.835359 0.499903
5411 1 0.659127 0.847878 0.501046
4941 1 0.673012 0.842641 0.500832
5311 1 0.911976 0.857159 0.501766
2350 1 0.915923 0.842616 0.500602
5169 1 0.927 0.852495 0.503722
2217 1 0.931565 0.842669 0.501829
5246 1 0.941555 0.851287 0.504834
5242 1 0.948069 0.843298 0.502808
2420 1 0.96697 0.839922 0.50375
5176 1 0.959606 0.851967 0.504848
4684 1 0.993259 0.84472 0.503681
5315 1 0.97843 0.839008 0.504894
2502 1 0.976146 0.851328 0.505074
32 1 0.503791 0.875771 0.503609
4979 1 0.502683 0.862869 0.504139
5134 1 0.517765 0.86321 0.504488
2482 1 0.517765 0.876768 0.503127
5183 1 0.546295 0.875766 0.504698
5482 1 0.545578 0.86301 0.502761
5200 1 0.532122 0.860177 0.50291
2256 1 0.531636 0.877829 0.504243
2410 1 0.559289 0.866959 0.501834
2768 1 0.55783 0.880818 0.50114
5467 1 0.582522 0.874499 0.499402
5254 1 0.597876 0.865661 0.500397
5404 1 0.658599 0.862087 0.500519
5468 1 0.677022 0.875935 0.499424
2794 1 0.894085 0.85851 0.499014
5165 1 0.904023 0.86712 0.500728
5447 1 0.91295 0.875926 0.502033
5038 1 0.925371 0.868609 0.502556
2428 1 0.93172 0.878623 0.506083
4967 1 0.949364 0.861546 0.504276
2571 1 0.943072 0.874415 0.503712
5179 1 0.935446 0.863544 0.505977
2500 1 0.958385 0.872589 0.504738
2490 1 0.968886 0.862639 0.507474
2284 1 0.998042 0.858171 0.505301
2496 1 0.999926 0.87358 0.503248
2495 1 0.976583 0.873414 0.505473
5248 1 0.985032 0.861863 0.50543
2413 1 0.505086 0.889394 0.504211
2773 1 0.51866 0.888531 0.504519
5321 1 0.512969 0.901694 0.503504
4938 1 0.537236 0.891637 0.50373
2546 1 0.527618 0.899889 0.504255
2481 1 0.549518 0.891041 0.503549
5182 1 0.550093 0.903489 0.503082
5193 1 0.566723 0.893995 0.500309
5329 1 0.595861 0.882697 0.499571
5461 1 0.660605 0.893794 0.499972
4885 1 0.889685 0.883729 0.500071
5381 1 0.90401 0.883388 0.500546
5033 1 0.915619 0.905509 0.499043
2421 1 0.911263 0.895099 0.502389
2346 1 0.922193 0.885834 0.503326
5304 1 0.941632 0.890952 0.504557
2417 1 0.926762 0.898568 0.502991
5382 1 0.952141 0.901203 0.502501
2588 1 0.965832 0.882079 0.504582
2361 1 0.962624 0.895324 0.503942
5524 1 0.952191 0.883644 0.503526
2211 1 0.973037 0.903888 0.504815
2347 1 0.996985 0.890678 0.503449
5376 1 0.977399 0.890216 0.504154
2701 1 0.987582 0.900298 0.50471
2493 1 0.988146 0.880548 0.505312
2426 1 0.997911 0.903715 0.501537
2549 1 0.501048 0.907867 0.501654
5462 1 0.520051 0.914117 0.503372
4902 1 0.507187 0.919483 0.501176
88 1 0.518988 0.927777 0.501483
2812 1 0.53097 0.921849 0.502544
5122 1 0.535819 0.910332 0.503181
2946 1 0.546996 0.91966 0.503795
2767 1 0.558074 0.928667 0.503708
3021 1 0.559885 0.915829 0.500529
5470 1 0.571117 0.905655 0.501373
2619 1 0.572318 0.92298 0.500999
2274 1 0.588548 0.922707 0.501324
2694 1 0.594428 0.906189 0.501276
5474 1 0.600178 0.918929 0.50227
5393 1 0.645475 0.91713 0.500177
5076 1 0.663403 0.918222 0.500753
5282 1 0.666601 0.905482 0.500209
5454 1 0.927041 0.911576 0.501483
2352 1 0.940153 0.905593 0.502142
2710 1 0.949424 0.916194 0.501904
5320 1 0.971915 0.918013 0.503375
2629 1 0.960133 0.92223 0.502455
112 1 0.962295 0.908702 0.502925
10 1 0.98501 0.924483 0.502578
5249 1 0.993717 0.917412 0.501776
5388 1 0.983027 0.911007 0.502502
522 1 0.513837 0.949172 0.5013
5337 1 0.523432 0.940832 0.502575
2335 1 0.508815 0.937526 0.500318
30 1 0.532072 0.950794 0.502532
2551 1 0.534852 0.932807 0.502285
2763 1 0.546083 0.93834 0.503837
2337 1 0.567567 0.935388 0.502757
170 1 0.5584 0.942579 0.504376
2959 1 0.570031 0.94775 0.505328
5328 1 0.593823 0.950956 0.503944
2770 1 0.583888 0.94513 0.50525
2760 1 0.581168 0.933868 0.503064
5323 1 0.595753 0.93463 0.502429
2880 1 0.605584 0.943188 0.504379
3029 1 0.607813 0.931202 0.502218
2949 1 0.620735 0.948344 0.504475
2883 1 0.622788 0.933847 0.502708
2808 1 0.633411 0.945166 0.503309
5334 1 0.63883 0.93132 0.500967
5418 1 0.652177 0.939431 0.501867
5110 1 0.948826 0.942181 0.500923
5390 1 0.94893 0.928631 0.500973
2713 1 0.97064 0.946106 0.500525
2 1 0.961569 0.936638 0.501035
2697 1 0.974048 0.929312 0.500911
2511 1 0.993559 0.933094 0.50013
385 1 0.500498 0.955896 0.499761
2689 1 0.507192 0.964916 0.501463
3504 1 0.521599 0.959633 0.502025
2755 1 0.527934 0.970701 0.502078
2769 1 0.538498 0.964789 0.502679
3095 1 0.546948 0.951804 0.505112
449 1 0.563151 0.958549 0.505158
2544 1 0.560491 0.974744 0.503324
2411 1 0.551432 0.964264 0.504084
5394 1 0.573638 0.970461 0.504445
5256 1 0.581195 0.957779 0.506177
244 1 0.589172 0.96891 0.504511
5395 1 0.602123 0.965423 0.505276
2885 1 0.610419 0.957551 0.504484
5007 1 0.617615 0.969474 0.504778
2829 1 0.641046 0.954067 0.504546
5287 1 0.629599 0.961282 0.504776
5075 1 0.641025 0.967955 0.5047
2879 1 0.653148 0.955168 0.50288
5068 1 0.655862 0.970912 0.503561
5421 1 0.669033 0.960941 0.501211
5271 1 0.674883 0.971897 0.500483
3099 1 0.679364 0.953071 0.500668
5247 1 0.960273 0.954139 0.500616
5383 1 0.97375 0.958361 0.5
5527 1 0.971323 0.970067 0.501853
312 1 0.502471 0.989881 0.500632
2749 1 0.501213 0.975651 0.500122
594 1 0.520118 0.990833 0.501147
2952 1 0.515952 0.974841 0.50056
2688 1 0.546394 0.97966 0.503023
5477 1 0.544787 0.994633 0.503227
2774 1 0.533727 0.984486 0.502862
2801 1 0.570486 0.984528 0.504248
3097 1 0.55682 0.98918 0.502948
2555 1 0.563983 1.00136 0.504442
2875 1 0.5851 0.981953 0.503611
5407 1 0.591676 0.995462 0.503705
2804 1 0.579758 0.995364 0.502815
2780 1 0.615387 0.988158 0.502873
5273 1 0.598128 0.981022 0.50423
2969 1 0.604375 0.99348 0.503538
5403 1 0.609089 0.9775 0.505122
3101 1 0.642366 1.00005 0.502546
314 1 0.628774 0.997661 0.503486
5201 1 0.636213 0.98858 0.503894
5480 1 0.625965 0.980332 0.504447
104 1 0.654863 0.991682 0.503131
2951 1 0.664206 0.98116 0.502519
2771 1 0.645288 0.981372 0.503354
5277 1 0.680118 1.00091 0.503121
2841 1 0.667463 0.99784 0.502024
5494 1 0.68806 0.988709 0.499873
2819 1 0.701871 0.992885 0.501214
5174 1 0.99612 0.994193 0.499967
